11
endpoint_forward; coordinates in Angstrom
C  -0.0324583641 -0.2127914852  1.3982875408
C   0.0099518167  0.5727059753  0.0812570075
C  -0.2973619369 -0.1319162071 -1.2236207988
H   0.7362657785  0.1803179854  2.0769035439
H   0.1917157987 -1.2767812785  1.2367571691
H  -0.9988888553 -0.1415105974  1.9158142184
H  -0.5237643512  1.5305177946  0.1632746022
H  -0.7096114124 -1.1456508692 -1.1640059891
H  -0.8110815369  0.4725741161 -1.9780458818
H   1.0591387255  0.8469893692 -0.0891904506
F   1.1390230460 -0.3312029803 -1.8215783997
