11
mark_scan_05; coordinates in Angstrom
C   0.1701812561 -0.1830108821  1.3613561432
C   0.2559938094  0.4546313726 -0.0045781721
C  -0.7392718006  0.1006403647 -0.9752738619
H  -0.5923026636  0.3322246593  1.9641779180
H   1.1476860463 -0.1131208421  1.8588548002
H  -0.0776287215 -1.2507313661  1.2854771547
H   0.5705459300  1.5046649574 -0.0086540892
H  -1.3323175333 -0.4561671338 -1.7101561759
H  -1.2469360093  1.0261746409 -1.2881686143
H   0.2944726036 -0.8082223484 -1.4661357206
F   1.5495770827 -0.6070834224 -1.0168993821
