11
scan_06; coordinates in Angstrom
C  -0.0332029305 -0.1555031992  1.3628409772
C   0.2404902496  0.4328943970 -0.0046018595
C  -0.5007286257 -0.0688889514 -1.1471031796
H   0.1588666189  0.5362703164  2.1946435766
H   0.6005019250 -1.0369900706  1.5421544217
H  -1.0798592102 -0.4720982496  1.4781455277
H   0.3303179475  1.5267533777  0.0086158567
H  -0.8740860181 -1.0982724467 -1.0869264580
H  -1.2439506840  0.6250015578 -1.5547498587
H   1.3569883956  0.0280411312 -0.6949685314
F   1.0446623320 -0.3172078627 -2.0980504727
