              Grand Master is running on host yaroslavhonor
              rank #     1 is running on host yaroslavhonor

          ******************************************************
          *      Firefly version 8.2.0, build number 10203     *
          *   Compiled on    Monday,    19-09-2016, 15:30:23   *
          *Code development and Intel/AMD specific optimization*
          *  Copyright (c) 1994, 2016 by  Alex A. Granovsky,   *
          *          Firefly Project, Moscow, Russia.          *
          *   Some parts of this program include code due to   *
          * work of Jim Kress, Peter Burger, and Robert Ponec. *
          ******************************************************
          *             Firefly Project homepage:              *
          * http://classic.chem.msu.su/gran/firefly/index.html *
          *                      e-mail:                       *
          *               gran@classic.chem.msu.su             *
          *This program is not a free software and is provided *
          *exclusively to its registered users under the terms *
          *       of Firefly package license agreement         *
          * Unauthorized use of Firefly is strongly prohibited *
          *   This program may not be redistributed without    *
          * the specific, written permission of its developers.*
          ******************************************************

          ******************************************************
          *  PARTIALLY BASED ON  US GAMESS VERSION 6 JUN 1999, *
          *   US GAMESS VERSIONS  6 SEP 2001 AND 12 DEC 2003   *
          *             FROM IOWA STATE UNIVERSITY             *
          * M.W.SCHMIDT, K.K.BALDRIDGE, J.A.BOATZ, S.T.ELBERT, *
          *   M.S.GORDON, J.H.JENSEN, S.KOSEKI, N.MATSUNAGA,   *
          *          K.A.NGUYEN, S.J.SU, T.L.WINDUS,           *
          *       TOGETHER WITH M.DUPUIS, J.A.MONTGOMERY       *
          *         J.COMPUT.CHEM.  14, 1347-1363(1993)        *
          ******************************************************


 Core i7    / Linux  Firefly version running under Linux.
 Running on Intel CPU:  Brand ID  0, Family  6, Model 170, Stepping  4
 CPU Brand String    :  Intel(R) Core(TM) Ultra 5 125H                  
 CPU Features        :  x87 FPU, CMOV, MMX, SSE, SSE2, SSE3, SSSE3, SSE4.1, SSE4.2, AVX, AVX2, FMA3, HTT, MWAIT, EM64T
 Data cache size     :  L1 48 KB, L2 2048 KB, L3 18432 KB
 max    # of   cores/package :  64
 max    # of threads/package : 128
 max     cache sharing level :  64
 actual # of   cores/package :   9
 actual # of threads/package :  18
 actual # of threads/core    :   2
 Operating System successfully passed SSE support test.
 Operating System supports AVX/FMA.


 PARALLEL VERSION (MPICH) RUNNING USING    2 PROCESSES (RANKS)


 WARNING! THIS VERSION OF FIREFLY IS PROBABLY OUTDATED!
 PLEASE CHECK FIREFLY HOMEPAGE FOR INFORMATION ON UPDATES!

 EXECUTION OF FIREFLY BEGUN 13:51:22 23-APR-2026    

            ECHO OF THE FIRST FEW INPUT CARDS -
 INPUT CARD> $CONTRL SCFTYP=RHF RUNTYP=ENERGY UNITS=BOHR ICHARG=0 MULT=1 $END               
 INPUT CARD> $BASIS GBASIS=STO NGAUSS=3 $END                                                
 INPUT CARD> $GUESS GUESS=HUCKEL $END                                                       
 INPUT CARD> $SCF DAMP=.T. DIIS=.T. DIRSCF=.T. $END                                         
 INPUT CARD> $SYSTEM MWORDS=50 TIMLIM=120 $END                                              
 INPUT CARD> $DATA                                                                          
 INPUT CARD>H2 RHF STO-3G R=5.102260 bohr                                                   
 INPUT CARD>C1                                                                              
 INPUT CARD>H 1.0 0.0 0.0 2.55113008                                                        
 INPUT CARD>H 1.0 0.0 0.0 -2.55113008                                                       
 INPUT CARD> $END                                                                           
   50000000 WORDS OF MEMORY AVAILABLE

 This job is executing on     1 unique host(s)
 Minimum number of processes per host is:    2
 Maximum number of processes per host is:    2

 On master's host, detected   18 CPU core(s) in aggregate

 Using processor-specific dynamic link DGEMM library code.


 Warning: HTT is enabled, bitmask of physically unique cores is 0x000000B4

 SMT aware parts of program will use              2 threads.

 Creating thread pool to serve up to            128 threads.


 Loading P2P interface library... loaded successfully (version 2.4).
 Initializing global P2P interface... topology done.


     BASIS OPTIONS
     -------------
     GBASIS=STO          IGAUSS=       3      POLAR=NONE    
     NDFUNC=       0     NFFUNC=       0     DIFFSP=       F
     NPFUNC=       0      DIFFS=       F


     RUN TITLE
     ---------
 H2 RHF STO-3G R=5.102260 bohr                                                   

 THE POINT GROUP OF THE MOLECULE IS C1      
 THE ORDER OF THE PRINCIPAL AXIS IS     0

 ATOM      ATOMIC                      COORDINATES (BOHR)
           CHARGE         X                   Y                   Z
 H           1.0     0.0000000000        0.0000000000        2.5511300800
 H           1.0     0.0000000000        0.0000000000       -2.5511300800

          INTERNUCLEAR DISTANCES (ANGS.)
          ------------------------------

                    H              H         

  1  H               0.0000000      2.6999998 *  
  2  H               2.6999998 *    0.0000000    

  * ... LESS THAN  3.000


     ATOMIC BASIS SET
     ----------------
 THE CONTRACTED PRIMITIVE FUNCTIONS HAVE BEEN UNNORMALIZED
 THE CONTRACTED BASIS FUNCTIONS ARE NOW NORMALIZED TO UNITY

 SHELL TYPE PRIM    EXPONENT          CONTRACTION COEFFICIENTS

 H         

   1   S    1       3.425251    0.276934 (  0.154329) 
   1   S    2       0.623914    0.267839 (  0.535328) 
   1   S    3       0.168855    0.083474 (  0.444635) 

 H         

   2   S    4       3.425251    0.276934 (  0.154329) 
   2   S    5       0.623914    0.267839 (  0.535328) 
   2   S    6       0.168855    0.083474 (  0.444635) 

 TOTAL NUMBER OF SHELLS              =    2
 TOTAL NUMBER OF BASIS FUNCTIONS     =    2
 NUMBER OF ELECTRONS                 =    2
 CHARGE OF MOLECULE                  =    0
 STATE MULTIPLICITY                  =    1
 NUMBER OF OCCUPIED ORBITALS (ALPHA) =    1
 NUMBER OF OCCUPIED ORBITALS (BETA ) =    1
 TOTAL NUMBER OF ATOMS               =    2
 THE NUCLEAR REPULSION ENERGY IS        0.1959915741

 THIS MOLECULE IS RECOGNIZED AS BEING LINEAR.

     $CONTRL OPTIONS
     ---------------
     SCFTYP=RHF          RUNTYP=ENERGY       EXETYP=RUN     
     MPLEVL=       0     LOCAL =NONE         UNITS =BOHR    
     MULT  =       1     ICHARG=       0     MAXIT =      30
     NPRINT=       7     IREST =       0     COORD =UNIQUE  
     ECP   =NONE         NORMF =       0     NORMP =       0
     ITOL  =      20     ICUT  =       9     NZVAR =       0
     NOSYM =       0     INTTYP=POPLE        GEOM  =INPUT   
     PLTORB=       F     MOLPLT=       F     RPAC  =       F
     AIMPAC=       0     FRIEND=             CITYP =NONE    
     DFTTYP=NONE    

     $SYSTEM OPTIONS
     ---------------
     KDIAG =       0     MEMORY= 50000000     TIMLIM=     7200.0 SEC.
     COREFL=       F     PTIME =        F     XDR   =       F
     BALTYP=NXTVAL       CBASE = 09001000     FBASE = F30410C0

          ----------------
          PROPERTIES INPUT
          ----------------

     MOMENTS            FIELD           POTENTIAL          DENSITY
 IEMOM =       1   IEFLD =       0   IEPOT =       0   IEDEN =       0
 WHERE =COMASS     WHERE =NUCLEI     WHERE =NUCLEI     WHERE =NUCLEI  
 OUTPUT=BOTH       OUTPUT=BOTH       OUTPUT=BOTH       OUTPUT=BOTH    
 IEMINT=       0   IEFINT=       0                     IEDINT=       0
                                                       MORB  =       0

          EXTRAPOLATION IN EFFECT
          DAMPING IN EFFECT
          DIIS IN EFFECT

          ----------------------
          INTEGRAL INPUT OPTIONS
          ----------------------
 NOPK  =       1 NORDER=       0 SCHWRZ=       T

 ATTENTION! AO INTEGRALS WILL BE PACKED.
 THRESHOLD FOR PACKING PKTHR =  0.10000000D-01

     -------------------------------
     INTEGRAL TRANSFORMATION OPTIONS
     -------------------------------
     NWORD  =       0     CUTTRF = 1.0E-09
     MPTRAN =       0     DIRTRF =       T
     AOINTS =DUP          IREST  =       0

     ------------------------------------------
     THE POINT GROUP IS C1 , NAXIS= 0, ORDER= 1
     ------------------------------------------

     DIMENSIONS OF THE SYMMETRY SUBSPACES ARE
 A   =   2

 ..... DONE SETTING UP THE RUN .....

                         TIMING STATISTICS ON RANK 0:
 CPU        TIME:   STEP =      0.08 ,  TOTAL =        0.2 SECONDS (    0.0 MIN)
 WALL CLOCK TIME:   STEP =      0.09 ,  TOTAL =        0.1 SECONDS (    0.0 MIN)
 CPU UTILIZATION:   STEP =     87.26%,  TOTAL =     185.42%

          ********************
          1 ELECTRON INTEGRALS
          ********************
 ...... END OF ONE-ELECTRON INTEGRALS ......

                         TIMING STATISTICS ON RANK 0:
 CPU        TIME:   STEP =      0.00 ,  TOTAL =        0.2 SECONDS (    0.0 MIN)
 WALL CLOCK TIME:   STEP =      0.00 ,  TOTAL =        0.1 SECONDS (    0.0 MIN)
 CPU UTILIZATION:   STEP =      0.00%,  TOTAL =     185.12%

          -------------
          GUESS OPTIONS
          -------------
          GUESS =HUCKEL            NORB  =       0          NORDER=       0
          MIX   =       F          PRTMO =       F          SYMDEN=       F
          TOLZ  = 0.0E+00          TOLE  = 0.0E+00

 INITIAL GUESS ORBITALS GENERATED BY HUCKEL   ROUTINE.
 HUCKEL GUESS REQUIRES      1320 WORDS.

 LOG10 OF CONDITION NUMBER OF OVERLAP MATRIX IS:  2.92836346E-02

 SYMMETRIES FOR INITIAL GUESS ORBITALS FOLLOW.   BOTH SET(S).
     1 ORBITALS ARE OCCUPIED (    0 CORE ORBITALS).
     1=A        2=A   
 ...... END OF INITIAL ORBITAL SELECTION ......

                         TIMING STATISTICS ON RANK 0:
 CPU        TIME:   STEP =      0.00 ,  TOTAL =        0.2 SECONDS (    0.0 MIN)
 WALL CLOCK TIME:   STEP =      0.00 ,  TOTAL =        0.1 SECONDS (    0.0 MIN)
 CPU UTILIZATION:   STEP =      0.00%,  TOTAL =     183.78%

          --------------------
          2 ELECTRON INTEGRALS
          --------------------

 DIRECT SCF METHOD SKIPS INTEGRAL STORAGE ON DISK.
 DIRECT TRANSFORMATION SKIPS AO INTEGRAL STORAGE ON DISK.
 SCHWARZ INEQUALITY OVERHEAD:         3 INTEGRALS, CPU TIME=        0.00
 ...... END OF TWO-ELECTRON INTEGRALS .....

                         TIMING STATISTICS ON RANK 0:
 CPU        TIME:   STEP =      0.00 ,  TOTAL =        0.2 SECONDS (    0.0 MIN)
 WALL CLOCK TIME:   STEP =      0.00 ,  TOTAL =        0.1 SECONDS (    0.0 MIN)
 CPU UTILIZATION:   STEP =      0.00%,  TOTAL =     181.30%

          -------------------
          RHF SCF CALCULATION
          -------------------

     NUCLEAR ENERGY =         0.1959915741
     MAXIT =   30     NPUNCH=    2
     EXTRAP=T  DAMP=T  SHIFT=F  RSTRCT=F  DIIS=T  DEM=F  SOSCF=F
     DENSITY CONV=  2.00E-05
     MEMORY REQUIRED FOR RHF STEP=     14936 WORDS.

 DIRECT SCF CALCULATION, SCHWRZ=T   FDIFF=T
 SCHWARZ INEQUALITY OVERHEAD:         3 INTEGRALS, CPU TIME=        0.00

                                                                                                              NONZERO    BLOCKS
 ITER EX DEM  TOTAL ENERGY      E CHANGE  DENSITY CHANGE    DIIS ERROR      VIR. SHIFT       DAMPING        INTEGRALS   SKIPPED
          * * *   INITIATING DIIS PROCEDURE   * * *
   1  0  0    -0.680940781    -0.680940781   0.000000000   0.000000000     0.000000000     1.000000000              6         0
   2  1  0    -0.680940781     0.000000000   0.000000000   0.000000000     0.000000000     1.000000000              0         6

          -----------------
          DENSITY CONVERGED
          -----------------
     TIME TO FORM FOCK OPERATORS =       0.00 SECONDS (       0.00 SEC/ITER)
     FOCK TIME ON FIRST ITERATION=       0.00, LAST ITERATION=       0.00
     TIME TO SOLVE SCF EQUATIONS =       0.00 SECONDS (       0.00 SEC/ITER)

 FINAL ENERGY IS       -0.6809407807 AFTER   2 ITERATIONS

          ------------
          EIGENVECTORS
          ------------

                      1          2
                   -0.1989     0.0349
                     A          A   
    1  H   1  S  -0.695485  -0.719332
    2  H   2  S  -0.695485   0.719332

 WARNING! THIS VERSION OF FIREFLY IS PROBABLY OUTDATED!
 PLEASE CHECK FIREFLY HOMEPAGE FOR INFORMATION ON UPDATES!

 ...... END OF RHF CALCULATION ......

                         TIMING STATISTICS ON RANK 0:
 CPU        TIME:   STEP =      0.01 ,  TOTAL =        0.2 SECONDS (    0.0 MIN)
 WALL CLOCK TIME:   STEP =      0.00 ,  TOTAL =        0.1 SECONDS (    0.0 MIN)
 CPU UTILIZATION:   STEP =    270.05%,  TOTAL =     184.68%


                         ------------------------------
                         properties for the RHF density
                         ------------------------------

          -----------------
          ENERGY COMPONENTS
          -----------------

         WAVEFUNCTION NORMALIZATION =       1.0000000000

                ONE ELECTRON ENERGY =      -1.3561479333
                TWO ELECTRON ENERGY =       0.4792155786
           NUCLEAR REPULSION ENERGY =       0.1959915741
                                      ------------------
                       TOTAL ENERGY =      -0.6809407807

 ELECTRON-ELECTRON POTENTIAL ENERGY =       0.4792155786
  NUCLEUS-ELECTRON POTENTIAL ENERGY =      -2.8088295820
   NUCLEUS-NUCLEUS POTENTIAL ENERGY =       0.1959915741
                                      ------------------
             TOTAL POTENTIAL ENERGY =      -2.1336224294
               TOTAL KINETIC ENERGY =       1.4526816487
                 VIRIAL RATIO (V/T) =       1.4687474240

  ...... PI ENERGY ANALYSIS ......

 ENERGY ANALYSIS:
            FOCK ENERGY=      -0.3977167762
          BARE H ENERGY=      -1.3561479333
     ELECTRONIC ENERGY =      -0.8769323548
         KINETIC ENERGY=       1.4526816487
          N-N REPULSION=       0.1959915741
           TOTAL ENERGY=      -0.6809407807
        SIGMA PART(1+2)=      -0.8769323548
               (K,V1,2)=       1.4526816487      -2.8088295820       0.4792155786
           PI PART(1+2)=       0.0000000000
               (K,V1,2)=       0.0000000000       0.0000000000       0.0000000000
  SIGMA SKELETON, ERROR=      -0.6809407807       0.0000000000
             MIXED PART= 0.00000E+00 0.00000E+00 0.00000E+00 0.00000E+00
 ...... END OF PI ENERGY ANALYSIS ......

          ---------------------------------------
          MULLIKEN AND LOWDIN POPULATION ANALYSES
          ---------------------------------------

     MULLIKEN ATOMIC POPULATION IN EACH MOLECULAR ORBITAL

                      1

                  2.000000

    1             1.000000
    2             1.000000

               ----- POPULATIONS IN EACH AO -----
                             MULLIKEN      LOWDIN
              1  H   1  S     1.00000     1.00000
              2  H   2  S     1.00000     1.00000

          ----- MULLIKEN ATOMIC OVERLAP POPULATIONS -----
          (OFF-DIAGONAL ELEMENTS NEED TO BE MULTIPLIED BY 2)

             1           2

    1    0.9673975
    2    0.0326025   0.9673975

          TOTAL MULLIKEN AND LOWDIN ATOMIC POPULATIONS
       ATOM         MULL.POP.    CHARGE          LOW.POP.     CHARGE
    1 H             1.000000    0.000000         1.000000    0.000000
    2 H             1.000000    0.000000         1.000000    0.000000

          -------------------------------
          BOND ORDER AND VALENCE ANALYSIS     BOND ORDER THRESHOLD=0.050
          -------------------------------

                   BOND                       BOND                       BOND
  ATOM PAIR DIST  ORDER      ATOM PAIR DIST  ORDER      ATOM PAIR DIST  ORDER
    1   2  2.700  1.000

                       TOTAL       BONDED        FREE
      ATOM            VALENCE     VALENCE     VALENCE
    1 H                 1.000       1.000       0.000
    2 H                 1.000       1.000       0.000

          ---------------------
          ELECTROSTATIC MOMENTS
          ---------------------

 POINT   1           X           Y           Z (BOHR)    CHARGE
                 0.000000    0.000000    0.000000        0.00 (A.U.)
         DX          DY          DZ         /D/  (DEBYE)
     0.000000    0.000000    0.000000    0.000000
 ...... END OF PROPERTY EVALUATION ......

                         TIMING STATISTICS ON RANK 0:
 CPU        TIME:   STEP =      0.00 ,  TOTAL =        0.2 SECONDS (    0.0 MIN)
 WALL CLOCK TIME:   STEP =      0.00 ,  TOTAL =        0.1 SECONDS (    0.0 MIN)
 CPU UTILIZATION:   STEP =      0.00%,  TOTAL =     183.84%
 ......END OF NBO ANALYSIS......

                         TIMING STATISTICS ON RANK 0:
 CPU        TIME:   STEP =      0.00 ,  TOTAL =        0.2 SECONDS (    0.0 MIN)
 WALL CLOCK TIME:   STEP =      0.00 ,  TOTAL =        0.1 SECONDS (    0.0 MIN)
 CPU UTILIZATION:   STEP =      0.00%,  TOTAL =     183.32%

                         OVERALL  TIMING  STATISTICS:
 GLOBAL CPU TIME ELAPSED      =         0.3 SECONDS (     0.0 MIN)
 RANK 0 WALL CLOCK TIME       =         0.1 SECONDS (     0.0 MIN)
 JOB CPU UTILIZATION:   TOTAL =    356.40%, PER RANK AVERAGE =    178.11%

      396843 WORDS OF    DYNAMIC MEMORY USED
     5585795 BYTES OF    HEAP MEMORY    USED,      113783 BYTES REMAIN IN USE

 WARNING! THIS VERSION OF FIREFLY IS PROBABLY OUTDATED!
 PLEASE CHECK FIREFLY HOMEPAGE FOR INFORMATION ON UPDATES!

 EXECUTION OF FIREFLY TERMINATED NORMALLY 13:51:22 23-APR-2026    
