11
irc_reverse; coordinates in Angstrom
C  -0.0054660872 -0.2017995126  1.3877681979
C  -0.0686152308  0.5323819393  0.0607707459
C  -0.5277916843 -0.0848577989 -1.1149164950
H   0.8063113622  0.1903981767  2.0142683083
H   0.1765447835 -1.2746948469  1.2372056843
H  -0.9433116681 -0.0899574240  1.9519494857
H  -0.1621870025  1.6212695939  0.1010223278
H  -0.7262068814 -1.1552440979 -1.1591925000
H  -0.8309251092  0.4975266908 -1.9823765558
H   0.9836079665  0.2866602595 -0.6608240693
F   1.2980395514 -0.3216829800 -1.8356751297
