11
scan_02; coordinates in Angstrom
C   0.0138626239 -0.1923121959  1.3723778446
C  -0.0277401964  0.5405307370  0.0602359195
C  -0.7452835063  0.1329541982 -1.0430108567
H  -0.2175382039  0.4589467095  2.2282590093
H   1.0162342904 -0.6061940502  1.5599558467
H  -0.7080901679 -1.0196660180  1.4009900486
H   0.3283994305  1.5761948952  0.0863262025
H  -1.3270229617 -0.7922006130 -1.0047902881
H  -1.0677729701  0.8892804974 -1.7623017476
H   1.1967153950 -0.1698983274 -1.0623643011
F   1.5382362665 -0.8176358328 -1.8356776778
