11
mark_peak_hessian; coordinates in Angstrom
C   0.1923522928 -0.1749569033  1.3464146609
C   0.3032486429  0.4351619216 -0.0326007715
C  -0.7236928917  0.0762011704 -0.9977674750
H  -0.6145565551  0.3160717160  1.9098158422
H   1.1480274825 -0.0587130395  1.8759312317
H  -0.0051269466 -1.2540797027  1.2825537578
H   0.5938211489  1.4925022359 -0.0391145760
H  -1.2242268894 -0.3146529060 -1.8930131481
H  -1.3351328269  0.9839516491 -1.1332167820
H   0.1461831806 -0.9230272136 -1.3830425737
F   1.5191033621 -0.5784589279 -0.9359601663
