11
mark_scan_09; coordinates in Angstrom
C   0.2482675923 -0.1591740906  1.2899328186
C   0.4115335307  0.3529515203 -0.1284821380
C  -0.7066664545 -0.0006205209 -1.0672573509
H  -0.6220074876  0.3139897041  1.7668122830
H   1.1518567769  0.0527024027  1.8759963330
H   0.0956964815 -1.2475021245  1.2913502452
H   0.6449152944  1.4267070444 -0.1509153718
H  -0.6631358175  0.2102451060 -2.1432470444
H  -1.5891001081  0.6034588743 -0.8081152176
H  -0.5268115672 -1.1425044230 -1.1778028580
F   1.5554517591 -0.4102534928 -0.7482716990
