11
mark_scan_01; coordinates in Angstrom
C   0.0602878005 -0.1928204392  1.3827066438
C  -0.0252993753  0.5844036192  0.1001974505
C  -0.8437807642  0.2453426131 -0.9308403184
H  -0.4531294240  0.3525835195  2.1894736061
H   1.1109558557 -0.3247830616  1.6811272924
H  -0.4028558280 -1.1840130424  1.2899988508
H   0.3744370130  1.6036634593  0.1231477746
H  -1.4265668332 -0.6690561740 -1.0631170947
H  -1.0057316139  0.9605230891 -1.7401994607
H   0.8307028396 -0.5301087851 -1.4785447099
F   1.7809803297 -0.8457347981 -1.5539500345
