11
Frame 1
C   1.4249445741  3.6912505483 -0.3528980200
C   1.2465695710  4.5068881993 -1.5995500897
C   0.5206603472  4.1479604736 -2.6697802294
H   1.0480327569  4.2424386488  0.5224085420
H   2.4904470599  3.4889611515 -0.1658673988
H   0.8938091734  2.7326109253 -0.4162428844
H   1.7545504871  5.4768003418 -1.6161480545
H  -0.0196105706  3.1992156589 -2.7011512949
H   0.4188201953  4.8042112578 -3.5347626739
H   2.4782128732  3.4036045325 -3.1232304711
F   3.2441502806  2.9824591622 -3.4698511902
11
Frame 2
C   1.4564392215  3.6684084470 -0.3725217517
C   1.3041801136  4.4874588693 -1.6199993275
C   0.5400998320  4.1395684028 -2.6839533730
H   1.0254685879  4.1883663772  0.4709485458
H   2.5014655086  3.5058648955 -0.1389807601
H   0.9769711997  2.6988026065 -0.4552444427
H   1.7661168627  5.4671598848 -1.6086363889
H  -0.0434753281  3.3119425393 -2.6683340885
H   0.4635899169  4.7915741081 -3.5521344340
H   2.2995886152  3.3638190142 -3.1215440891
F   3.2261935531  3.0874257092 -3.3669862717
11
Frame 3
C   1.4879338689  3.6455663457 -0.3921454835
C   1.3617906561  4.4680295392 -1.6404485654
C   0.5595393167  4.1311763321 -2.6981265166
H   1.0029044189  4.1342941057  0.4194885496
H   2.5124839572  3.5227686396 -0.1120941214
H   1.0601332260  2.6649942877 -0.4942460009
H   1.7776832383  5.4575194278 -1.6011247233
H  -0.0673400855  3.4246694197 -2.6355168822
H   0.5083596384  4.7789369583 -3.5695061940
H   2.1209643572  3.3240334959 -3.1198577071
F   3.2082368256  3.1923922561 -3.2641213532
11
Frame 4
C   1.5194285164  3.6227242444 -0.4117692152
C   1.4194011987  4.4486002092 -1.6608978032
C   0.5789788015  4.1227842613 -2.7122996601
H   0.9803402500  4.0802218341  0.3680285534
H   2.5235024058  3.5396723836 -0.0852074827
H   1.1432952524  2.6311859690 -0.5332475592
H   1.7892496138  5.4478789709 -1.5936130578
H  -0.0912048430  3.5373963001 -2.6026996758
H   0.5531293600  4.7662998086 -3.5868779541
H   1.9423400991  3.2842479777 -3.1181713251
F   3.1902800981  3.2973588031 -3.1612564347
11
Frame 5
C   1.5509231638  3.5998821431 -0.4313929470
C   1.4770117413  4.4291708791 -1.6813470411
C   0.5984182862  4.1143921906 -2.7264728037
H   0.9577760810  4.0261495626  0.3165685572
H   2.5345208545  3.5565761277 -0.0583208440
H   1.2264572787  2.5973776502 -0.5722491174
H   1.8008159894  5.4382385139 -1.5861013922
H  -0.1150696005  3.6501231805 -2.5698824694
H   0.5978990816  4.7536626589 -3.6042497141
H   1.7637158411  3.2444624594 -3.1164849431
F   3.1723233706  3.4023253501 -3.0583915162
11
Frame 6
C   1.5824178112  3.5770400419 -0.4510166787
C   1.5346222839  4.4097415491 -1.7017962789
C   0.6178577710  4.1060001198 -2.7406459473
H   0.9352119120  3.9720772910  0.2651085609
H   2.5455393031  3.5734798717 -0.0314342053
H   1.3096193050  2.5635693314 -0.6112506757
H   1.8123823650  5.4285980569 -1.5785897266
H  -0.1389343580  3.7628500608 -2.5370652630
H   0.6426688031  4.7410255091 -3.6216214742
H   1.5850915831  3.2046769411 -3.1147985610
F   3.1543666431  3.5072918970 -2.9555265977
11
Frame 7
C   1.6139124586  3.5541979406 -0.4706404104
C   1.5922328264  4.3903122191 -1.7222455168
C   0.6372972558  4.0976080490 -2.7548190909
H   0.9126477430  3.9180050194  0.2136485647
H   2.5565577518  3.5903836157 -0.0045475665
H   1.3927813313  2.5297610126 -0.6502522340
H   1.8239487406  5.4189575999 -1.5710780610
H  -0.1627991154  3.8755769412 -2.5042480567
H   0.6874385247  4.7283883594 -3.6389932343
H   1.4064673251  3.1648914228 -3.1131121790
F   3.1364099156  3.6122584440 -2.8526616792
11
Frame 8
C   1.6454071060  3.5313558393 -0.4902641422
C   1.6498433690  4.3708828890 -1.7426947547
C   0.6567367405  4.0892159783 -2.7689922345
H   0.8900835740  3.8639327479  0.1621885685
H   2.5675762005  3.6072873598  0.0223390722
H   1.4759433576  2.4959526938 -0.6892537922
H   1.8355151162  5.4093171429 -1.5635663954
H  -0.1866638729  3.9883038216 -2.4714308503
H   0.7322082463  4.7157512097 -3.6563649943
H   1.2278430671  3.1251059045 -3.1114257970
F   3.1184531881  3.7172249910 -2.7497967607
11
Frame 9
C   1.6769017535  3.5085137380 -0.5098878739
C   1.7074539116  4.3514535590 -1.7631439925
C   0.6761762253  4.0808239075 -2.7831653780
H   0.8675194051  3.8098604763  0.1107285723
H   2.5785946491  3.6241911038  0.0492257109
H   1.5591053840  2.4621443751 -0.7282553505
H   1.8470814917  5.3996766860 -1.5560547299
H  -0.2105286304  4.1010307020 -2.4386136439
H   0.7769779679  4.7031140600 -3.6737367544
H   1.0492188090  3.0853203863 -3.1097394150
F   3.1004964606  3.8221915380 -2.6469318422
11
Frame 10
C   1.7083964009  3.4856716367 -0.5295116057
C   1.7650644541  4.3320242289 -1.7835932303
C   0.6956157100  4.0724318368 -2.7973385216
H   0.8449552361  3.7557882048  0.0592685761
H   2.5896130977  3.6410948479  0.0761123496
H   1.6422674103  2.4283360563 -0.7672569087
H   1.8586478673  5.3900362290 -1.5485430643
H  -0.2343933878  4.2137575824 -2.4057964376
H   0.8217476894  4.6904769102 -3.6911085144
H   0.8705945510  3.0455348680 -3.1080530330
F   3.0825397331  3.9271580849 -2.5440669237
11
Frame 11
C   1.7398910483  3.4628295354 -0.5491353374
C   1.8226749967  4.3125948989 -1.8040424682
C   0.7150551948  4.0640397660 -2.8115116652
H   0.8223910671  3.7017159332  0.0078085799
H   2.6006315464  3.6579985919  0.1029989883
H   1.7254294366  2.3945277375 -0.8062584670
H   1.8702142429  5.3803957720 -1.5410313987
H  -0.2582581453  4.3264844628 -2.3729792312
H   0.8665174110  4.6778397605 -3.7084802745
H   0.6919702930  3.0057493497 -3.1063666510
F   3.0645830056  4.0321246319 -2.4412020052