11
mark_scan_02; coordinates in Angstrom
C   0.0922140401 -0.1957418391  1.3778557101
C   0.0744560009  0.5413437736  0.0667972227
C  -0.8025758064  0.2034897696 -0.9400762910
H  -0.4950337332  0.3591214672  2.1254775815
H   1.1260113887 -0.2902378003  1.7411732434
H  -0.3318964589 -1.2043220904  1.2835592052
H   0.4291429238  1.5773856511  0.0932891371
H  -1.4484267032 -0.6433800362 -1.1847460077
H  -1.0405924463  0.9874246248 -1.6651573038
H   0.6691131939 -0.6136233032 -1.5003078837
F   1.7275876007 -0.7214602170 -1.3978646139
