11
scan_10; coordinates in Angstrom
C  -0.1087818585 -0.0913592645  1.3105925960
C   0.4776030180  0.3692020506 -0.0290505349
C  -0.2834570929 -0.2123806074 -1.2058248284
H   0.4539672369  0.3393858364  2.1490647942
H  -0.0707542915 -1.1859999340  1.4113396886
H  -1.1581558500  0.2200996466  1.4187317278
H   0.4500516145  1.4664923085 -0.0985870071
H  -0.2397923935 -1.3117039039 -1.2195659923
H  -1.3362783451  0.1071821420 -1.2112949036
H   1.5320936015  0.0664195807 -0.1063329406
F   0.2835043606  0.2326621450 -2.4190725997
