              Grand Master is running on host yaroslavhonor
              rank #     1 is running on host yaroslavhonor
              rank #     2 is running on host yaroslavhonor
              rank #     3 is running on host yaroslavhonor
              rank #     4 is running on host yaroslavhonor
              rank #     5 is running on host yaroslavhonor
              rank #     6 is running on host yaroslavhonor
              rank #     7 is running on host yaroslavhonor
              rank #     8 is running on host yaroslavhonor
              rank #     9 is running on host yaroslavhonor

          ******************************************************
          *      Firefly version 8.2.0, build number 10203     *
          *   Compiled on    Monday,    19-09-2016, 15:30:23   *
          *Code development and Intel/AMD specific optimization*
          *  Copyright (c) 1994, 2016 by  Alex A. Granovsky,   *
          *          Firefly Project, Moscow, Russia.          *
          *   Some parts of this program include code due to   *
          * work of Jim Kress, Peter Burger, and Robert Ponec. *
          ******************************************************
          *             Firefly Project homepage:              *
          * http://classic.chem.msu.su/gran/firefly/index.html *
          *                      e-mail:                       *
          *               gran@classic.chem.msu.su             *
          *This program is not a free software and is provided *
          *exclusively to its registered users under the terms *
          *       of Firefly package license agreement         *
          * Unauthorized use of Firefly is strongly prohibited *
          *   This program may not be redistributed without    *
          * the specific, written permission of its developers.*
          ******************************************************

          ******************************************************
          *  PARTIALLY BASED ON  US GAMESS VERSION 6 JUN 1999, *
          *   US GAMESS VERSIONS  6 SEP 2001 AND 12 DEC 2003   *
          *             FROM IOWA STATE UNIVERSITY             *
          * M.W.SCHMIDT, K.K.BALDRIDGE, J.A.BOATZ, S.T.ELBERT, *
          *   M.S.GORDON, J.H.JENSEN, S.KOSEKI, N.MATSUNAGA,   *
          *          K.A.NGUYEN, S.J.SU, T.L.WINDUS,           *
          *       TOGETHER WITH M.DUPUIS, J.A.MONTGOMERY       *
          *         J.COMPUT.CHEM.  14, 1347-1363(1993)        *
          ******************************************************


 Core i7    / Linux  Firefly version running under Linux.
 Running on Intel CPU:  Brand ID  0, Family  6, Model 170, Stepping  4
 CPU Brand String    :  Intel(R) Core(TM) Ultra 5 125H                  
 CPU Features        :  x87 FPU, CMOV, MMX, SSE, SSE2, SSE3, SSSE3, SSE4.1, SSE4.2, AVX, AVX2, FMA3, HTT, MWAIT, EM64T
 Data cache size     :  L1 32 KB, L2 2048 KB, L3 18432 KB
 max    # of   cores/package :  64
 max    # of threads/package : 128
 max     cache sharing level :  64
 actual # of   cores/package :  18
 actual # of threads/package :  18
 actual # of threads/core    :   1
 Operating System successfully passed SSE support test.
 Operating System supports AVX/FMA.


 PARALLEL VERSION (MPICH) RUNNING USING   10 PROCESSES (RANKS)


 WARNING! THIS VERSION OF FIREFLY IS PROBABLY OUTDATED!
 PLEASE CHECK FIREFLY HOMEPAGE FOR INFORMATION ON UPDATES!

 EXECUTION OF FIREFLY BEGUN  0:10:58  9-JUL-2026    

            ECHO OF THE FIRST FEW INPUT CARDS -
 INPUT CARD> $CONTRL SCFTYP=RHF RUNTYP=ENERGY ICHARG=0 MULT=1 DFTTYP=B3LYP EXETYP=RUN       
 INPUT CARD>      INTTYP=HONDO ICUT=13 ITOL=30 D5=.T. MAXIT=100 GENCON=.F. WIDE=1 FSTINT=.T.
 INPUT CARD> $END                                                                           
 INPUT CARD> $SYSTEM TIMLIM=60000 MWORDS=200 MASMEM=200000000 MXBCST=-1 KDIAG=0 NOJAC=1 $END
 INPUT CARD> $MOORTH NOSTF=.T. NOZERO=.T. SYMS=.T. SYMDEN=.T. SYMVEC=.T. SYMVX=.T.          
 INPUT CARD>      TOLE=0.0D0 TOLZ=0.0D0 $END                                                
 INPUT CARD> $GUESS GUESS=HUCKEL $END                                                       
 INPUT CARD> $SCF DIRSCF=.T. FDIFF=.F. DIIS=.T. DAMP=.T. SHIFT=.T. SOSCF=.F. $END           
 INPUT CARD> $DATA                                                                          
 INPUT CARD> C3H7F                                                                          
 INPUT CARD> C1                                                                             
 INPUT CARD>C      6.0            1.7398910483          3.4628295354         -0.5491353374  
 INPUT CARD>S   8                                                                           
 INPUT CARD>  1    6665.0000000       0.0006920                                             
 INPUT CARD>  2    1000.0000000       0.0053290                                             
 INPUT CARD>  3     228.0000000       0.0270770                                             
 INPUT CARD>  4      64.7100000       0.1017180                                             
 INPUT CARD>  5      21.0600000       0.2747400                                             
 INPUT CARD>  6       7.4950000       0.4485640                                             
 INPUT CARD>  7       2.7970000       0.2850740                                             
 INPUT CARD>  8       0.5215000       0.0152040                                             
 INPUT CARD>S   8                                                                           
 INPUT CARD>  1    6665.0000000      -0.0001460                                             
 INPUT CARD>  2    1000.0000000      -0.0011540                                             
 INPUT CARD>  3     228.0000000      -0.0057250                                             
 INPUT CARD>  4      64.7100000      -0.0233120                                             
 INPUT CARD>  5      21.0600000      -0.0639550                                             
 INPUT CARD>  6       7.4950000      -0.1499810                                             
 INPUT CARD>  7       2.7970000      -0.1272620                                             
 INPUT CARD>  8       0.5215000       0.5445290                                             
 INPUT CARD>S   1                                                                           
 INPUT CARD>  1       0.1596000       1.0000000                                             
 INPUT CARD>S   1                                                                           
 INPUT CARD>  1       0.0469000       1.0000000                                             
 INPUT CARD>P   3                                                                           
 INPUT CARD>  1       9.4390000       0.0381090                                             
 INPUT CARD>  2       2.0020000       0.2094800                                             
 INPUT CARD>  3       0.5456000       0.5085570                                             
 INPUT CARD>P   1                                                                           
 INPUT CARD>  1       0.1517000       1.0000000                                             
 INPUT CARD>P   1                                                                           
 INPUT CARD>  1       0.0404100       1.0000000                                             
 INPUT CARD>D   1                                                                           
 INPUT CARD>  1       0.5500000       1.0000000                                             
 INPUT CARD>D   1                                                                           
 INPUT CARD>  1       0.1510000       1.0000000                                             
 INPUT CARD>                                                                                
 INPUT CARD>C      6.0            1.8226749967          4.3125948989         -1.8040424682  
 INPUT CARD>S   8                                                                           
 INPUT CARD>  1    6665.0000000       0.0006920                                             
  200000000 WORDS OF MEMORY AVAILABLE

 This job is executing on     1 unique host(s)
 Minimum number of processes per host is:   10
 Maximum number of processes per host is:   10

 On master's host, detected   18 CPU core(s) in aggregate

 Using processor-specific dynamic link DGEMM library code.


 Creating thread pool to serve up to            128 threads.


 Loading P2P interface library... loaded successfully (version 2.4).
 Initializing global P2P interface... topology done.



     RUN TITLE
     ---------
  C3H7F                                                                          

 THE POINT GROUP OF THE MOLECULE IS C1      
 THE ORDER OF THE PRINCIPAL AXIS IS     0
 *** WARNING! ATOM   1 SHELL    1 TYPE S HAS NORMALIZATION   0.99939879
 *** WARNING! ATOM   1 SHELL    2 TYPE S HAS NORMALIZATION   2.00869625
 *** WARNING! ATOM   1 SHELL    5 TYPE P HAS NORMALIZATION   1.49516523
 *** WARNING! ATOM   2 SHELL   10 TYPE S HAS NORMALIZATION   0.99939879
 *** WARNING! ATOM   2 SHELL   11 TYPE S HAS NORMALIZATION   2.00869625
 *** WARNING! ATOM   2 SHELL   14 TYPE P HAS NORMALIZATION   1.49516523
 *** WARNING! ATOM   3 SHELL   19 TYPE S HAS NORMALIZATION   0.99939879
 *** WARNING! ATOM   3 SHELL   20 TYPE S HAS NORMALIZATION   2.00869625
 *** WARNING! ATOM   3 SHELL   23 TYPE P HAS NORMALIZATION   1.49516523
 *** WARNING! ATOM   4 SHELL   28 TYPE S HAS NORMALIZATION   1.70173870
 *** WARNING! ATOM   5 SHELL   33 TYPE S HAS NORMALIZATION   1.70173870
 *** WARNING! ATOM   6 SHELL   38 TYPE S HAS NORMALIZATION   1.70173870
 *** WARNING! ATOM   7 SHELL   43 TYPE S HAS NORMALIZATION   1.70173870
 *** WARNING! ATOM   8 SHELL   48 TYPE S HAS NORMALIZATION   1.70173870
 *** WARNING! ATOM   9 SHELL   53 TYPE S HAS NORMALIZATION   1.70173870
 *** WARNING! ATOM  10 SHELL   58 TYPE S HAS NORMALIZATION   1.70173870
 *** WARNING! ATOM  11 SHELL   63 TYPE S HAS NORMALIZATION   0.99954745
 *** WARNING! ATOM  11 SHELL   64 TYPE S HAS NORMALIZATION   1.94662964
 *** WARNING! ATOM  11 SHELL   67 TYPE P HAS NORMALIZATION   1.44467270

 ATOM      ATOMIC                      COORDINATES (BOHR)
           CHARGE         X                   Y                   Z
 C           6.0     3.2879175694        6.5437994411       -1.0377153935
 C           6.0     3.4443565595        8.1496232490       -3.4091461836
 C           6.0     1.3512584828        7.6799221207       -5.3129870458
 H           1.0     1.5540938848        6.9952293080        0.0147560774
 H           1.0     4.9144813759        6.9126155060        0.1946398791
 H           1.0     3.2605890840        4.5250016237       -1.5236076890
 H           1.0     3.5341927150       10.1674744557       -2.9121272943
 H           1.0    -0.4880371643        8.1758707207       -4.4842808484
 H           1.0     1.6374805897        8.8398360061       -7.0080120605
 H           1.0     1.3076343407        5.6800430727       -5.8701822156
 F           9.0     5.7912225693        7.6196112580       -4.6132032067

          INTERNUCLEAR DISTANCES (ANGS.)
          ------------------------------

                    C              C              C              H         

  1  C               0.0000000      1.5178097 *    2.5554039 *    1.0995724 *  
  2  C               1.5178097 *    0.0000000      1.5177600 *    2.1579030 *  
  3  C               2.5554039 *    1.5177600 *    0.0000000      2.8445327 *  
  4  H               1.0995724 *    2.1579030 *    2.8445327 *    0.0000000    
  5  H               1.0973807 *    2.1611386 *    3.4949449      1.7813230 *  
  6  H               1.0989041 *    2.1642577 *    2.7980649 *    1.7851959 *  
  7  H               2.1628459 *    1.1007423 *    2.1636325 *    2.5129275 *  
  8  H               2.8398779 *    2.1573513 *    1.0993301 *    2.6881758 *  
  9  H               3.4957820      2.1620649 *    1.0973805 *    3.8425991    
 10  H               2.8011591 *    2.1638823 *    1.0988407 *    3.1936604    
 11  F               2.3788279 *    1.4237174 *    2.3787452 *    3.3368020    

                    H              H              H              H         

  1  C               1.0973807 *    1.0989041 *    2.1628459 *    2.8398779 *  
  2  C               2.1611386 *    2.1642577 *    1.1007423 *    2.1573513 *  
  3  C               3.4949449      2.7980649 *    2.1636325 *    1.0993301 *  
  4  H               1.7813230 *    1.7851959 *    2.5129275 *    2.6881758 *  
  5  H               0.0000000      1.7858013 *    2.4905817 *    3.8406499    
  6  H               1.7858013 *    0.0000000      3.0783538      3.1815228    
  7  H               2.4905817 *    3.0783538      0.0000000      2.5165971 *  
  8  H               3.8406499      3.1815228      2.5165971 *    0.0000000    
  9  H               4.3098262      3.7913237      2.4897443 *    1.7810485 *  
 10  H               3.7905731      2.5946343 *    3.0785514      1.7846939 *  
 11  F               2.6130786 *    2.6735924 *    2.0136184 *    3.3365514    

                    H              H              F         

  1  C               3.4957820      2.8011591 *    2.3788279 *  
  2  C               2.1620649 *    2.1638823 *    1.4237174 *  
  3  C               1.0973805 *    1.0988407 *    2.3787452 *  
  4  H               3.8425991      3.1936604      3.3368020    
  5  H               4.3098262      3.7905731      2.6130786 *  
  6  H               3.7913237      2.5946343 *    2.6735924 *  
  7  H               2.4897443 *    3.0785514      2.0136184 *  
  8  H               1.7810485 *    1.7846939 *    3.3365514    
  9  H               0.0000000      1.7857474 *    2.6180975 *  
 10  H               1.7857474 *    0.0000000      2.6693035 *  
 11  F               2.6180975 *    2.6693035 *    0.0000000    

  * ... LESS THAN  3.000


     ATOMIC BASIS SET
     ----------------
 THE CONTRACTED PRIMITIVE FUNCTIONS HAVE BEEN UNNORMALIZED
 THE CONTRACTED BASIS FUNCTIONS ARE NOW NORMALIZED TO UNITY

 SHELL TYPE PRIM    EXPONENT          CONTRACTION COEFFICIENTS

 C         

   1   S    1    6665.000000    0.363584 (  0.000692) 
   1   S    2    1000.000000    0.674986 (  0.005329) 
   1   S    3     228.000000    1.131620 (  0.027077) 
   1   S    4      64.710000    1.653009 (  0.101718) 
   1   S    5      21.060000    1.923821 (  0.274740) 
   1   S    6       7.495000    1.447278 (  0.448564) 
   1   S    7       2.797000    0.439163 (  0.285074) 
   1   S    8       0.521500    0.006646 (  0.015204) 

   2   S    9    6665.000000   -0.154180 ( -0.000146) 
   2   S   10    1000.000000   -0.293785 ( -0.001154) 
   2   S   11     228.000000   -0.480896 ( -0.005725) 
   2   S   12      64.710000   -0.761434 ( -0.023312) 
   2   S   13      21.060000   -0.900104 ( -0.063955) 
   2   S   14       7.495000   -0.972611 ( -0.149981) 
   2   S   15       2.797000   -0.394042 ( -0.127262) 
   2   S   16       0.521500    0.478394 (  0.544529) 

   3   S   17       0.159600    0.179964 (  1.000000) 

   4   S   18       0.046900    0.071827 (  1.000000) 

   5   P   19       9.439000    1.343737 (  0.038109) 
   5   P   20       2.002000    1.063168 (  0.209480) 
   5   P   21       0.545600    0.508232 (  0.508557) 

   6   P   22       0.151700    0.134950 (  1.000000) 

   7   P   23       0.040410    0.025826 (  1.000000) 

   8   D   24       0.550000    0.578155 (  1.000000) 

   9   D   25       0.151000    0.060203 (  1.000000) 

 C         

  10   S   26    6665.000000    0.363584 (  0.000692) 
  10   S   27    1000.000000    0.674986 (  0.005329) 
  10   S   28     228.000000    1.131620 (  0.027077) 
  10   S   29      64.710000    1.653009 (  0.101718) 
  10   S   30      21.060000    1.923821 (  0.274740) 
  10   S   31       7.495000    1.447278 (  0.448564) 
  10   S   32       2.797000    0.439163 (  0.285074) 
  10   S   33       0.521500    0.006646 (  0.015204) 

  11   S   34    6665.000000   -0.154180 ( -0.000146) 
  11   S   35    1000.000000   -0.293785 ( -0.001154) 
  11   S   36     228.000000   -0.480896 ( -0.005725) 
  11   S   37      64.710000   -0.761434 ( -0.023312) 
  11   S   38      21.060000   -0.900104 ( -0.063955) 
  11   S   39       7.495000   -0.972611 ( -0.149981) 
  11   S   40       2.797000   -0.394042 ( -0.127262) 
  11   S   41       0.521500    0.478394 (  0.544529) 

  12   S   42       0.159600    0.179964 (  1.000000) 

  13   S   43       0.046900    0.071827 (  1.000000) 

  14   P   44       9.439000    1.343737 (  0.038109) 
  14   P   45       2.002000    1.063168 (  0.209480) 
  14   P   46       0.545600    0.508232 (  0.508557) 

  15   P   47       0.151700    0.134950 (  1.000000) 

  16   P   48       0.040410    0.025826 (  1.000000) 

  17   D   49       0.550000    0.578155 (  1.000000) 

  18   D   50       0.151000    0.060203 (  1.000000) 

 C         

  19   S   51    6665.000000    0.363584 (  0.000692) 
  19   S   52    1000.000000    0.674986 (  0.005329) 
  19   S   53     228.000000    1.131620 (  0.027077) 
  19   S   54      64.710000    1.653009 (  0.101718) 
  19   S   55      21.060000    1.923821 (  0.274740) 
  19   S   56       7.495000    1.447278 (  0.448564) 
  19   S   57       2.797000    0.439163 (  0.285074) 
  19   S   58       0.521500    0.006646 (  0.015204) 

  20   S   59    6665.000000   -0.154180 ( -0.000146) 
  20   S   60    1000.000000   -0.293785 ( -0.001154) 
  20   S   61     228.000000   -0.480896 ( -0.005725) 
  20   S   62      64.710000   -0.761434 ( -0.023312) 
  20   S   63      21.060000   -0.900104 ( -0.063955) 
  20   S   64       7.495000   -0.972611 ( -0.149981) 
  20   S   65       2.797000   -0.394042 ( -0.127262) 
  20   S   66       0.521500    0.478394 (  0.544529) 

  21   S   67       0.159600    0.179964 (  1.000000) 

  22   S   68       0.046900    0.071827 (  1.000000) 

  23   P   69       9.439000    1.343737 (  0.038109) 
  23   P   70       2.002000    1.063168 (  0.209480) 
  23   P   71       0.545600    0.508232 (  0.508557) 

  24   P   72       0.151700    0.134950 (  1.000000) 

  25   P   73       0.040410    0.025826 (  1.000000) 

  26   D   74       0.550000    0.578155 (  1.000000) 

  27   D   75       0.151000    0.060203 (  1.000000) 

 H         

  28   S   76      13.010000    0.163548 (  0.019685) 
  28   S   77       1.962000    0.277418 (  0.137977) 
  28   S   78       0.444600    0.315749 (  0.478148) 

  29   S   79       0.122000    0.147123 (  1.000000) 

  30   S   80       0.029740    0.051041 (  1.000000) 

  31   P   81       0.727000    0.956881 (  1.000000) 

  32   P   82       0.141000    0.123158 (  1.000000) 

 H         

  33   S   83      13.010000    0.163548 (  0.019685) 
  33   S   84       1.962000    0.277418 (  0.137977) 
  33   S   85       0.444600    0.315749 (  0.478148) 

  34   S   86       0.122000    0.147123 (  1.000000) 

  35   S   87       0.029740    0.051041 (  1.000000) 

  36   P   88       0.727000    0.956881 (  1.000000) 

  37   P   89       0.141000    0.123158 (  1.000000) 

 H         

  38   S   90      13.010000    0.163548 (  0.019685) 
  38   S   91       1.962000    0.277418 (  0.137977) 
  38   S   92       0.444600    0.315749 (  0.478148) 

  39   S   93       0.122000    0.147123 (  1.000000) 

  40   S   94       0.029740    0.051041 (  1.000000) 

  41   P   95       0.727000    0.956881 (  1.000000) 

  42   P   96       0.141000    0.123158 (  1.000000) 

 H         

  43   S   97      13.010000    0.163548 (  0.019685) 
  43   S   98       1.962000    0.277418 (  0.137977) 
  43   S   99       0.444600    0.315749 (  0.478148) 

  44   S  100       0.122000    0.147123 (  1.000000) 

  45   S  101       0.029740    0.051041 (  1.000000) 

  46   P  102       0.727000    0.956881 (  1.000000) 

  47   P  103       0.141000    0.123158 (  1.000000) 

 H         

  48   S  104      13.010000    0.163548 (  0.019685) 
  48   S  105       1.962000    0.277418 (  0.137977) 
  48   S  106       0.444600    0.315749 (  0.478148) 

  49   S  107       0.122000    0.147123 (  1.000000) 

  50   S  108       0.029740    0.051041 (  1.000000) 

  51   P  109       0.727000    0.956881 (  1.000000) 

  52   P  110       0.141000    0.123158 (  1.000000) 

 H         

  53   S  111      13.010000    0.163548 (  0.019685) 
  53   S  112       1.962000    0.277418 (  0.137977) 
  53   S  113       0.444600    0.315749 (  0.478148) 

  54   S  114       0.122000    0.147123 (  1.000000) 

  55   S  115       0.029740    0.051041 (  1.000000) 

  56   P  116       0.727000    0.956881 (  1.000000) 

  57   P  117       0.141000    0.123158 (  1.000000) 

 H         

  58   S  118      13.010000    0.163548 (  0.019685) 
  58   S  119       1.962000    0.277418 (  0.137977) 
  58   S  120       0.444600    0.315749 (  0.478148) 

  59   S  121       0.122000    0.147123 (  1.000000) 

  60   S  122       0.029740    0.051041 (  1.000000) 

  61   P  123       0.727000    0.956881 (  1.000000) 

  62   P  124       0.141000    0.123158 (  1.000000) 

 F         

  63   S  125   14710.000000    0.686054 (  0.000721) 
  63   S  126    2207.000000    1.273776 (  0.005553) 
  63   S  127     502.800000    2.138157 (  0.028267) 
  63   S  128     142.600000    3.129135 (  0.106444) 
  63   S  129      46.470000    3.636582 (  0.286814) 
  63   S  130      16.700000    2.640279 (  0.448641) 
  63   S  131       6.356000    0.755015 (  0.264761) 
  63   S  132       1.316000    0.013421 (  0.015333) 

  64   S  133   14710.000000   -0.305764 ( -0.000165) 
  64   S  134    2207.000000   -0.584323 ( -0.001308) 
  64   S  135     502.800000   -0.956795 ( -0.006495) 
  64   S  136     142.600000   -1.528086 ( -0.026691) 
  64   S  137      46.470000   -1.819623 ( -0.073690) 
  64   S  138      16.700000   -1.957301 ( -0.170776) 
  64   S  139       6.356000   -0.623829 ( -0.112327) 
  64   S  140       1.316000    0.959401 (  0.562814) 

  65   S  141       0.389700    0.351526 (  1.000000) 

  66   S  142       0.098630    0.125434 (  1.000000) 

  67   P  143      22.670000    4.571487 (  0.044878) 
  67   P  144       4.977000    3.608377 (  0.235718) 
  67   P  145       1.347000    1.519595 (  0.508521) 

  68   P  146       0.347100    0.379759 (  1.000000) 

  69   P  147       0.085020    0.065440 (  1.000000) 

  70   D  148       1.640000    3.911886 (  1.000000) 

  71   D  149       0.464000    0.429354 (  1.000000) 

 TOTAL NUMBER OF SHELLS              =   71
 TOTAL NUMBER OF BASIS FUNCTIONS     =  163
 NUMBER OF ELECTRONS                 =   34
 CHARGE OF MOLECULE                  =    0
 STATE MULTIPLICITY                  =    1
 NUMBER OF OCCUPIED ORBITALS (ALPHA) =   17
 NUMBER OF OCCUPIED ORBITALS (BETA ) =   17
 TOTAL NUMBER OF ATOMS               =   11
 THE NUCLEAR REPULSION ENERGY IS      131.7564939132
 TOTAL NUMBER OF CONTAMINANTS DROPPED=    8


     $CONTRL OPTIONS
     ---------------
     SCFTYP=RHF          RUNTYP=ENERGY       EXETYP=RUN     
     MPLEVL=       0     LOCAL =NONE         UNITS =ANGS    
     MULT  =       1     ICHARG=       0     MAXIT =     100
     NPRINT=       7     IREST =       0     COORD =UNIQUE  
     ECP   =NONE         NORMF =       0     NORMP =       0
     ITOL  =      30     ICUT  =      13     NZVAR =       0
     NOSYM =       0     INTTYP=HONDO        GEOM  =INPUT   
     PLTORB=       F     MOLPLT=       F     RPAC  =       F
     AIMPAC=       0     FRIEND=             CITYP =NONE    
     DFTTYP=B3LYP   

     $SYSTEM OPTIONS
     ---------------
     KDIAG =       0     MEMORY=200000000     TIMLIM=  3600000.0 SEC.
     COREFL=       F     PTIME =        F     XDR   =       F
     BALTYP=NXTVAL       CBASE = 09001000     FBASE = EEDA10C0

          ----------------
          PROPERTIES INPUT
          ----------------

     MOMENTS            FIELD           POTENTIAL          DENSITY
 IEMOM =       1   IEFLD =       0   IEPOT =       0   IEDEN =       0
 WHERE =COMASS     WHERE =NUCLEI     WHERE =NUCLEI     WHERE =NUCLEI  
 OUTPUT=BOTH       OUTPUT=BOTH       OUTPUT=BOTH       OUTPUT=BOTH    
 IEMINT=       0   IEFINT=       0                     IEDINT=       0
                                                       MORB  =       0


          ----------------   ------------------------------------
          DFT CODE OPTIONS   PROGRAM WRITTEN BY ALEX A. GRANOVSKY
          ----------------   ------------------------------------
          NRAD   =   63      LMAX   =  29 ( 302 POINTS PER SHELL)
          ANGPRN =    T      RADPRN =   T
          KAP    =   5.000   LMIN   =   7 (  26 POINTS PER SHELL)
          CUTOFF = 1.0E-10   CUTAO  = 1.0E-10
          CUTWGT = 1.0E-20   CUTORB = 1.0E-15
          CUTGG1 = 1.0E-13   CUTGG2 = 1.0E-13
          CUTGG3 = 1.0E-13   CUTGG4 = 1.0E-30
          B3LYP  =  NWCHEM   O3LYP  = DEFAULT 
          HFX    =  2.0000000000000000000E-01
          CPT2   =  0.0000000000000000000E+00
          SCS(S) =  1.0000000000000000000E+00
          SCS(T) =  1.0000000000000000000E+00



          EXTRAPOLATION IN EFFECT
          DAMPING IN EFFECT
          LEVEL SHIFTING IN EFFECT
          DIIS IN EFFECT

          ----------------------
          INTEGRAL INPUT OPTIONS
          ----------------------
 NOPK  =       1 NORDER=       0 SCHWRZ=       T

 ATTENTION! AO INTEGRALS WILL BE PACKED.
 THRESHOLD FOR PACKING PKTHR =  0.10000000D-05

     -------------------------------
     INTEGRAL TRANSFORMATION OPTIONS
     -------------------------------
     NWORD  =       0     CUTTRF = 1.0E-09
     MPTRAN =       0     DIRTRF =       T
     AOINTS =DUP          IREST  =       0

     ------------------------------------------
     THE POINT GROUP IS C1 , NAXIS= 0, ORDER= 1
     ------------------------------------------

     DIMENSIONS OF THE SYMMETRY SUBSPACES ARE
 A   = 163

 ..... DONE SETTING UP THE RUN .....

                         TIMING STATISTICS ON RANK 0:
 CPU        TIME:   STEP =      0.16 ,  TOTAL =        0.3 SECONDS (    0.0 MIN)
 WALL CLOCK TIME:   STEP =      0.90 ,  TOTAL =        0.9 SECONDS (    0.0 MIN)
 CPU UTILIZATION:   STEP =     17.83%,  TOTAL =      34.54%

          ********************
          1 ELECTRON INTEGRALS
          ********************
 ...... END OF ONE-ELECTRON INTEGRALS ......

                         TIMING STATISTICS ON RANK 0:
 CPU        TIME:   STEP =      0.00 ,  TOTAL =        0.3 SECONDS (    0.0 MIN)
 WALL CLOCK TIME:   STEP =      0.03 ,  TOTAL =        0.9 SECONDS (    0.0 MIN)
 CPU UTILIZATION:   STEP =      0.00%,  TOTAL =      33.45%

          -------------
          GUESS OPTIONS
          -------------
          GUESS =HUCKEL            NORB  =       0          NORDER=       0
          MIX   =       F          PRTMO =       F          SYMDEN=       F
          TOLZ  = 0.0E+00          TOLE  = 0.0E+00

 INITIAL GUESS ORBITALS GENERATED BY HUCKEL   ROUTINE.
 HUCKEL GUESS REQUIRES    200083 WORDS.

 LOG10 OF CONDITION NUMBER OF OVERLAP MATRIX IS:  5.34135901E+00

                    * * * WARNING * * *
 ------------------------------------------------------------------------------
 THE OVERLAP MATRIX HAS    2 EIGENVALUES BELOW 1.4E-04.
 THE SMALLEST OF THESE IS 6.18712E-05.
 THIS INDICATES A PARTIAL LINEAR DEPENDENCE IN YOUR ATOMIC BASIS.

 TO OBTAIN SCF CONVERGENCE MAY REQUIRE
 MORE ACCURATE INTEGRAL EVALUATION (INTTYP=HONDO, ICUT=11, ITOL=30 IN $CONTRL),
 MORE ACCURATE DIRECT SCF FOCK MATRIX FORMATION (FDIFF=.FALSE. IN $SCF), OR
 CHANGING CONVERGERS (DIIS=.T. SOSCF=.F. IN $SCF).

 EIGENVALUES BELOW 1.0D-07 PROBABLY WON'T CONVERGE.
 EIGENVALUES BETWEEN 1.0D-07 AND 1.0D-06 MAY REQUIRE
 TIGHTENING OF -NCONV- DENSITY CONVERGENCE IN $SCF.

 THE OVERALL DEGREES OF AOS LINEAR INDEPENDENCE ARE: 
   0.6792       -    F  11 YZ,   SHELL  70,   AO  157
   0.6686       -    F  11 XY,   SHELL  70,   AO  155
   0.6540       -    F  11 XZ,   SHELL  70,   AO  156
   0.6422       -    F  11  Y,   SHELL  67,   AO  144
   0.6141       -    F  11  Z,   SHELL  67,   AO  145
   0.6113       -    F  11  X,   SHELL  67,   AO  143
   0.5942       -    F  11 YY,   SHELL  70,   AO  153
   0.5920       -    F  11 ZZ,   SHELL  70,   AO  154
   0.5759       -    F  11 XX,   SHELL  70,   AO  152
   0.5066       -    H   6  X,   SHELL  41,   AO   97
   0.4853       -    H   8  Y,   SHELL  51,   AO  116
   0.4839       -    H   5  Y,   SHELL  36,   AO   89
   0.4796       -    H  10  X,   SHELL  61,   AO  133
   0.4768       -    H   4  Y,   SHELL  31,   AO   80
   0.4712       -    H   9  X,   SHELL  56,   AO  124
   0.4649       -    H  10  Z,   SHELL  61,   AO  135
   0.4527       -    H   7  X,   SHELL  46,   AO  106
   0.4512       -    H   6  Z,   SHELL  41,   AO   99
   0.4295       -    H   8  Z,   SHELL  51,   AO  117
   0.4235       -    F  11  S,   SHELL  63,   AO  139
   0.4086       -    H   7  Z,   SHELL  46,   AO  108
   0.4036       -    F  11 YZ,   SHELL  71,   AO  163
   0.4017       -    H   9  Y,   SHELL  56,   AO  125
   0.4014       -    H   4  Z,   SHELL  31,   AO   81
   0.3850       -    C   1 XY,   SHELL   8,   AO   17
   0.3763       -    C   2 XY,   SHELL  17,   AO   42
   0.3760       -    C   3 XY,   SHELL  26,   AO   67
   0.3722       -    H   5  Z,   SHELL  36,   AO   90
   0.3392       -    F  11 XY,   SHELL  71,   AO  161
   0.3335       -    F  11 YY,   SHELL  71,   AO  159
   0.3324       -    H   5  X,   SHELL  36,   AO   88
   0.3295       -    C   1  Z,   SHELL   5,   AO    7
   0.3254       -    C   2  Z,   SHELL  14,   AO   32
   0.3220       -    C   3  X,   SHELL  23,   AO   55
   0.3209       -    H   4  X,   SHELL  31,   AO   79
   0.3207       -    F  11 ZZ,   SHELL  71,   AO  160
   0.3175       -    H   9  Z,   SHELL  56,   AO  126
   0.3174       -    C   3  Z,   SHELL  23,   AO   57
   0.3110       -    C   1 ZZ,   SHELL   8,   AO   16
   0.3110       -    C   1  Y,   SHELL   5,   AO    6
   0.3101       -    C   2  Y,   SHELL  14,   AO   31
   0.3065       -    C   1 YZ,   SHELL   8,   AO   19
   0.3030       -    C   2 ZZ,   SHELL  17,   AO   41
   0.3013       -    H   8  X,   SHELL  51,   AO  115
   0.2987       -    C   2 YZ,   SHELL  17,   AO   44
   0.2979       -    C   3  Y,   SHELL  23,   AO   56
   0.2976       -    C   1  X,   SHELL   5,   AO    5
   0.2974       -    C   2  X,   SHELL  14,   AO   30
   0.2910       -    C   3 ZZ,   SHELL  26,   AO   66
   0.2880       -    H  10  Y,   SHELL  61,   AO  134
   0.2842       -    H   6  Y,   SHELL  41,   AO   98
   0.2820       -    C   3 XZ,   SHELL  26,   AO   68
   0.2754       -    H   7  Y,   SHELL  46,   AO  107
   0.2709       -    C   3 YZ,   SHELL  26,   AO   69
   0.2686       -    C   2 XZ,   SHELL  17,   AO   43
   0.2667       -    C   1 XX,   SHELL   8,   AO   14
   0.2611       -    F  11 XZ,   SHELL  71,   AO  162
   0.2580       -    C   2 XX,   SHELL  17,   AO   39
   0.2393       -    C   3 YY,   SHELL  26,   AO   65
   0.2391       -    F  11 XX,   SHELL  71,   AO  158
   0.2347       -    C   3 XX,   SHELL  26,   AO   64
   0.2294       -    C   2 YY,   SHELL  17,   AO   40
   0.2293       -    C   1 XZ,   SHELL   8,   AO   18
   0.2260       -    C   1 YY,   SHELL   8,   AO   15
   0.1684       -    C   3  S,   SHELL  19,   AO   51
   0.1684       -    C   1  S,   SHELL   1,   AO    1
   0.1638       -    F  11  S,   SHELL  64,   AO  140
   0.1329       -    C   2  S,   SHELL  10,   AO   26
   0.1278       -    F  11  Y,   SHELL  68,   AO  147
   0.1165       -    H   4  S,   SHELL  28,   AO   76
   0.1164       -    H   8  S,   SHELL  48,   AO  112
   0.1151       -    H  10  S,   SHELL  58,   AO  130
   0.1151       -    H   6  S,   SHELL  38,   AO   94
   0.1127       -    H   9  S,   SHELL  53,   AO  121
   0.1127       -    H   5  S,   SHELL  33,   AO   85
   0.1056       -    H   7  S,   SHELL  43,   AO  103
   0.7349E-01   -    F  11  Z,   SHELL  68,   AO  148
   0.6054E-01   -    F  11  X,   SHELL  68,   AO  146
   0.5990E-01   -    F  11  Y,   SHELL  69,   AO  150
   0.5828E-01   -    C   3  S,   SHELL  20,   AO   52
   0.5828E-01   -    C   1  S,   SHELL   2,   AO    2
   0.4627E-01   -    C   2  S,   SHELL  11,   AO   27
   0.4460E-01   -    F  11  Z,   SHELL  69,   AO  151
   0.3681E-01   -    H   6  X,   SHELL  42,   AO  100
   0.3400E-01   -    H  10  X,   SHELL  62,   AO  136
   0.3163E-01   -    H   5  Y,   SHELL  37,   AO   92
   0.3076E-01   -    H   9  X,   SHELL  57,   AO  127
   0.2919E-01   -    H   4  Y,   SHELL  32,   AO   83
   0.2833E-01   -    H   7  X,   SHELL  47,   AO  109
   0.2790E-01   -    H   8  Y,   SHELL  52,   AO  119
   0.2600E-01   -    H   6  Z,   SHELL  42,   AO  102
   0.2584E-01   -    F  11  X,   SHELL  69,   AO  149
   0.2154E-01   -    H  10  Z,   SHELL  62,   AO  138
   0.2063E-01   -    F  11  S,   SHELL  65,   AO  141
   0.2009E-01   -    H   8  Z,   SHELL  52,   AO  120
   0.1958E-01   -    H   7  Z,   SHELL  47,   AO  111
   0.1598E-01   -    C   3 YY,   SHELL  27,   AO   71
   0.1539E-01   -    H   5  Z,   SHELL  37,   AO   93
   0.1496E-01   -    C   1 XX,   SHELL   9,   AO   20
   0.1479E-01   -    C   1 XY,   SHELL   9,   AO   23
   0.1478E-01   -    H   9  Y,   SHELL  57,   AO  128
   0.1465E-01   -    C   3 YZ,   SHELL  27,   AO   75
   0.1439E-01   -    C   1 YY,   SHELL   9,   AO   21
   0.1371E-01   -    H   4  Z,   SHELL  32,   AO   84
   0.1288E-01   -    C   1 XZ,   SHELL   9,   AO   24
   0.1218E-01   -    C   3 ZZ,   SHELL  27,   AO   72
   0.1207E-01   -    C   3 XY,   SHELL  27,   AO   73
   0.1075E-01   -    C   3 XX,   SHELL  27,   AO   70
   0.9909E-02   -    C   3 XZ,   SHELL  27,   AO   74
   0.9606E-02   -    H   9  Z,   SHELL  57,   AO  129
   0.9598E-02   -    C   1 ZZ,   SHELL   9,   AO   22
   0.9519E-02   -    C   1 YZ,   SHELL   9,   AO   25
   0.9270E-02   -    H   5  X,   SHELL  37,   AO   91
   0.8818E-02   -    C   2 XX,   SHELL  18,   AO   45
   0.8508E-02   -    H   4  X,   SHELL  32,   AO   82
   0.7181E-02   -    C   2 XY,   SHELL  18,   AO   48
   0.7175E-02   -    H   8  X,   SHELL  52,   AO  118
   0.7091E-02   -    C   1  X,   SHELL   7,   AO   11
   0.6896E-02   -    C   3  Y,   SHELL  25,   AO   62
   0.6632E-02   -    H  10  Y,   SHELL  62,   AO  137
   0.6215E-02   -    H   6  Y,   SHELL  42,   AO  101
   0.6013E-02   -    C   2 YY,   SHELL  18,   AO   46
   0.6003E-02   -    C   2 XZ,   SHELL  18,   AO   49
   0.5828E-02   -    C   1  Y,   SHELL   7,   AO   12
   0.5411E-02   -    C   2 ZZ,   SHELL  18,   AO   47
   0.5181E-02   -    H   7  Y,   SHELL  47,   AO  110
   0.5043E-02   -    H   5  S,   SHELL  35,   AO   87
   0.5025E-02   -    H   9  S,   SHELL  55,   AO  123
   0.4806E-02   -    C   3  Z,   SHELL  25,   AO   63
   0.4792E-02   -    C   3  X,   SHELL  25,   AO   61
   0.4774E-02   -    H   7  S,   SHELL  45,   AO  105
   0.4756E-02   -    H   8  S,   SHELL  50,   AO  114
   0.4742E-02   -    H   4  S,   SHELL  30,   AO   78
   0.4548E-02   -    H  10  S,   SHELL  60,   AO  132
   0.4546E-02   -    H   6  S,   SHELL  40,   AO   96
   0.4016E-02   -    C   1  Z,   SHELL   7,   AO   13
   0.3968E-02   -    C   2  X,   SHELL  16,   AO   36
   0.3511E-02   -    C   2 YZ,   SHELL  18,   AO   50
   0.2645E-02   -    F  11  S,   SHELL  66,   AO  142
   0.2394E-02   -    C   1  X,   SHELL   6,   AO    8
   0.2296E-02   -    C   2  Y,   SHELL  16,   AO   37
   0.2202E-02   -    C   3  Y,   SHELL  24,   AO   59
   0.2087E-02   -    C   2  Z,   SHELL  16,   AO   38
   0.1078E-02   -    C   1  Y,   SHELL   6,   AO    9
   0.9365E-03   -    C   3  Z,   SHELL  24,   AO   60
   0.8912E-03   -    C   2  Y,   SHELL  15,   AO   34
   0.8313E-03   -    C   2  X,   SHELL  15,   AO   33
   0.7431E-03   -    H   9  S,   SHELL  54,   AO  122
   0.7424E-03   -    H   5  S,   SHELL  34,   AO   86
   0.6879E-03   -    H   4  S,   SHELL  29,   AO   77
   0.6874E-03   -    H   8  S,   SHELL  49,   AO  113
   0.6834E-03   -    H   6  S,   SHELL  39,   AO   95
   0.6834E-03   -    H  10  S,   SHELL  59,   AO  131
   0.6619E-03   -    C   3  X,   SHELL  24,   AO   58
   0.5914E-03   -    C   1  Z,   SHELL   6,   AO   10
   0.4789E-03   -    C   1  S,   SHELL   3,   AO    3
   0.4787E-03   -    C   3  S,   SHELL  21,   AO   53
   0.4423E-03   -    C   2  S,   SHELL  12,   AO   28
   0.4408E-03   -    H   7  S,   SHELL  44,   AO  104
   0.3108E-03   -    C   2  Z,   SHELL  15,   AO   35
   0.2683E-03   -    C   1  S,   SHELL   4,   AO    4
   0.2682E-03   -    C   3  S,   SHELL  22,   AO   54
   0.1064E-03   -    C   2  S,   SHELL  13,   AO   29

 YOU MAY CONSIDER DROPPING ONE OR MORE AOS, STARTING FROM THE END OF THIS LIST.
 ------------------------------------------------------------------------------

 SYMMETRIES FOR INITIAL GUESS ORBITALS FOLLOW.   BOTH SET(S).
    17 ORBITALS ARE OCCUPIED (    4 CORE ORBITALS).
     5=A        6=A        7=A        8=A        9=A       10=A       11=A   
    12=A       13=A       14=A       15=A       16=A       17=A       18=A   
    19=A       20=A       21=A       22=A       23=A       24=A       25=A   
    26=A       27=A   
 ...... END OF INITIAL ORBITAL SELECTION ......

                         TIMING STATISTICS ON RANK 0:
 CPU        TIME:   STEP =      0.08 ,  TOTAL =        0.4 SECONDS (    0.0 MIN)
 WALL CLOCK TIME:   STEP =      0.37 ,  TOTAL =        1.3 SECONDS (    0.0 MIN)
 CPU UTILIZATION:   STEP =     21.61%,  TOTAL =      30.07%

          --------------------
          2 ELECTRON INTEGRALS
          --------------------

 DIRECT SCF METHOD SKIPS INTEGRAL STORAGE ON DISK.
 DIRECT TRANSFORMATION SKIPS AO INTEGRAL STORAGE ON DISK.
 SCHWARZ INEQUALITY OVERHEAD:     13366 INTEGRALS, CPU TIME=        0.00
 ...... END OF TWO-ELECTRON INTEGRALS .....

                         TIMING STATISTICS ON RANK 0:
 CPU        TIME:   STEP =      0.00 ,  TOTAL =        0.4 SECONDS (    0.0 MIN)
 WALL CLOCK TIME:   STEP =      0.02 ,  TOTAL =        1.3 SECONDS (    0.0 MIN)
 CPU UTILIZATION:   STEP =      0.00%,  TOTAL =      29.58%

          --------------------------
          R-B3LYP    SCF CALCULATION
          --------------------------

     NUCLEAR ENERGY =       131.7564939132
     MAXIT =  100     NPUNCH=    2
     EXTRAP=T  DAMP=T  SHIFT=T  RSTRCT=F  DIIS=T  DEM=F  SOSCF=F
     DENSITY CONV=  2.00E-05
     MEMORY REQUIRED FOR SCF STEP=    912929 WORDS.

 XC FUNCTIONAL: SLATER + BECKE 88 + HF EXCHANGE, LYP 88 + VWN 1 RPA CORRELATION 


 DIRECT SCF CALCULATION, SCHWRZ=T   FDIFF=F
 SCHWARZ INEQUALITY OVERHEAD:     13366 INTEGRALS, CPU TIME=        0.00

                                                                              NONZERO    BLOCKS
 ITER EX DEM  TOTAL ENERGY      E CHANGE  DENSITY CHANGE    DIIS ERROR      INTEGRALS   SKIPPED
          * * *   INITIATING DIIS PROCEDURE   * * *
   1  0  0  -217.816125931  -217.816125931   0.860932199   0.479039140       91862384      5209
   2  1  0  -218.185475687    -0.369349756   0.224052193   0.162112701       91871822      5308
   3  2  0  -218.398194799    -0.212719112   0.070921091   0.046625373       91869672      5292
   4  3  0  -218.403969123    -0.005774325   0.032845675   0.026215113       91869152      5305
   5  4  0  -218.409596839    -0.005627715   0.006810513   0.005121127       91869512      5303
   6  5  0  -218.409760607    -0.000163768   0.001060481   0.000422000       91869443      5303
   7  6  0  -218.409762739    -0.000002132   0.000352203   0.000228290       91869434      5304
   8  7  0  -218.409763259    -0.000000521   0.000050411   0.000026714       91869434      5304
   9  8  0  -218.409763269    -0.000000009   0.000020651   0.000005806       91869434      5304
  10  9  0  -218.409763269     0.000000000   0.000001710   0.000000687       91869434      5304

          -----------------
          DENSITY CONVERGED
          -----------------
     TIME TO FORM FOCK OPERATORS =       8.71 SECONDS (       0.87 SEC/ITER)
     OF THE ABOVE TIME, DFT PART =       1.60 SECONDS (       0.16 SEC/ITER)
     FOCK TIME ON FIRST ITERATION=       0.93, LAST ITERATION=       1.55
     TIME TO SOLVE SCF EQUATIONS =       0.20 SECONDS (       0.02 SEC/ITER)

 FINAL ENERGY IS     -218.4097632694 AFTER  10 ITERATIONS
 DFT EXCHANGE + CORRELATION ENERGY IS      -23.7317827549
 INTEGRATED TOTAL ELECTRON NUMBER  IS       34.0000649750


          ------------
          EIGENVECTORS
          ------------

                      1          2          3          4          5
                  -24.6819   -10.2674   -10.1883   -10.1883    -1.1801
                     A          A          A          A          A   
    1  C   1  S  -0.000112   0.000520  -0.892899   0.473016   0.002443
    2  C   1  S  -0.000192  -0.001356  -0.021358   0.009970  -0.014324
    3  C   1  S  -0.004497   0.025369   0.080345  -0.025845   0.018567
    4  C   1  S  -0.004255  -0.008848   0.022621  -0.002861  -0.017877
    5  C   1  X  -0.000081   0.000023   0.000102   0.000015  -0.004993
    6  C   1  Y  -0.000071  -0.000046   0.000118  -0.000213  -0.005554
    7  C   1  Z   0.000072   0.000113  -0.000184   0.000409   0.012564
    8  C   1  X   0.004744  -0.002523   0.003559   0.000470  -0.036555
    9  C   1  Y   0.001236   0.016313   0.017080   0.002116  -0.007586
   10  C   1  Z   0.000198  -0.027602  -0.024621  -0.001724   0.004511
   11  C   1  X  -0.000426  -0.000175   0.000350  -0.000007  -0.002174
   12  C   1  Y  -0.000183  -0.000771   0.003291   0.001197  -0.001001
   13  C   1  Z   0.000790  -0.000848  -0.003976  -0.001490   0.008777
   14  C   1 XX   0.000044   0.000324  -0.000493   0.000218   0.002371
   15  C   1 YY  -0.000054  -0.000085   0.000050   0.000103   0.000740
   16  C   1 ZZ   0.000010  -0.000239   0.000443  -0.000321  -0.003112
   17  C   1 XY   0.000024  -0.000051   0.000135   0.000084  -0.001693
   18  C   1 XZ  -0.000359   0.000236  -0.000175   0.000002   0.002829
   19  C   1 YZ  -0.000045   0.000461  -0.000827   0.000283   0.003237
   20  C   1 XX   0.000736  -0.004186  -0.002915   0.000088  -0.003024
   21  C   1 YY  -0.001103  -0.001123  -0.000641  -0.000775   0.002020
   22  C   1 ZZ   0.000368   0.005309   0.003556   0.000686   0.001004
   23  C   1 XY   0.000927  -0.000001   0.000679   0.000485  -0.003311
   24  C   1 XZ  -0.002732  -0.000123  -0.000843   0.000579   0.011546
   25  C   1 YZ  -0.000524  -0.006278  -0.005043  -0.000319   0.004921
   26  C   2  S   0.000448   1.011043   0.000697  -0.002275   0.005824
   27  C   2  S   0.000502   0.024161   0.000274  -0.000896  -0.109454
   28  C   2  S  -0.011181  -0.098933  -0.006082   0.019878   0.036171
   29  C   2  S   0.007358   0.007069   0.001367  -0.004469   0.077842
   30  C   2  X  -0.000646   0.001274   0.000055   0.000059  -0.078296
   31  C   2  Y   0.000182  -0.000117  -0.000095   0.000173   0.019549
   32  C   2  Z   0.000340  -0.000609   0.000136   0.000076   0.040664
   33  C   2  X  -0.015205   0.026968  -0.017771  -0.011332   0.067645
   34  C   2  Y   0.002769   0.022630   0.014179  -0.005613   0.005685
   35  C   2  Z   0.007687  -0.006150  -0.042811  -0.013083  -0.029077
   36  C   2  X  -0.000496  -0.001245  -0.003550  -0.000881  -0.000002
   37  C   2  Y  -0.000731   0.001378   0.001997   0.000759  -0.021038
   38  C   2  Z   0.000026   0.000935  -0.007707  -0.002431  -0.005635
   39  C   2 XX  -0.000716   0.000289  -0.000210   0.000085  -0.013639
   40  C   2 YY   0.000433   0.000390   0.000027   0.000373   0.010576
   41  C   2 ZZ   0.000283  -0.000680   0.000183  -0.000458   0.003063
   42  C   2 XY   0.000220  -0.000143  -0.000042  -0.000114   0.006846
   43  C   2 XZ   0.000754  -0.000764  -0.000054  -0.000550   0.013680
   44  C   2 YZ  -0.000155   0.000523  -0.000400   0.000286  -0.002628
   45  C   2 XX  -0.002350   0.001782   0.005580   0.001861   0.019568
   46  C   2 YY   0.003306   0.003007  -0.002999  -0.003136  -0.018276
   47  C   2 ZZ  -0.000956  -0.004789  -0.002580   0.001275  -0.001291
   48  C   2 XY   0.005230  -0.004475   0.001772   0.000108  -0.032873
   49  C   2 XZ   0.002873  -0.006659   0.006261   0.003215  -0.026807
   50  C   2 YZ  -0.001520   0.005576   0.008519   0.001258   0.013799
   51  C   3  S  -0.000112   0.000519   0.474238   0.892251   0.002438
   52  C   3  S  -0.000192  -0.001359   0.012099   0.020231  -0.014334
   53  C   3  S  -0.004456   0.025452  -0.052066  -0.066435   0.018742
   54  C   3  S  -0.004260  -0.008842  -0.017126  -0.015082  -0.018139
   55  C   3  X  -0.000119  -0.000074  -0.000006  -0.000391  -0.013357
   56  C   3  Y  -0.000048   0.000011  -0.000030  -0.000042  -0.000651
   57  C   3  Z  -0.000012  -0.000099   0.000120  -0.000319  -0.005900
   58  C   3  X   0.003377   0.021038  -0.020217  -0.011373  -0.029482
   59  C   3  Y   0.002098   0.002463  -0.005391  -0.002050  -0.012003
   60  C   3  Z  -0.002959   0.024275  -0.016267  -0.009108   0.020527
   61  C   3  X  -0.000875   0.000337  -0.003779  -0.001014  -0.007953
   62  C   3  Y   0.000090  -0.001090  -0.001339  -0.000383   0.002263
   63  C   3  Z  -0.000219   0.000296  -0.003551  -0.000780  -0.003931
   64  C   3 XX   0.000338  -0.000292  -0.000245  -0.000292  -0.003938
   65  C   3 YY  -0.000112   0.000218   0.000212   0.000430   0.002108
   66  C   3 ZZ  -0.000226   0.000074   0.000033  -0.000138   0.001830
   67  C   3 XY  -0.000018  -0.000138  -0.000284  -0.000122  -0.000893
   68  C   3 XZ  -0.000046  -0.000464  -0.000472  -0.000758  -0.003917
   69  C   3 YZ   0.000113  -0.000242  -0.000180  -0.000176  -0.000472
   70  C   3 XX   0.003086   0.002315  -0.002047  -0.001324  -0.012199
   71  C   3 YY  -0.001190  -0.004180   0.002883   0.001359   0.005178
   72  C   3 ZZ  -0.001897   0.001866  -0.000836  -0.000035   0.007021
   73  C   3 XY   0.000246   0.000799  -0.001224  -0.000554  -0.003514
   74  C   3 XZ  -0.000286   0.007217  -0.004605  -0.002563   0.001152
   75  C   3 YZ   0.000094   0.000849  -0.000200  -0.001223  -0.003429
   76  H   4  S  -0.000076  -0.000407   0.000523  -0.000278  -0.002894
   77  H   4  S   0.001141   0.005193  -0.006687   0.009027  -0.035195
   78  H   4  S  -0.000354   0.000689  -0.000384   0.001018  -0.002050
   79  H   4  X  -0.000050  -0.000083   0.001266  -0.000648  -0.000550
   80  H   4  Y   0.000072  -0.000045  -0.000434   0.000206  -0.000186
   81  H   4  Z  -0.000073   0.000241  -0.000512   0.000531   0.001221
   82  H   4  X   0.000386   0.000564  -0.002166   0.002495  -0.010001
   83  H   4  Y   0.000731  -0.000859   0.000045  -0.000093  -0.002682
   84  H   4  Z  -0.001074   0.000108   0.002378  -0.001626   0.010248
   85  H   5  S   0.000039  -0.000393   0.000418  -0.000485  -0.004478
   86  H   5  S  -0.000977   0.014442  -0.010362   0.006497   0.025461
   87  H   5  S   0.000351   0.001597   0.000404   0.001598  -0.003342
   88  H   5  X  -0.000183   0.000141  -0.001253   0.000605   0.001022
   89  H   5  Y  -0.000041  -0.000080  -0.000437   0.000086   0.000508
   90  H   5  Z   0.000048   0.000272  -0.000678   0.000491   0.000250
   91  H   5  X   0.000013  -0.002445   0.002872  -0.001634  -0.004311
   92  H   5  Y  -0.000234  -0.000173  -0.000359  -0.000193   0.001906
   93  H   5  Z   0.001020  -0.002919   0.003718  -0.001869  -0.013190
   94  H   6  S   0.000166  -0.000369   0.000448  -0.000296  -0.004560
   95  H   6  S   0.003253   0.008626  -0.006360   0.011509  -0.006788
   96  H   6  S   0.000185  -0.000015   0.000405   0.001362  -0.002391
   97  H   6  X  -0.000087   0.000024   0.000036   0.000090   0.000217
   98  H   6  Y  -0.000014  -0.000230   0.001253  -0.000872  -0.000555
   99  H   6  Z   0.000127   0.000221   0.000589  -0.000105  -0.000649
  100  H   6  X  -0.000210   0.000232  -0.000015   0.000596   0.002438
  101  H   6  Y   0.000796   0.001561  -0.003315   0.003774   0.000036
  102  H   6  Z   0.000490   0.000665   0.000737   0.000531  -0.001659
  103  H   7  S  -0.000281  -0.001036   0.000187  -0.000609  -0.024903
  104  H   7  S  -0.002907   0.001301  -0.003568   0.011670   0.001096
  105  H   7  S   0.000181  -0.000968  -0.000093   0.000347   0.007543
  106  H   7  X   0.000256  -0.000173   0.000137   0.000078  -0.001753
  107  H   7  Y  -0.000213   0.001384  -0.000149   0.000183   0.006942
  108  H   7  Z  -0.000173   0.000447   0.000310   0.000140   0.002644
  109  H   7  X  -0.000850   0.000912   0.000135   0.000168   0.010774
  110  H   7  Y  -0.000676  -0.003455   0.000801  -0.002966   0.006373
  111  H   7  Z   0.000208  -0.001313   0.000634  -0.000725  -0.003152
  112  H   8  S  -0.000073  -0.000408  -0.000268  -0.000528  -0.002917
  113  H   8  S   0.001259   0.005202   0.000490   0.011152  -0.035779
  114  H   8  S  -0.000348   0.000687  -0.000265   0.001053  -0.001986
  115  H   8  X   0.000031  -0.000234  -0.000506  -0.001286  -0.001275
  116  H   8  Y   0.000021   0.000045   0.000135   0.000423   0.000242
  117  H   8  Z   0.000107  -0.000096   0.000520   0.000651  -0.000378
  118  H   8  X   0.001199   0.000158   0.001034   0.004085  -0.014756
  119  H   8  Y   0.000243  -0.000603  -0.000351  -0.000532   0.000079
  120  H   8  Z   0.000649  -0.000809   0.000341  -0.000870   0.000187
  121  H   9  S   0.000045  -0.000392  -0.000076  -0.000638  -0.004460
  122  H   9  S  -0.000981   0.014512   0.004944   0.011195   0.025734
  123  H   9  S   0.000337   0.001622  -0.001234   0.001094  -0.003285
  124  H   9  X  -0.000166  -0.000116   0.000327   0.000308   0.000611
  125  H   9  Y  -0.000052   0.000071   0.000533   0.000845   0.000751
  126  H   9  Z   0.000082  -0.000289  -0.000526  -0.001165  -0.000633
  127  H   9  X  -0.000753   0.000395   0.000544   0.000585   0.006773
  128  H   9  Y   0.000209  -0.001866  -0.000792  -0.002050  -0.004617
  129  H   9  Z  -0.000703   0.003323   0.002348   0.004175   0.011482
  130  H  10  S   0.000160  -0.000368  -0.000212  -0.000491  -0.004559
  131  H  10  S   0.003203   0.008567  -0.001221   0.013191  -0.006409
  132  H  10  S   0.000203  -0.000033  -0.001089   0.000901  -0.002585
  133  H  10  X  -0.000152  -0.000184   0.000150   0.000074   0.000500
  134  H  10  Y   0.000026  -0.000109  -0.000682  -0.001427  -0.000738
  135  H  10  Z  -0.000014  -0.000238   0.000067  -0.000404  -0.000031
  136  H  10  X  -0.000348  -0.000035   0.000541   0.001250   0.002858
  137  H  10  Y   0.000862   0.001682   0.000113   0.004555  -0.000151
  138  H  10  Z   0.000203   0.000105   0.000987   0.001762  -0.000731
  139  F  11  S  -1.004215   0.000574  -0.000032   0.000102   0.009198
  140  F  11  S  -0.008893   0.001077  -0.000050   0.000163  -0.461977
  141  F  11  S   0.019212  -0.002164   0.000388  -0.001258  -0.541269
  142  F  11  S   0.006332  -0.010688  -0.000516   0.001712  -0.120413
  143  F  11  X   0.001040  -0.000326  -0.000027   0.000087   0.068488
  144  F  11  Y  -0.000187   0.000100  -0.000004   0.000015  -0.014971
  145  F  11  Z  -0.000521   0.000174   0.000010  -0.000036  -0.035007
  146  F  11  X  -0.005136   0.002039   0.000154   0.000628   0.056168
  147  F  11  Y   0.000688  -0.000808  -0.000170  -0.000115  -0.010670
  148  F  11  Z   0.002510  -0.001142   0.000782  -0.000039  -0.028289
  149  F  11  X  -0.001813   0.003407   0.000170   0.000082   0.019915
  150  F  11  Y   0.000160  -0.001199  -0.000063  -0.000180  -0.000738
  151  F  11  Z   0.000869  -0.001872   0.000422   0.000074  -0.009251
  152  F  11 XX  -0.000058  -0.000032  -0.000021  -0.000056  -0.004594
  153  F  11 YY   0.000023   0.000046  -0.000005   0.000078   0.003245
  154  F  11 ZZ   0.000035  -0.000014   0.000026  -0.000022   0.001349
  155  F  11 XY   0.000023  -0.000020  -0.000005  -0.000004   0.002107
  156  F  11 XZ   0.000072   0.000000  -0.000041  -0.000006   0.004771
  157  F  11 YZ  -0.000024   0.000030  -0.000050   0.000021  -0.001019
  158  F  11 XX   0.000690  -0.001054  -0.000008  -0.000033  -0.005390
  159  F  11 YY  -0.000433   0.000603  -0.000026  -0.000152   0.003369
  160  F  11 ZZ  -0.000257   0.000450   0.000034   0.000185   0.002021
  161  F  11 XY  -0.000278   0.000701   0.000056   0.000070   0.002293
  162  F  11 XZ  -0.000743   0.001296  -0.000049   0.000160   0.005864
  163  F  11 YZ   0.000174  -0.000460   0.000174  -0.000101  -0.001433

                      6          7          8          9         10
                   -0.7939    -0.7051    -0.6020    -0.5060    -0.4719
                     A          A          A          A          A   
    1  C   1  S   0.013393  -0.012612   0.005422   0.001046  -0.000441
    2  C   1  S  -0.216830   0.278633  -0.149944  -0.002967   0.041860
    3  C   1  S  -0.062864   0.079565  -0.091770   0.027092  -0.052300
    4  C   1  S  -0.063010   0.092647   0.041305  -0.024507  -0.057417
    5  C   1  X   0.008085   0.012470   0.027171   0.057326   0.146098
    6  C   1  Y  -0.035334   0.006516   0.090363  -0.110778  -0.046809
    7  C   1  Z   0.053671   0.008895  -0.085186  -0.104701   0.199841
    8  C   1  X  -0.005645  -0.008110   0.013748   0.018934  -0.017859
    9  C   1  Y  -0.017691  -0.006612  -0.013311   0.015163  -0.042644
   10  C   1  Z   0.011000  -0.005962   0.052228  -0.018493   0.030976
   11  C   1  X  -0.001317  -0.003497   0.001949  -0.001614  -0.002031
   12  C   1  Y  -0.011431   0.014480   0.004459  -0.007004  -0.002113
   13  C   1  Z   0.016699  -0.030613   0.005305   0.004429   0.006837
   14  C   1 XX   0.005946   0.000216  -0.005682  -0.005074   0.005713
   15  C   1 YY  -0.000094   0.000429   0.002595  -0.003431  -0.000109
   16  C   1 ZZ  -0.005852  -0.000645   0.003087   0.008505  -0.005604
   17  C   1 XY   0.000647   0.001379   0.002683   0.003124   0.006751
   18  C   1 XZ  -0.000346  -0.001020  -0.001150  -0.002002   0.001164
   19  C   1 YZ   0.008970  -0.001392  -0.010390   0.003273   0.006190
   20  C   1 XX   0.006901  -0.005973   0.001699   0.028197  -0.015944
   21  C   1 YY  -0.007813   0.000729   0.009356  -0.020822  -0.000834
   22  C   1 ZZ   0.000912   0.005244  -0.011055  -0.007375   0.016778
   23  C   1 XY  -0.002258   0.000136  -0.000336  -0.005325  -0.033623
   24  C   1 XZ  -0.003714  -0.007665   0.001453  -0.014591  -0.004799
   25  C   1 YZ   0.002186  -0.004971   0.021034  -0.016486   0.000388
   26  C   2  S   0.015121  -0.000004  -0.001223   0.002039  -0.000989
   27  C   2  S  -0.267443   0.000068   0.262464   0.005767  -0.090002
   28  C   2  S  -0.164638   0.000080   0.211422   0.056814  -0.135206
   29  C   2  S   0.100901   0.000129  -0.122535   0.090016   0.074090
   30  C   2  X   0.073229   0.071267   0.086168   0.122819   0.246998
   31  C   2  Y   0.029961  -0.041728   0.118659  -0.278800   0.135373
   32  C   2  Z  -0.025237   0.157280  -0.007538  -0.129935  -0.075225
   33  C   2  X   0.054525   0.044691  -0.036770   0.055900   0.122702
   34  C   2  Y   0.075532  -0.026256  -0.107011  -0.023575   0.054036
   35  C   2  Z  -0.004225   0.098277  -0.011741  -0.032389  -0.041395
   36  C   2  X  -0.003631  -0.009213   0.019251   0.007886  -0.020724
   37  C   2  Y  -0.003161   0.005385   0.001864   0.019070  -0.045368
   38  C   2  Z   0.000894  -0.020254  -0.008466   0.001827  -0.002641
   39  C   2 XX   0.004263  -0.008879   0.006217   0.011711   0.011036
   40  C   2 YY   0.002917   0.005932   0.000438  -0.010475  -0.011015
   41  C   2 ZZ  -0.007179   0.002946  -0.006655  -0.001235  -0.000021
   42  C   2 XY  -0.003289  -0.002841  -0.003754  -0.012162  -0.007237
   43  C   2 XZ  -0.009574  -0.010541  -0.010572  -0.013287  -0.009815
   44  C   2 YZ   0.006169  -0.013350   0.005557   0.004586   0.001147
   45  C   2 XX  -0.009029  -0.015580   0.010496  -0.042065  -0.033489
   46  C   2 YY   0.025141   0.002494  -0.047862   0.085425  -0.030270
   47  C   2 ZZ  -0.016112   0.013086   0.037366  -0.043361   0.063759
   48  C   2 XY  -0.002285   0.002784  -0.000476   0.046192  -0.028369
   49  C   2 XZ  -0.007831  -0.016312   0.022483   0.011874   0.058607
   50  C   2 YZ   0.015631  -0.007299  -0.031114   0.019096  -0.024801
   51  C   3  S   0.013387   0.012618   0.005413   0.001049  -0.000440
   52  C   3  S  -0.216877  -0.278700  -0.149754  -0.003090   0.042076
   53  C   3  S  -0.062606  -0.079419  -0.091526   0.025807  -0.052882
   54  C   3  S  -0.062924  -0.092647   0.040680  -0.023584  -0.057276
   55  C   3  X  -0.039244  -0.003257   0.096024   0.092608  -0.052609
   56  C   3  Y  -0.007490  -0.011752   0.050029  -0.131231   0.069015
   57  C   3  Z  -0.050961   0.011151   0.066642  -0.027351  -0.237001
   58  C   3  X  -0.014605   0.002368  -0.030318   0.028380  -0.042332
   59  C   3  Y  -0.012105   0.009642   0.012431   0.009954  -0.028788
   60  C   3  Z  -0.009362  -0.006317  -0.044726   0.002653  -0.023272
   61  C   3  X  -0.014912  -0.022134  -0.001892  -0.005483  -0.006486
   62  C   3  Y  -0.003346   0.000519   0.006751  -0.004577   0.000523
   63  C   3  Z  -0.013200  -0.025878  -0.002552  -0.004130  -0.003366
   64  C   3 XX  -0.001867  -0.001264   0.002997   0.003460  -0.001193
   65  C   3 YY   0.005020   0.000388  -0.003655   0.001322   0.005378
   66  C   3 ZZ  -0.003153   0.000877   0.000659  -0.004782  -0.004185
   67  C   3 XY  -0.001734  -0.001833   0.005893  -0.004515   0.003739
   68  C   3 XZ  -0.009593  -0.000266   0.009292   0.005382  -0.007082
   69  C   3 YZ  -0.002545  -0.000438   0.003560  -0.004911  -0.005687
   70  C   3 XX   0.005578  -0.007685  -0.010431   0.022875  -0.002214
   71  C   3 YY  -0.005622   0.002991   0.019150  -0.030713  -0.009015
   72  C   3 ZZ   0.000044   0.004694  -0.008719   0.007838   0.011229
   73  C   3 XY  -0.004032   0.000880  -0.005875   0.006742  -0.030504
   74  C   3 XZ  -0.005691  -0.006939  -0.013501  -0.017074   0.010460
   75  C   3 YZ  -0.002655  -0.004373  -0.000788   0.002527   0.018014
   76  H   4  S  -0.091473   0.131022  -0.110660  -0.098688   0.001144
   77  H   4  S  -0.014463   0.003892  -0.041191  -0.068249   0.005569
   78  H   4  S   0.000164   0.006550   0.000050   0.001626  -0.003821
   79  H   4  X  -0.009818   0.014324  -0.008943  -0.004475   0.006148
   80  H   4  Y   0.002721  -0.003490   0.004578  -0.001366  -0.002117
   81  H   4  Z   0.006854  -0.007894   0.003407   0.000544   0.004758
   82  H   4  X  -0.005908   0.001255  -0.013146  -0.005408   0.006887
   83  H   4  Y   0.006462  -0.002705   0.001710   0.011607  -0.007050
   84  H   4  Z  -0.001884  -0.001623   0.001304   0.004900  -0.005296
   85  H   5  S  -0.080318   0.141731  -0.089251  -0.032678   0.206047
   86  H   5  S   0.008090   0.051936  -0.090935  -0.011955   0.124345
   87  H   5  S  -0.003501   0.007478  -0.014135  -0.000166   0.009271
   88  H   5  X   0.009128  -0.013460   0.009206   0.003641  -0.008309
   89  H   5  Y   0.001774  -0.003246   0.003800  -0.002531  -0.003271
   90  H   5  Z   0.007837  -0.009638   0.003524  -0.001428  -0.004908
   91  H   5  X  -0.000016  -0.014594   0.026460  -0.005485  -0.008912
   92  H   5  Y   0.005596  -0.004528  -0.000805   0.005731   0.000385
   93  H   5  Z  -0.003613  -0.008823   0.018297   0.004762  -0.007574
   94  H   6  S  -0.085120   0.127095  -0.126598   0.097835   0.020956
   95  H   6  S  -0.009722   0.007574  -0.041988   0.079147   0.002624
   96  H   6  S   0.000611   0.003566   0.004546   0.001464  -0.004083
   97  H   6  X   0.000129   0.000619   0.000896   0.002018   0.004026
   98  H   6  Y  -0.012305   0.015961  -0.010241   0.003939   0.001255
   99  H   6  Z  -0.001641   0.004487  -0.005788  -0.001568   0.007125
  100  H   6  X  -0.002117  -0.001849   0.002202  -0.006204  -0.008450
  101  H   6  Y  -0.007211   0.004080  -0.005424   0.008499   0.003475
  102  H   6  Z  -0.002663   0.003628  -0.009179   0.004596   0.007078
  103  H   7  S  -0.109605   0.000126   0.211828  -0.219768   0.037999
  104  H   7  S  -0.073654  -0.000001   0.263287  -0.238060   0.073883
  105  H   7  S   0.006786  -0.000015   0.017743  -0.023049   0.029560
  106  H   7  X   0.001763   0.001064   0.000882   0.001978   0.005970
  107  H   7  Y   0.012861  -0.000641  -0.016670   0.006808   0.000364
  108  H   7  Z   0.002629   0.002349  -0.004836   0.000909  -0.002591
  109  H   7  X  -0.004741  -0.004910  -0.000424  -0.029202   0.006613
  110  H   7  Y   0.009777   0.002879  -0.057192   0.031286  -0.015737
  111  H   7  Z   0.004792  -0.010900  -0.015019   0.021372  -0.007250
  112  H   8  S  -0.091615  -0.131071  -0.110771  -0.098273   0.000755
  113  H   8  S  -0.014350  -0.003578  -0.041380  -0.067487   0.006051
  114  H   8  S   0.000137  -0.006586  -0.000204   0.001464  -0.003725
  115  H   8  X  -0.011031  -0.014680  -0.007634  -0.003657   0.000347
  116  H   8  Y   0.003323   0.003565   0.003723  -0.001904   0.001280
  117  H   8  Z   0.004263   0.007190   0.006372   0.002302  -0.007971
  118  H   8  X  -0.001373  -0.001391  -0.009554  -0.004775   0.007382
  119  H   8  Y   0.003717   0.002768  -0.000430   0.011284  -0.007226
  120  H   8  Z   0.008067   0.000970   0.009463   0.005768  -0.005045
  121  H   9  S  -0.080283  -0.141716  -0.089166  -0.033714   0.206170
  122  H   9  S   0.008153  -0.051711  -0.090607  -0.014153   0.124205
  123  H   9  S  -0.003509  -0.007457  -0.014266  -0.000064   0.009226
  124  H   9  X   0.000893   0.002809   0.004400   0.003003  -0.002712
  125  H   9  Y   0.006631   0.009551   0.006636  -0.002094  -0.006625
  126  H   9  Z  -0.010158  -0.013626  -0.006925  -0.002893   0.007273
  127  H   9  X   0.003625   0.004356   0.004716  -0.005969  -0.000544
  128  H   9  Y   0.003449   0.010561   0.011845   0.006360  -0.004508
  129  H   9  Z   0.004362  -0.013335  -0.029405   0.003116   0.010744
  130  H  10  S  -0.085123  -0.127245  -0.126370   0.098027   0.022195
  131  H  10  S  -0.009388  -0.008431  -0.041849   0.079944   0.002533
  132  H  10  S   0.000787  -0.003575   0.004801   0.001588  -0.004060
  133  H  10  X  -0.001014  -0.000149   0.002864   0.003209  -0.002136
  134  H  10  Y  -0.011585  -0.016174  -0.011295   0.003240   0.004930
  135  H  10  Z  -0.004359  -0.003749  -0.001699   0.001149  -0.006336
  136  H  10  X  -0.000891   0.003122   0.007061  -0.005821  -0.010072
  137  H  10  Y  -0.007808  -0.005109  -0.008159   0.008564   0.004186
  138  H  10  Z  -0.000003  -0.001038   0.001166   0.005519   0.003371
  139  F  11  S   0.002252   0.000002  -0.002161  -0.001427  -0.000059
  140  F  11  S   0.118978  -0.000030  -0.102180  -0.065184  -0.039277
  141  F  11  S   0.144205  -0.000070  -0.139240  -0.079008  -0.055205
  142  F  11  S   0.012703  -0.000001  -0.021056  -0.035379  -0.033784
  143  F  11  X   0.077781   0.021076  -0.202421  -0.333493  -0.172530
  144  F  11  Y  -0.007507  -0.012351   0.105316  -0.136508   0.220256
  145  F  11  Z  -0.037238   0.046604   0.119664   0.114613   0.137676
  146  F  11  X   0.045458   0.011518  -0.114441  -0.190353  -0.092642
  147  F  11  Y  -0.006979  -0.006717   0.063744  -0.089786   0.137690
  148  F  11  Z  -0.022469   0.025443   0.068724   0.062264   0.079201
  149  F  11  X   0.002855  -0.001608  -0.009333  -0.024077  -0.007842
  150  F  11  Y  -0.002397   0.000965  -0.001483  -0.009440   0.028721
  151  F  11  Z  -0.001973  -0.003556   0.003844   0.008303   0.011281
  152  F  11 XX  -0.002113  -0.001435   0.003612   0.006367   0.001682
  153  F  11 YY   0.001647  -0.000070  -0.002576  -0.004230  -0.001448
  154  F  11 ZZ   0.000466   0.001505  -0.001036  -0.002137  -0.000234
  155  F  11 XY   0.000445   0.000555  -0.003480   0.001881  -0.004439
  156  F  11 XZ   0.001857  -0.001437  -0.004491  -0.004816  -0.003093
  157  F  11 YZ  -0.000067  -0.000079   0.001770  -0.000986   0.002170
  158  F  11 XX  -0.004390  -0.002310   0.002609   0.005617  -0.004624
  159  F  11 YY   0.002282  -0.000354   0.000097  -0.006627   0.004664
  160  F  11 ZZ   0.002108   0.002664  -0.002706   0.001010  -0.000041
  161  F  11 XY   0.002099   0.001114  -0.006076   0.007410  -0.006335
  162  F  11 XZ   0.005237  -0.002240  -0.006228   0.000406   0.000106
  163  F  11 YZ  -0.001650   0.000356   0.004691  -0.006189   0.004636

                     11         12         13         14         15
                   -0.4593    -0.4079    -0.4022    -0.3933    -0.3793
                     A          A          A          A          A   
    1  C   1  S  -0.002619   0.001295   0.000583   0.000901   0.002262
    2  C   1  S  -0.039765  -0.004694   0.003738   0.004675  -0.002645
    3  C   1  S   0.183904  -0.017944  -0.053264  -0.008996  -0.064956
    4  C   1  S  -0.063570   0.095400   0.002015   0.062631   0.039794
    5  C   1  X   0.146829  -0.238324   0.078261   0.110124   0.279708
    6  C   1  Y   0.122604  -0.099648  -0.291275  -0.182459   0.007259
    7  C   1  Z  -0.131348   0.008394  -0.118348  -0.141514   0.114133
    8  C   1  X   0.033987   0.054875  -0.007688  -0.028845  -0.055555
    9  C   1  Y   0.095706  -0.008483  -0.015134   0.008193  -0.092920
   10  C   1  Z  -0.187545   0.041130   0.052895   0.070925   0.120043
   11  C   1  X  -0.016211   0.014382   0.004246   0.002309  -0.021355
   12  C   1  Y   0.003978   0.010364   0.004224   0.019791  -0.020800
   13  C   1  Z   0.008034  -0.023903   0.008714   0.000505  -0.029790
   14  C   1 XX  -0.003115   0.000564  -0.009250  -0.010141   0.002266
   15  C   1 YY  -0.000398   0.004155   0.012773   0.015699  -0.003644
   16  C   1 ZZ   0.003513  -0.004719  -0.003523  -0.005558   0.001378
   17  C   1 XY   0.004959  -0.001391   0.001149   0.003373   0.005636
   18  C   1 XZ  -0.000650  -0.013621   0.003893   0.007353   0.017347
   19  C   1 YZ  -0.009860   0.003216   0.005061   0.000386   0.002995
   20  C   1 XX  -0.008340   0.022757   0.047676   0.047288  -0.003964
   21  C   1 YY  -0.011006  -0.003832  -0.035684  -0.032273   0.038570
   22  C   1 ZZ   0.019346  -0.018925  -0.011992  -0.015015  -0.034606
   23  C   1 XY  -0.003820   0.050921  -0.013985  -0.015165  -0.035296
   24  C   1 XZ  -0.049547   0.017030   0.006416  -0.002906  -0.033411
   25  C   1 YZ  -0.012788  -0.013692  -0.022408  -0.007605   0.023307
   26  C   2  S   0.000002   0.000895   0.000001  -0.001934  -0.000008
   27  C   2  S   0.000166  -0.040532   0.000265   0.028116  -0.000043
   28  C   2  S   0.000282  -0.051195   0.000178   0.013948   0.000420
   29  C   2  S   0.000741  -0.210621   0.001009  -0.129013   0.001007
   30  C   2  X   0.110983   0.106233  -0.033013  -0.048753  -0.039320
   31  C   2  Y  -0.065868   0.014094   0.019092   0.083730   0.022994
   32  C   2  Z   0.246217  -0.044516  -0.071510   0.044698  -0.086659
   33  C   2  X  -0.065913  -0.053576   0.005187  -0.018406   0.069010
   34  C   2  Y   0.039116  -0.043699  -0.003265  -0.151397  -0.039761
   35  C   2  Z  -0.145383   0.012210   0.011324  -0.033130   0.152045
   36  C   2  X   0.009676   0.025050  -0.005734   0.001290   0.013081
   37  C   2  Y  -0.006102   0.046992   0.002848  -0.012865  -0.008096
   38  C   2  Z   0.021452   0.001339  -0.012230  -0.004045   0.029052
   39  C   2 XX   0.012139   0.026012   0.009627  -0.016501   0.003368
   40  C   2 YY   0.002171  -0.009677   0.007068   0.018809  -0.002697
   41  C   2 ZZ  -0.014310  -0.016335  -0.016695  -0.002308  -0.000671
   42  C   2 XY  -0.006222   0.012212  -0.010162   0.018506   0.001503
   43  C   2 XZ   0.011783  -0.023551   0.008122   0.016088   0.004148
   44  C   2 YZ  -0.002463  -0.000774  -0.012677  -0.004064   0.005911
   45  C   2 XX   0.024305   0.011151   0.002986  -0.011757   0.000173
   46  C   2 YY  -0.046634   0.047655   0.023674  -0.001027   0.023478
   47  C   2 ZZ   0.022329  -0.058806  -0.026660   0.012784  -0.023651
   48  C   2 XY   0.037315   0.046882  -0.024507   0.000330  -0.023731
   49  C   2 XZ   0.036512  -0.033293  -0.002419   0.017824  -0.006508
   50  C   2 YZ   0.097240   0.016989  -0.048272  -0.006482  -0.048588
   51  C   3  S   0.002613   0.001314  -0.000628   0.000886  -0.002273
   52  C   3  S   0.039490  -0.004711  -0.003728   0.004661   0.002680
   53  C   3  S  -0.184008  -0.018221   0.052817  -0.010835   0.064984
   54  C   3  S   0.062778   0.096619  -0.003311   0.062238  -0.040537
   55  C   3  X  -0.215473  -0.187254  -0.080326   0.141200  -0.109387
   56  C   3  Y  -0.082381  -0.128753   0.293448  -0.201864  -0.106353
   57  C   3  Z  -0.020475   0.124127   0.108846  -0.074654   0.260001
   58  C   3  X  -0.173859   0.005955   0.045057  -0.069332   0.140822
   59  C   3  Y  -0.013996   0.020408  -0.007050   0.031239   0.042467
   60  C   3  Z  -0.121801  -0.066128   0.031409  -0.017122   0.067323
   61  C   3  X   0.015729   0.029029   0.002234   0.004786  -0.003151
   62  C   3  Y  -0.003583   0.001983  -0.008133   0.018353   0.034992
   63  C   3  Z  -0.008798   0.007789   0.006107   0.005985  -0.023385
   64  C   3 XX  -0.004212   0.008501   0.009569  -0.012403   0.012415
   65  C   3 YY   0.004662   0.002000  -0.013208   0.013420  -0.003642
   66  C   3 ZZ  -0.000450  -0.010501   0.003639  -0.001017  -0.008772
   67  C   3 XY  -0.006775  -0.002147  -0.000585   0.006266  -0.003576
   68  C   3 XZ  -0.007988  -0.005452  -0.003156   0.005713  -0.000945
   69  C   3 YZ  -0.000138   0.008174  -0.004248   0.005075   0.013327
   70  C   3 XX  -0.049214   0.000083  -0.010970   0.013514   0.002712
   71  C   3 YY   0.022146   0.004488   0.045617  -0.036430  -0.023103
   72  C   3 ZZ   0.027067  -0.004572  -0.034647   0.022915   0.020390
   73  C   3 XY   0.012218   0.051439  -0.010081   0.000875   0.021000
   74  C   3 XZ  -0.010774  -0.006007   0.027266  -0.036170   0.029941
   75  C   3 YZ  -0.017854  -0.030432   0.007937  -0.006382  -0.051911
   76  H   4  S  -0.154963   0.168561  -0.169674  -0.196733  -0.169042
   77  H   4  S  -0.112620   0.199326  -0.191726  -0.289661  -0.284083
   78  H   4  S  -0.016061   0.021930  -0.010992  -0.012340  -0.001251
   79  H   4  X  -0.006774   0.001072  -0.006500  -0.005997   0.000070
   80  H   4  Y   0.006133  -0.003875  -0.007811  -0.004052   0.002649
   81  H   4  Z   0.003261  -0.006836   0.002852   0.002466   0.008585
   82  H   4  X  -0.020588   0.035568  -0.021740  -0.046950  -0.052154
   83  H   4  Y   0.007320   0.006109   0.007821   0.013478  -0.002108
   84  H   4  Z   0.005134  -0.018230   0.027462   0.039923   0.039056
   85  H   5  S   0.028554  -0.185629  -0.052375  -0.023356   0.269048
   86  H   5  S   0.129069  -0.218658  -0.091692  -0.060158   0.322173
   87  H   5  S   0.004522  -0.010870  -0.003634  -0.010738   0.030743
   88  H   5  X   0.004057   0.000552   0.005173   0.004688  -0.004331
   89  H   5  Y   0.003597  -0.002330  -0.008641  -0.005470  -0.002326
   90  H   5  Z  -0.004376   0.008120  -0.002503  -0.003853  -0.006862
   91  H   5  X  -0.025029   0.021787   0.009929   0.008416  -0.051574
   92  H   5  Y  -0.010041  -0.002774   0.015184   0.006504  -0.009740
   93  H   5  Z  -0.010523   0.026238   0.015457   0.008356  -0.033236
   94  H   6  S  -0.094169   0.084214   0.277161   0.202425  -0.038313
   95  H   6  S  -0.012643   0.046178   0.301264   0.254806  -0.187425
   96  H   6  S   0.013650   0.006293   0.013910   0.016344  -0.028364
   97  H   6  X   0.003881  -0.007692   0.003024   0.003426   0.009227
   98  H   6  Y  -0.004888   0.001758   0.010058   0.006085  -0.001707
   99  H   6  Z  -0.005830   0.001017  -0.000390  -0.002980   0.001885
  100  H   6  X  -0.004394   0.008574  -0.001728  -0.004662  -0.007464
  101  H   6  Y  -0.003852  -0.002523   0.055427   0.049197  -0.047512
  102  H   6  Z   0.004925  -0.002353   0.004814   0.004635  -0.009087
  103  H   7  S  -0.000121  -0.030189   0.000204   0.109160  -0.000102
  104  H   7  S  -0.000549  -0.023539   0.001112   0.315354  -0.000608
  105  H   7  S   0.000283  -0.031253   0.000249   0.010699   0.000254
  106  H   7  X   0.002922   0.003363  -0.000059  -0.001307  -0.001395
  107  H   7  Y  -0.001716  -0.000264   0.000020  -0.003768   0.000851
  108  H   7  Z   0.006485  -0.001595  -0.000071  -0.000412  -0.003079
  109  H   7  X  -0.011706  -0.002527   0.013699  -0.005813  -0.000372
  110  H   7  Y   0.007183  -0.009279  -0.008440  -0.089230   0.000657
  111  H   7  Z  -0.025898  -0.001265   0.030752  -0.021416  -0.000976
  112  H   8  S   0.155203   0.171416   0.165949  -0.196549   0.170130
  113  H   8  S   0.113699   0.202010   0.186904  -0.289154   0.286665
  114  H   8  S   0.015897   0.022423   0.010711  -0.012284   0.001029
  115  H   8  X   0.005783   0.005004   0.007745  -0.006585   0.005630
  116  H   8  Y  -0.005440  -0.006013   0.007117  -0.003846  -0.005868
  117  H   8  Z  -0.005545   0.001461   0.000258   0.001166   0.003741
  118  H   8  X   0.016512   0.038559   0.031913  -0.057590   0.064155
  119  H   8  Y  -0.004704   0.004652  -0.013893   0.019617  -0.004510
  120  H   8  Z  -0.014855  -0.012521  -0.002963   0.016265  -0.014407
  121  H   9  S  -0.028786  -0.185384   0.055558  -0.025410  -0.267763
  122  H   9  S  -0.128799  -0.218764   0.094583  -0.064170  -0.320990
  123  H   9  S  -0.004633  -0.010920   0.003855  -0.011004  -0.030707
  124  H   9  X  -0.006477  -0.005924  -0.003589   0.004913  -0.001605
  125  H   9  Y  -0.002129   0.001505   0.007629  -0.005569   0.005808
  126  H   9  Z  -0.001074  -0.005904   0.005985  -0.003524  -0.005904
  127  H   9  X   0.011385  -0.004529   0.001504   0.000945   0.012998
  128  H   9  Y   0.018118   0.012598  -0.021862   0.011452   0.032456
  129  H   9  Z  -0.019362  -0.031596   0.009672  -0.008547  -0.051235
  130  H  10  S   0.093169   0.081014  -0.277461   0.204548   0.035955
  131  H  10  S   0.011263   0.042566  -0.300079   0.258036   0.183575
  132  H  10  S  -0.013619   0.005949  -0.013969   0.016218   0.028279
  133  H  10  X  -0.005907  -0.005690  -0.004092   0.005517  -0.004592
  134  H  10  Y   0.005946   0.000384  -0.009351   0.004887  -0.001133
  135  H  10  Z   0.001527   0.005614  -0.002414   0.001844   0.008297
  136  H  10  X   0.007136   0.006810  -0.005803   0.002677   0.007179
  137  H  10  Y   0.001893  -0.001984  -0.050406   0.045430   0.046742
  138  H  10  Z   0.001077  -0.005940  -0.021641   0.021439   0.009207
  139  F  11  S   0.000004   0.000172  -0.000011  -0.000590   0.000006
  140  F  11  S   0.000059  -0.002848   0.000005  -0.003400  -0.000021
  141  F  11  S   0.000005   0.006947   0.000179  -0.010673  -0.000203
  142  F  11  S  -0.000018   0.033699   0.000160  -0.016655  -0.000208
  143  F  11  X   0.159027  -0.105222   0.040458   0.260876  -0.110776
  144  F  11  Y  -0.093893   0.344501  -0.023367   0.254242   0.065192
  145  F  11  Z   0.350218   0.139612   0.086534  -0.050906  -0.245008
  146  F  11  X   0.105064  -0.065020   0.022093   0.169034  -0.079151
  147  F  11  Y  -0.062081   0.220673  -0.012752   0.175595   0.046481
  148  F  11  Z   0.231487   0.088350   0.047056  -0.030118  -0.174994
  149  F  11  X   0.016769  -0.024634   0.003267   0.052986  -0.025639
  150  F  11  Y  -0.009919   0.040559  -0.001846   0.041155   0.015066
  151  F  11  Z   0.037083   0.022038   0.006830  -0.013208  -0.056557
  152  F  11 XX  -0.004030   0.000964  -0.000720  -0.003735   0.001666
  153  F  11 YY  -0.000701  -0.000075   0.000182   0.002917   0.000247
  154  F  11 ZZ   0.004731  -0.000888   0.000538   0.000818  -0.001912
  155  F  11 XY   0.002067  -0.003985   0.000074  -0.001379  -0.000807
  156  F  11 XZ  -0.003891  -0.002956  -0.000752   0.002374   0.001633
  157  F  11 YZ   0.000792   0.002593  -0.000471   0.001059  -0.000232
  158  F  11 XX  -0.012571  -0.003339   0.000895  -0.005837   0.008609
  159  F  11 YY  -0.000215   0.001970   0.000165   0.003938   0.000972
  160  F  11 ZZ   0.012786   0.001370  -0.001059   0.001899  -0.009581
  161  F  11 XY   0.004497  -0.007523  -0.000462  -0.010653  -0.003881
  162  F  11 XZ  -0.012704   0.000020   0.000887   0.000677   0.008448
  163  F  11 YZ  -0.001549   0.003863  -0.000163   0.005789  -0.000713

                     16         17         18         19         20
                   -0.3370    -0.3317    -0.0116     0.0098     0.0100
                     A          A          A          A          A   
    1  C   1  S  -0.000471   0.000041   0.002756  -0.001768  -0.000442
    2  C   1  S   0.052001   0.039405  -0.079566  -0.074957   0.029788
    3  C   1  S   0.190679   0.128330  -0.398396  -0.181046   0.123859
    4  C   1  S  -0.029624  -0.214769  -1.187165  -0.550654  -0.369470
    5  C   1  X   0.004536   0.062243   0.031859  -0.017387  -0.017134
    6  C   1  Y   0.076825   0.169949   0.027122   0.013749  -0.074513
    7  C   1  Z  -0.262462  -0.076060  -0.067676  -0.067487  -0.026897
    8  C   1  X   0.039644  -0.027958   0.033057  -0.061545  -0.065292
    9  C   1  Y   0.102910   0.011918   0.037618   0.226801  -0.175243
   10  C   1  Z  -0.133710  -0.135736  -0.105100  -0.361038   0.017026
   11  C   1  X   0.018220   0.002260   0.065803  -0.248049   0.004229
   12  C   1  Y  -0.007335  -0.031489   0.013649   0.312738  -0.323159
   13  C   1  Z  -0.006548   0.037765  -0.070106  -0.543969   0.161533
   14  C   1 XX  -0.009805   0.002333   0.001627  -0.005212   0.000873
   15  C   1 YY   0.007921  -0.016417  -0.004962   0.003865  -0.002068
   16  C   1 ZZ   0.001885   0.014084   0.003335   0.001347   0.001195
   17  C   1 XY   0.003397  -0.000319   0.000327   0.001003   0.000258
   18  C   1 XZ  -0.004477   0.007306   0.000541  -0.004264  -0.001722
   19  C   1 YZ  -0.008145  -0.003074   0.004211  -0.004594   0.007302
   20  C   1 XX   0.005505  -0.023183  -0.000198  -0.039369   0.010594
   21  C   1 YY  -0.000604   0.006327  -0.000483   0.005762   0.006653
   22  C   1 ZZ  -0.004901   0.016856   0.000681   0.033607  -0.017247
   23  C   1 XY   0.003009  -0.018765  -0.012179   0.002912  -0.019069
   24  C   1 XZ   0.004269   0.005065   0.002082  -0.027194   0.008707
   25  C   1 YZ  -0.010649   0.006662  -0.010181  -0.074364   0.016956
   26  C   2  S   0.000001   0.001450   0.000937  -0.000079  -0.004637
   27  C   2  S  -0.000072   0.018681  -0.018208  -0.000849  -0.067238
   28  C   2  S  -0.000650   0.110040  -0.124091  -0.000121  -0.086769
   29  C   2  S  -0.002268   0.507250  -0.467593   0.004529   0.810098
   30  C   2  X   0.126722  -0.102894   0.005585   0.026144   0.023672
   31  C   2  Y  -0.073013  -0.300371  -0.100657  -0.016270  -0.087685
   32  C   2  Z   0.278935  -0.031749  -0.029286   0.056457  -0.034867
   33  C   2  X  -0.002890   0.043560   0.001088  -0.187185  -0.006300
   34  C   2  Y   0.001269   0.088503  -0.122675   0.105944  -0.179707
   35  C   2  Z  -0.005848   0.004352  -0.034135  -0.412138  -0.039823
   36  C   2  X   0.019142  -0.079723  -0.086609  -0.373318  -0.597249
   37  C   2  Y  -0.010387  -0.103797  -0.191162   0.198249  -1.333561
   38  C   2  Z   0.041142   0.009073  -0.010887  -0.811101  -0.068695
   39  C   2 XX  -0.018408   0.013018  -0.001457   0.003238  -0.003085
   40  C   2 YY   0.005279  -0.028021   0.002874  -0.003414   0.006821
   41  C   2 ZZ   0.013129   0.015003  -0.001417   0.000176  -0.003736
   42  C   2 XY   0.001102   0.009537  -0.000204   0.002371   0.003598
   43  C   2 XZ  -0.019982   0.007296  -0.000264   0.004257   0.000470
   44  C   2 YZ  -0.013153  -0.019876   0.001536   0.007565   0.001550
   45  C   2 XX   0.016090  -0.016912  -0.014390   0.061034  -0.014470
   46  C   2 YY  -0.010552   0.021671   0.003852  -0.022012  -0.013379
   47  C   2 ZZ  -0.005537  -0.004759   0.010538  -0.039022   0.027849
   48  C   2 XY   0.005060  -0.022298   0.007232   0.000669  -0.019194
   49  C   2 XZ   0.019147  -0.002367   0.020166   0.068500   0.021053
   50  C   2 YZ   0.023356   0.019752  -0.008005   0.053363  -0.007360
   51  C   3  S   0.000447   0.000035   0.002768   0.001773  -0.000479
   52  C   3  S  -0.052370   0.038944  -0.079520   0.075712   0.028023
   53  C   3  S  -0.191883   0.127495  -0.398944   0.183432   0.118958
   54  C   3  S   0.031494  -0.213732  -1.182852   0.546961  -0.371713
   55  C   3  X  -0.205078   0.126909   0.074661  -0.038784  -0.005755
   56  C   3  Y   0.039077   0.131300   0.002060   0.017292  -0.081104
   57  C   3  Z  -0.178195   0.067741   0.027096  -0.056523  -0.002149
   58  C   3  X  -0.141599   0.079164   0.103678  -0.260824  -0.085381
   59  C   3  Y  -0.042997  -0.051564  -0.005327  -0.042584  -0.159264
   60  C   3  Z  -0.091302   0.101160   0.050762  -0.345497  -0.027986
   61  C   3  X  -0.015335  -0.030895   0.096759  -0.282146  -0.164986
   62  C   3  Y   0.005708  -0.011917  -0.005531  -0.006432  -0.220018
   63  C   3  Z   0.012782  -0.035955   0.000738  -0.620671  -0.209489
   64  C   3 XX  -0.003147   0.002019   0.000880  -0.003256   0.000839
   65  C   3 YY  -0.001276  -0.011407  -0.000377   0.000274   0.003098
   66  C   3 ZZ   0.004423   0.009388  -0.000502   0.002983  -0.003937
   67  C   3 XY  -0.005354  -0.005050  -0.003896  -0.002195  -0.004778
   68  C   3 XZ  -0.010317   0.005844  -0.001373  -0.005416  -0.003144
   69  C   3 YZ  -0.006988  -0.013125  -0.005085  -0.004886  -0.003069
   70  C   3 XX   0.000774  -0.011243  -0.002244  -0.040242  -0.018184
   71  C   3 YY   0.006112   0.005878  -0.009602   0.041702   0.007829
   72  C   3 ZZ  -0.006886   0.005365   0.011846  -0.001459   0.010356
   73  C   3 XY  -0.010855  -0.023317  -0.002138  -0.022995  -0.010889
   74  C   3 XZ  -0.000162   0.016027   0.002870  -0.066283  -0.020756
   75  C   3 YZ  -0.000170   0.008336   0.008933  -0.033087   0.007898
   76  H   4  S  -0.086084  -0.029951  -0.000735  -0.003919   0.008911
   77  H   4  S  -0.023984   0.007447   0.303866   0.198363  -0.118145
   78  H   4  S   0.016674  -0.011748   0.668864   0.790838  -0.219709
   79  H   4  X  -0.004633   0.000880  -0.008088  -0.005789  -0.000035
   80  H   4  Y   0.003090   0.006142   0.003715   0.000745   0.000128
   81  H   4  Z  -0.005774  -0.001075   0.002857   0.004737  -0.001437
   82  H   4  X   0.004339   0.006564   0.005033   0.031893   0.000381
   83  H   4  Y  -0.000377  -0.007060   0.012016  -0.005222   0.035066
   84  H   4  Z  -0.001910  -0.002891  -0.016605   0.018044   0.040565
   85  H   5  S  -0.112921   0.071311   0.013490  -0.023697  -0.006983
   86  H   5  S  -0.145262   0.161824   0.250475   0.449504  -0.004403
   87  H   5  S  -0.024637   0.010129   0.374475   1.445664   0.171614
   88  H   5  X   0.004705  -0.000005   0.005910   0.004722   0.000684
   89  H   5  Y   0.002263   0.005969   0.002808   0.000479  -0.000087
   90  H   5  Z  -0.002214  -0.004959   0.001826   0.004699  -0.000626
   91  H   5  X   0.020354  -0.023785  -0.012041  -0.045803  -0.001528
   92  H   5  Y   0.002594   0.001832   0.016709  -0.010483   0.053350
   93  H   5  Z   0.024786  -0.030395  -0.000125  -0.014856   0.000163
   94  H   6  S   0.025944  -0.142303  -0.014087   0.016084   0.006532
   95  H   6  S   0.069527  -0.221002   0.216032   0.331148  -0.306194
   96  H   6  S  -0.010238  -0.028474   0.197788   0.717682  -1.397179
   97  H   6  X  -0.000299   0.001884   0.000510  -0.000461   0.000452
   98  H   6  Y   0.003244  -0.002027  -0.004678  -0.005205   0.006915
   99  H   6  Z  -0.007648  -0.001420  -0.004654  -0.000929  -0.001652
  100  H   6  X   0.000560  -0.005780  -0.014655   0.018061   0.005239
  101  H   6  Y   0.018128  -0.047060   0.017580   0.030019  -0.005106
  102  H   6  Z  -0.002212   0.002308  -0.011404   0.040015   0.016091
  103  H   7  S   0.001248  -0.311014  -0.018051   0.000428   0.032504
  104  H   7  S   0.001817  -0.469985   0.241292   0.005587   0.319923
  105  H   7  S  -0.000361   0.038116   0.556432   0.035967   2.797760
  106  H   7  X   0.003799  -0.001268   0.000343   0.002643   0.001990
  107  H   7  Y  -0.002269   0.008473   0.006371  -0.001442   0.008731
  108  H   7  Z   0.008376   0.002884   0.001542   0.005804   0.001338
  109  H   7  X   0.002128   0.018029  -0.028430   0.042106   0.024244
  110  H   7  Y  -0.001676   0.082786  -0.005949  -0.024350   0.045812
  111  H   7  Z   0.005083   0.013985   0.011249   0.092226  -0.000250
  112  H   8  S   0.085598  -0.030777  -0.000905   0.004031   0.008866
  113  H   8  S   0.023117   0.005123   0.305339  -0.201391  -0.118889
  114  H   8  S  -0.016522  -0.011527   0.666537  -0.795161  -0.212586
  115  H   8  X  -0.001605   0.002452  -0.006821   0.007159   0.000873
  116  H   8  Y   0.000540   0.005188   0.002897  -0.001476  -0.000474
  117  H   8  Z  -0.007880   0.002504   0.005681  -0.001732   0.000938
  118  H   8  X  -0.004318   0.004723   0.018342  -0.008196  -0.023065
  119  H   8  Y   0.000366  -0.006103   0.004481  -0.007705   0.048876
  120  H   8  Z   0.002240  -0.005918   0.010687   0.034819  -0.009389
  121  H   9  S   0.112908   0.072928   0.013532   0.023527  -0.007512
  122  H   9  S   0.144309   0.164385   0.251047  -0.452121   0.006216
  123  H   9  S   0.024749   0.010454   0.379478  -1.447299   0.217620
  124  H   9  X  -0.005243   0.004622   0.003205   0.000105   0.000898
  125  H   9  Y  -0.002053   0.003190   0.004430  -0.003324  -0.000107
  126  H   9  Z   0.001110   0.005305  -0.004048   0.005816  -0.000307
  127  H   9  X   0.003325   0.005829  -0.004673   0.021998   0.008480
  128  H   9  Y  -0.016416  -0.015831   0.012335   0.026322   0.046873
  129  H   9  Z   0.027024   0.035303   0.015598  -0.036196   0.024010
  130  H  10  S  -0.024795  -0.141701  -0.014013  -0.015835   0.006870
  131  H  10  S  -0.067153  -0.220409   0.211748  -0.337918  -0.295795
  132  H  10  S   0.010427  -0.028443   0.195324  -0.748415  -1.375669
  133  H  10  X  -0.005845   0.001878   0.002799   0.000687   0.002734
  134  H  10  Y   0.000367  -0.002001  -0.005997   0.005233   0.005408
  135  H  10  Z  -0.005898  -0.001464   0.000319   0.001434   0.003474
  136  H  10  X  -0.005286  -0.014402   0.001448   0.010806  -0.008502
  137  H  10  Y  -0.014760  -0.041940   0.006916  -0.046737   0.005284
  138  H  10  Z  -0.008245  -0.016886   0.023600   0.022778  -0.015040
  139  F  11  S  -0.000004   0.000644  -0.001400  -0.000012  -0.000562
  140  F  11  S   0.000006   0.002469  -0.027102  -0.000111  -0.006101
  141  F  11  S   0.000111  -0.002768  -0.056931  -0.000092  -0.008581
  142  F  11  S   0.000380  -0.046346   0.141405  -0.000227  -0.096561
  143  F  11  X  -0.180551   0.121773   0.007476  -0.017330  -0.007573
  144  F  11  Y   0.103934   0.394235   0.026356   0.009963  -0.014005
  145  F  11  Z  -0.397472   0.047721   0.003566  -0.038155   0.000269
  146  F  11  X  -0.118435   0.085207   0.003933  -0.010464  -0.000319
  147  F  11  Y   0.068155   0.256108   0.019868   0.006102  -0.006529
  148  F  11  Z  -0.260633   0.028248   0.003497  -0.023163  -0.001200
  149  F  11  X  -0.036264   0.030684  -0.050309   0.021100   0.033733
  150  F  11  Y   0.020775   0.087643   0.035736  -0.010827   0.131172
  151  F  11  Z  -0.079582   0.008987   0.032159   0.047030   0.018581
  152  F  11 XX   0.001081  -0.000582   0.000116   0.000144   0.000389
  153  F  11 YY   0.000136   0.000190  -0.000111  -0.000076  -0.000143
  154  F  11 ZZ  -0.001216   0.000392  -0.000005  -0.000069  -0.000246
  155  F  11 XY  -0.000495  -0.001230   0.001064   0.000044   0.001771
  156  F  11 XZ   0.001053   0.000165   0.000368   0.000163   0.000300
  157  F  11 YZ  -0.000117   0.000509  -0.000601   0.000152  -0.000871
  158  F  11 XX   0.001706  -0.000819  -0.000864  -0.001645  -0.001287
  159  F  11 YY   0.001360  -0.001702   0.000928  -0.000348   0.001461
  160  F  11 ZZ  -0.003066   0.002521  -0.000064   0.001993  -0.000174
  161  F  11 XY  -0.001891  -0.001745   0.001543   0.000917  -0.000236
  162  F  11 XZ   0.001357   0.001720   0.001122  -0.001548   0.000622
  163  F  11 YZ  -0.002457  -0.000787  -0.000578   0.000520   0.000553

                     21         22         23         24         25
                    0.0212     0.0380     0.0430     0.0483     0.0526
                     A          A          A          A          A   
    1  C   1  S   0.001094   0.001258   0.001896  -0.000251  -0.000331
    2  C   1  S  -0.009823  -0.013294  -0.015734   0.005773  -0.007685
    3  C   1  S  -0.092898  -0.085455  -0.168856   0.040443  -0.006596
    4  C   1  S  -0.881833  -3.228663  -2.795073   0.692560  -4.981768
    5  C   1  X  -0.102740  -0.042569   0.085940   0.034073  -0.013673
    6  C   1  Y   0.038922  -0.076539   0.022779  -0.075224   0.016066
    7  C   1  Z   0.018701  -0.019905   0.019946  -0.041040   0.015821
    8  C   1  X  -0.215307  -0.092365   0.281946   0.048110  -0.092129
    9  C   1  Y   0.072371  -0.018278   0.230419  -0.204806   0.071685
   10  C   1  Z  -0.018667  -0.296662  -0.195232   0.005098  -0.064440
   11  C   1  X  -0.906734  -0.310874   1.554854   0.409096   0.669562
   12  C   1  Y   0.347169  -1.260488  -0.025265  -0.861644  -0.615044
   13  C   1  Z   0.398036   0.269163   1.136851  -0.855714   1.613141
   14  C   1 XX   0.001389  -0.006157  -0.002778  -0.003042  -0.012583
   15  C   1 YY  -0.002393  -0.001272  -0.001206   0.001650   0.011201
   16  C   1 ZZ   0.001004   0.007429   0.003984   0.001392   0.001382
   17  C   1 XY  -0.001669  -0.000501   0.003719   0.001602  -0.005764
   18  C   1 XZ   0.000486   0.003287  -0.000806   0.001167   0.015875
   19  C   1 YZ  -0.000074  -0.011833  -0.007126   0.005781  -0.003965
   20  C   1 XX  -0.022148  -0.010201  -0.054881   0.057806   0.004555
   21  C   1 YY  -0.003482   0.016377   0.001224  -0.010542  -0.020100
   22  C   1 ZZ   0.025630  -0.006176   0.053657  -0.047264   0.015544
   23  C   1 XY   0.026178  -0.003475  -0.027907  -0.017004  -0.114848
   24  C   1 XZ  -0.008433   0.004756  -0.005051   0.003182   0.049445
   25  C   1 YZ   0.013466  -0.075963  -0.061252  -0.006129  -0.017546
   26  C   2  S   0.001414   0.007388   0.000004   0.000011  -0.000165
   27  C   2  S  -0.009884   0.078441  -0.000252   0.000168  -0.048697
   28  C   2  S  -0.088776   0.056413  -0.000411   0.000127  -0.047763
   29  C   2  S   0.847337   7.146027   0.012808  -0.015639   9.580002
   30  C   2  X  -0.013036  -0.041250   0.020052  -0.008454  -0.199949
   31  C   2  Y  -0.019898   0.038431  -0.012411   0.005079  -0.002147
   32  C   2  Z   0.000613   0.029082   0.046598  -0.017805   0.089619
   33  C   2  X  -0.021779   0.176176  -0.127594   0.045581  -0.107380
   34  C   2  Y   0.025311   0.368872   0.076961  -0.026891   0.368000
   35  C   2  Z   0.017631   0.015455  -0.280009   0.102801   0.144270
   36  C   2  X   0.060559  -0.674807   0.198262   0.102498  -3.331777
   37  C   2  Y  -0.754549   0.180913  -0.119376  -0.049116  -2.282705
   38  C   2  Z  -0.236139   0.361755   0.452456   0.226180   0.896084
   39  C   2 XX   0.005340   0.002687   0.005161   0.001601   0.014292
   40  C   2 YY  -0.000992   0.005448  -0.001473   0.002471  -0.007498
   41  C   2 ZZ  -0.004347  -0.008135  -0.003688  -0.004072  -0.006794
   42  C   2 XY   0.003691   0.002923  -0.000356  -0.003008  -0.007595
   43  C   2 XZ  -0.005150  -0.006765   0.005476   0.000885  -0.017303
   44  C   2 YZ  -0.000006   0.003989   0.003709  -0.004754   0.005709
   45  C   2 XX   0.015053  -0.023440   0.044554  -0.002934  -0.121163
   46  C   2 YY  -0.020874   0.093497  -0.023660   0.019271   0.089213
   47  C   2 ZZ   0.005821  -0.070057  -0.020894  -0.016337   0.031950
   48  C   2 XY  -0.015554  -0.001636   0.008133  -0.017530  -0.106669
   49  C   2 XZ  -0.011630  -0.039079   0.051187  -0.008247   0.056780
   50  C   2 YZ  -0.000190   0.060122   0.055173  -0.039335   0.063592
   51  C   3  S   0.001119   0.001220  -0.001917   0.000256  -0.000297
   52  C   3  S  -0.009768  -0.013248   0.015688  -0.005907  -0.007790
   53  C   3  S  -0.093446  -0.083641   0.169400  -0.041512  -0.009512
   54  C   3  S  -0.907738  -3.191569   2.783910  -0.674957  -5.000827
   55  C   3  X  -0.075533  -0.028858  -0.048657  -0.038286  -0.017077
   56  C   3  Y   0.022577  -0.084907  -0.044168   0.077220   0.018779
   57  C   3  Z   0.078667   0.009234   0.063071   0.032202   0.006877
   58  C   3  X  -0.116657   0.141525  -0.371605   0.009570  -0.005387
   59  C   3  Y   0.016669  -0.160362  -0.177438   0.170574   0.018423
   60  C   3  Z   0.194011   0.223971  -0.005500   0.122333   0.130915
   61  C   3  X  -0.834677  -0.630941  -0.239894  -0.717016  -0.813602
   62  C   3  Y   0.302405  -1.076371  -0.746868   1.038624   0.246132
   63  C   3  Z   0.552491  -0.445832   1.755328   0.169054  -1.656982
   64  C   3 XX   0.000324   0.000756  -0.003984   0.002568  -0.018360
   65  C   3 YY  -0.002200  -0.007179   0.003977  -0.005760   0.006745
   66  C   3 ZZ   0.001876   0.006422   0.000006   0.003192   0.011616
   67  C   3 XY  -0.001469   0.002949  -0.004183   0.002570   0.000619
   68  C   3 XZ  -0.000694   0.011795  -0.006552  -0.000503   0.011436
   69  C   3 YZ  -0.000844   0.001300   0.000618   0.002611   0.004608
   70  C   3 XX   0.012199   0.005636  -0.014426   0.003366  -0.051982
   71  C   3 YY   0.015785  -0.037225   0.040720   0.022501  -0.051905
   72  C   3 ZZ  -0.027983   0.031589  -0.026294  -0.025866   0.103887
   73  C   3 XY  -0.005251   0.044306   0.010294  -0.015734  -0.065351
   74  C   3 XZ   0.021796   0.033884  -0.074330   0.054941  -0.002220
   75  C   3 YZ  -0.020296   0.034790  -0.032533  -0.009045   0.035387
   76  H   4  S   0.013583  -0.020553  -0.007766  -0.009407  -0.080041
   77  H   4  S  -0.184668   0.162986   0.612804  -0.006297  -0.203535
   78  H   4  S  -2.466409   0.433249   3.226052   3.637895  -0.838242
   79  H   4  X   0.004030   0.000423   0.000582  -0.002974   0.005456
   80  H   4  Y  -0.000885  -0.005781  -0.001400  -0.000693   0.005469
   81  H   4  Z  -0.002998   0.001242   0.004984   0.003772  -0.000759
   82  H   4  X   0.014017   0.068131   0.056122   0.025549   0.046553
   83  H   4  Y  -0.001194  -0.034551  -0.068450   0.040961  -0.058210
   84  H   4  Z   0.002870   0.058434  -0.048571   0.039882   0.053969
   85  H   5  S  -0.000487  -0.002756  -0.005913   0.001950   0.016567
   86  H   5  S   0.281472   0.450689  -0.006263  -0.095797   0.070103
   87  H   5  S   1.582798   2.586564  -4.003067   0.476372  -0.652132
   88  H   5  X   0.001445   0.001948  -0.003788   0.001909  -0.002750
   89  H   5  Y   0.002159  -0.005250  -0.003096   0.000369   0.000093
   90  H   5  Z   0.003993   0.005473   0.000166  -0.000614   0.005281
   91  H   5  X   0.009038  -0.089185  -0.035815  -0.046950  -0.027555
   92  H   5  Y  -0.040915  -0.027032   0.005156   0.072878   0.026702
   93  H   5  Z  -0.038973   0.018379  -0.024388   0.053404   0.030285
   94  H   6  S  -0.011728  -0.005134  -0.009804   0.018719   0.048500
   95  H   6  S   0.112530  -0.095800   0.446296  -0.286380   0.179001
   96  H   6  S   0.937592  -1.979793   1.584643  -4.552586   0.447288
   97  H   6  X  -0.003032  -0.001166   0.001990   0.000357   0.001019
   98  H   6  Y  -0.002049   0.004255  -0.001050   0.005584  -0.003230
   99  H   6  Z  -0.001345   0.005836   0.003375  -0.003581   0.001869
  100  H   6  X   0.060934   0.009075  -0.067590  -0.038296  -0.071991
  101  H   6  Y  -0.007340  -0.009103   0.060040  -0.030915  -0.048907
  102  H   6  Z   0.019595   0.045587   0.031950  -0.036021   0.065343
  103  H   7  S  -0.010257   0.020824  -0.000125  -0.000058  -0.025167
  104  H   7  S  -0.005841  -0.929284  -0.004500  -0.000160  -1.083941
  105  H   7  S   0.931317  -2.258827  -0.002614  -0.020239   2.575203
  106  H   7  X   0.002934  -0.002267   0.000118   0.000217  -0.017047
  107  H   7  Y   0.001828  -0.005318  -0.000081  -0.000197   0.004595
  108  H   7  Z  -0.000844  -0.000379   0.000466   0.000614   0.008960
  109  H   7  X   0.040117   0.001020   0.006353   0.012346   0.052087
  110  H   7  Y   0.037639   0.137880  -0.002441  -0.007707   0.229082
  111  H   7  Z  -0.007934   0.036651   0.014279   0.028180   0.037382
  112  H   8  S   0.013542  -0.020340   0.007237   0.009585  -0.080883
  113  H   8  S  -0.181515   0.154815  -0.612582   0.008192  -0.208045
  114  H   8  S  -2.468985   0.416252  -3.246940  -3.614232  -0.793462
  115  H   8  X   0.004743  -0.001656   0.003525   0.004804   0.005190
  116  H   8  Y  -0.001285  -0.004504  -0.000851  -0.000267   0.005651
  117  H   8  Z  -0.001536  -0.003388   0.003734   0.000315  -0.001224
  118  H   8  X   0.007185  -0.003583  -0.058940   0.003852  -0.018535
  119  H   8  Y   0.001969   0.008253   0.068825  -0.056761  -0.020398
  120  H   8  Z  -0.012307  -0.095026   0.041836   0.023443  -0.087534
  121  H   9  S  -0.000239  -0.002853   0.006011  -0.002452   0.016281
  122  H   9  S   0.279904   0.450432   0.006604   0.093479   0.073090
  123  H   9  S   1.559557   2.613409   3.994440  -0.486087  -0.683202
  124  H   9  X  -0.001479  -0.003536   0.003179  -0.001854  -0.005650
  125  H   9  Y   0.003853  -0.002017   0.003459  -0.000506   0.001732
  126  H   9  Z  -0.002358  -0.006667  -0.001255   0.000843  -0.000895
  127  H   9  X   0.026922  -0.078654   0.006350   0.056437  -0.035924
  128  H   9  Y  -0.050633  -0.033797   0.011679  -0.078261   0.031004
  129  H   9  Z  -0.001926   0.041559  -0.041656  -0.033625   0.015351
  130  H  10  S  -0.011938  -0.005005   0.010170  -0.018282   0.049073
  131  H  10  S   0.118140  -0.101453  -0.445371   0.288493   0.179515
  132  H  10  S   0.952907  -1.989930  -1.553837   4.557247   0.431593
  133  H  10  X  -0.001483  -0.004132   0.001212  -0.003768  -0.001330
  134  H  10  Y  -0.002955   0.005945  -0.000983  -0.003538  -0.001980
  135  H  10  Z   0.002040  -0.000703   0.003736  -0.004246  -0.003147
  136  H  10  X   0.025053  -0.027592   0.056921   0.006785  -0.104844
  137  H  10  Y   0.014599   0.012073  -0.053627   0.049967  -0.030596
  138  H  10  Z  -0.056435  -0.036791  -0.056545  -0.034582  -0.006295
  139  F  11  S  -0.001261   0.000122   0.000035  -0.000002   0.005406
  140  F  11  S  -0.016917   0.012560   0.000570   0.000043   0.107703
  141  F  11  S  -0.034028   0.037543   0.001191   0.000179   0.251640
  142  F  11  S  -0.002352  -0.420201   0.001371   0.002052   0.260719
  143  F  11  X  -0.045660   0.006903   0.004919   0.001515  -0.085869
  144  F  11  Y  -0.001036  -0.023919  -0.002683  -0.000500   0.066028
  145  F  11  Z   0.020326  -0.009526   0.011641   0.003791   0.056099
  146  F  11  X  -0.035557   0.014260   0.005868   0.000216  -0.096145
  147  F  11  Y  -0.002148  -0.017812  -0.003393   0.000046   0.064090
  148  F  11  Z   0.015449  -0.011187   0.013977   0.001115   0.060365
  149  F  11  X  -0.058506   0.105393  -0.001037  -0.066897   0.002580
  150  F  11  Y   0.004111  -0.074580   0.000962   0.039354   0.243527
  151  F  11  Z   0.027331  -0.067878  -0.002266  -0.147693   0.063240
  152  F  11 XX  -0.000231   0.000195  -0.000645  -0.000751  -0.000811
  153  F  11 YY   0.000293   0.000025  -0.000016   0.000077   0.000710
  154  F  11 ZZ  -0.000062  -0.000220   0.000661   0.000673   0.000101
  155  F  11 XY   0.000118  -0.000590   0.000242   0.000177   0.001784
  156  F  11 XZ   0.000142  -0.000539  -0.000639  -0.000782   0.001342
  157  F  11 YZ   0.000043   0.000439  -0.000053  -0.000263  -0.000843
  158  F  11 XX   0.000171   0.001979  -0.003670   0.003325  -0.001401
  159  F  11 YY   0.000926  -0.004235   0.000732  -0.000832   0.001082
  160  F  11 ZZ  -0.001097   0.002256   0.002938  -0.002492   0.000319
  161  F  11 XY   0.001175  -0.000159   0.000555  -0.000340  -0.006117
  162  F  11 XZ  -0.000424   0.000474  -0.003910   0.003604  -0.001415
  163  F  11 YZ   0.000148  -0.002143  -0.002022   0.002198   0.003413

                     26         27         28         29         30
                    0.0742     0.0829     0.0948     0.1015     0.1059
                     A          A          A          A          A   
    1  C   1  S  -0.011794  -0.015350   0.006560   0.021155  -0.005606
    2  C   1  S  -0.051661  -0.072481   0.083405   0.081211   0.056437
    3  C   1  S   0.381263   0.242958   0.032917  -0.678236   0.509332
    4  C   1  S   1.200724   8.550151   1.858900   0.634186   6.548232
    5  C   1  X   0.003072  -0.006507   0.010043  -0.033386   0.028633
    6  C   1  Y   0.000022   0.026124  -0.002101   0.056238  -0.001884
    7  C   1  Z  -0.028162  -0.045676  -0.001142   0.079859   0.044782
    8  C   1  X   0.085208  -0.166754  -0.049270  -0.010988   0.204677
    9  C   1  Y   0.151285  -0.199277   0.011923  -0.230286   0.554496
   10  C   1  Z  -0.178975   0.208370  -0.384609  -0.194122  -0.950410
   11  C   1  X   0.995510  -0.729772   0.496258   0.457036   1.111108
   12  C   1  Y   1.070119   0.080308  -0.614181  -0.815839   3.254254
   13  C   1  Z  -1.461672  -2.938922  -0.381598  -2.163895  -4.902384
   14  C   1 XX   0.006527   0.009970   0.002516  -0.003418   0.003991
   15  C   1 YY   0.005486  -0.000684  -0.011599   0.018764  -0.002854
   16  C   1 ZZ  -0.012013  -0.009286   0.009083  -0.015346  -0.001137
   17  C   1 XY  -0.009590   0.005598  -0.001731  -0.000048  -0.004958
   18  C   1 XZ   0.001260   0.021745  -0.004885   0.016178  -0.004616
   19  C   1 YZ   0.009997   0.012068  -0.012487  -0.009572   0.002923
   20  C   1 XX  -0.007286   0.080500  -0.118654  -0.073918  -0.142056
   21  C   1 YY  -0.019204   0.048374   0.113132   0.049409   0.005300
   22  C   1 ZZ   0.026490  -0.128874   0.005522   0.024509   0.136756
   23  C   1 XY   0.067954   0.002839  -0.022378  -0.047910  -0.009864
   24  C   1 XZ   0.018021  -0.079037   0.043850   0.014798  -0.007409
   25  C   1 YZ   0.005757   0.012669  -0.137170  -0.023124  -0.172825
   26  C   2  S  -0.000684  -0.013207  -0.000025   0.021616   0.000119
   27  C   2  S  -0.059897  -0.124103  -0.000362   0.037763   0.000526
   28  C   2  S  -0.433437   0.016088   0.000406  -0.824735  -0.003593
   29  C   2  S  -2.133404 -14.351949  -0.092877 -10.005821  -0.056476
   30  C   2  X   0.002682  -0.111599   0.012220  -0.120196  -0.048384
   31  C   2  Y   0.075831  -0.009730  -0.008080   0.192106   0.029866
   32  C   2  Z   0.019322   0.047536   0.031203   0.106245  -0.106288
   33  C   2  X   0.191536  -0.438888  -0.231587  -0.228468  -0.646246
   34  C   2  Y   0.276689  -0.204449   0.128690  -0.489839   0.374587
   35  C   2  Z  -0.011851   0.145496  -0.499372  -0.019705  -1.424878
   36  C   2  X  -1.112898   2.094032  -1.946222   0.252842  -2.762156
   37  C   2  Y  -0.498567   5.798359   1.200748   0.609010   1.617868
   38  C   2  Z   0.372452   0.605621  -4.339778   0.124338  -6.105722
   39  C   2 XX   0.008225   0.004233  -0.001237   0.023582   0.002667
   40  C   2 YY  -0.003472  -0.003220   0.003571  -0.031973  -0.000638
   41  C   2 ZZ  -0.004753  -0.001013  -0.002334   0.008391  -0.002028
   42  C   2 XY  -0.004272  -0.002465  -0.003246  -0.008505  -0.000411
   43  C   2 XZ  -0.010688  -0.004389  -0.002459  -0.011660   0.002793
   44  C   2 YZ   0.003879   0.001079  -0.007708  -0.007642   0.001361
   45  C   2 XX   0.083236  -0.025727   0.084613   0.039285   0.183511
   46  C   2 YY  -0.011568   0.065292   0.055300  -0.208737  -0.123577
   47  C   2 ZZ  -0.071668  -0.039566  -0.139913   0.169452  -0.059934
   48  C   2 XY  -0.105411   0.173299  -0.080868  -0.027103   0.056964
   49  C   2 XZ  -0.149483   0.055018   0.071698   0.092909   0.218698
   50  C   2 YZ   0.087981  -0.053729  -0.098704  -0.123366   0.272816
   51  C   3  S  -0.011897  -0.015316  -0.006556   0.021129   0.005803
   52  C   3  S  -0.052181  -0.071913  -0.083528   0.082120  -0.055847
   53  C   3  S   0.383574   0.243865  -0.035161  -0.674822  -0.516154
   54  C   3  S   1.216434   8.563909  -1.760883   0.780467  -6.538131
   55  C   3  X   0.021984   0.033430  -0.007502  -0.068466   0.012310
   56  C   3  Y  -0.011627   0.003233   0.000368   0.077260  -0.021181
   57  C   3  Z   0.013300   0.041157   0.007494   0.000936   0.046425
   58  C   3  X   0.209963  -0.297292  -0.247832   0.098335  -0.920726
   59  C   3  Y   0.089091  -0.130297   0.156199  -0.289758  -0.143004
   60  C   3  Z   0.107553  -0.082716  -0.260602   0.022224  -0.623970
   61  C   3  X   1.914978   1.616630  -0.492942   1.774182  -4.835649
   62  C   3  Y   0.569761  -1.327537   0.571490  -1.535010  -1.087280
   63  C   3  Z   0.579614   2.214732   0.413254   0.605344  -3.331505
   64  C   3 XX  -0.008423  -0.019706  -0.012189  -0.019784  -0.003371
   65  C   3 YY   0.006432   0.010465   0.016612   0.008025   0.002679
   66  C   3 ZZ   0.001991   0.009242  -0.004423   0.011758   0.000692
   67  C   3 XY  -0.005398   0.004482  -0.000015   0.015709   0.005195
   68  C   3 XZ  -0.014034  -0.011240  -0.005952   0.002156   0.005453
   69  C   3 YZ   0.006135  -0.015113   0.000740   0.009608  -0.002032
   70  C   3 XX   0.010821   0.034703   0.057993  -0.039572  -0.048786
   71  C   3 YY   0.012195   0.018718   0.003276   0.014652   0.092196
   72  C   3 ZZ  -0.023016  -0.053421  -0.061269   0.024920  -0.043410
   73  C   3 XY   0.027736   0.051534  -0.068570  -0.023920  -0.021959
   74  C   3 XZ   0.023627  -0.114171  -0.136982   0.062974  -0.210272
   75  C   3 YZ  -0.063958   0.072675  -0.104147   0.055701  -0.051741
   76  H   4  S   0.040659  -0.072630   0.002612  -0.050507   0.035775
   77  H   4  S  -0.155281  -0.829361   0.661963   0.932767   0.716519
   78  H   4  S   0.875752   0.043632   0.940737   2.128889   4.304598
   79  H   4  X  -0.007151  -0.012135   0.005088   0.014209   0.003703
   80  H   4  Y   0.011235   0.002630  -0.007291  -0.008111   0.003159
   81  H   4  Z  -0.006035  -0.004928  -0.001056  -0.011422  -0.003392
   82  H   4  X  -0.080910  -0.104666   0.135806   0.216947   0.156428
   83  H   4  Y   0.025818   0.092161  -0.033790   0.037957  -0.084477
   84  H   4  Z   0.116434  -0.004251  -0.060341  -0.228912  -0.052267
   85  H   5  S   0.004500   0.105782   0.011733   0.034500   0.022076
   86  H   5  S  -0.364879   0.223422   0.785154   0.836666   0.323605
   87  H   5  S   0.774439   1.866249   2.482135   1.334438   0.993976
   88  H   5  X   0.010982   0.007258  -0.010349  -0.008673  -0.006189
   89  H   5  Y   0.001391   0.006293  -0.013701  -0.004177  -0.001701
   90  H   5  Z   0.001003   0.003067  -0.001203  -0.006215  -0.007960
   91  H   5  X   0.035968   0.038752  -0.112489  -0.112189  -0.106207
   92  H   5  Y  -0.059440   0.062088   0.012674   0.071520  -0.078736
   93  H   5  Z   0.051937   0.044242  -0.151668  -0.114056  -0.028177
   94  H   6  S   0.046910   0.006091  -0.084721   0.015743  -0.002938
   95  H   6  S  -0.117741  -0.564995  -0.404809  -0.042748   0.236183
   96  H   6  S  -0.353296  -0.731879  -2.033955  -1.880074   3.431857
   97  H   6  X   0.005732  -0.010270   0.001062  -0.003207   0.004270
   98  H   6  Y  -0.003421  -0.008835   0.006849  -0.005571   0.003412
   99  H   6  Z  -0.010618  -0.003764   0.003464   0.002222  -0.001813
  100  H   6  X   0.071730  -0.018045   0.013947  -0.053599  -0.015415
  101  H   6  Y  -0.051496  -0.103013  -0.000771   0.013585   0.075953
  102  H   6  Z   0.074990  -0.174926  -0.073641   0.012160   0.085633
  103  H   7  S  -0.006177   0.002718  -0.000093  -0.041748  -0.000222
  104  H   7  S  -0.411633   0.288597   0.009330   2.296566   0.016303
  105  H   7  S  -2.205025  -4.792012  -0.011538   1.576949   0.012103
  106  H   7  X  -0.008766  -0.005560  -0.006641  -0.001654  -0.000969
  107  H   7  Y  -0.002916   0.010746   0.003886  -0.027613   0.000381
  108  H   7  Z   0.003089   0.005468  -0.014570  -0.006545  -0.002267
  109  H   7  X   0.107171  -0.084266   0.089893  -0.135640  -0.022621
  110  H   7  Y   0.072065  -0.085138  -0.056198  -0.600423   0.008864
  111  H   7  Z  -0.028061   0.013445   0.201944  -0.099038  -0.050156
  112  H   8  S   0.040120  -0.071936  -0.004104  -0.049332  -0.035767
  113  H   8  S  -0.179611  -0.819370  -0.662229   0.952191  -0.711122
  114  H   8  S   0.859444   0.035201  -0.928006   2.185174  -4.297337
  115  H   8  X   0.001476  -0.004215  -0.002840   0.016195  -0.005379
  116  H   8  Y   0.006206  -0.002267   0.005718  -0.009107  -0.002246
  117  H   8  Z   0.013290   0.012535   0.006068  -0.007037  -0.000644
  118  H   8  X  -0.138705  -0.049394  -0.125968   0.321356  -0.125439
  119  H   8  Y   0.058444   0.059635   0.028043  -0.018982   0.066260
  120  H   8  Z   0.003795   0.114717   0.079390  -0.011926   0.116476
  121  H   9  S   0.003859   0.105595  -0.010355   0.034205  -0.021457
  122  H   9  S  -0.379504   0.235667  -0.778221   0.835345  -0.310953
  123  H   9  S   0.756750   1.902022  -2.472451   1.377541  -0.962561
  124  H   9  X   0.006960   0.003889   0.008680  -0.002176  -0.001185
  125  H   9  Y   0.003966   0.008070   0.014641  -0.008229   0.005933
  126  H   9  Z  -0.007753  -0.004246  -0.002257   0.008084  -0.008056
  127  H   9  X  -0.024554   0.005875  -0.034549   0.019345   0.066767
  128  H   9  Y  -0.022284   0.079106   0.075723  -0.007808   0.102859
  129  H   9  Z  -0.082177  -0.023922  -0.171071   0.174387  -0.055615
  130  H  10  S   0.048692   0.004775   0.084052   0.015336   0.002761
  131  H  10  S  -0.082048  -0.586044   0.397963  -0.058338  -0.242685
  132  H  10  S  -0.315997  -0.756199   2.010921  -1.859328  -3.455854
  133  H  10  X   0.010803  -0.005843   0.000253  -0.004656  -0.004842
  134  H  10  Y  -0.006245  -0.011386  -0.007813  -0.004631  -0.003272
  135  H  10  Z   0.000498   0.005531  -0.000175  -0.001397   0.000626
  136  H  10  X  -0.014503   0.094559  -0.060026  -0.041112   0.056761
  137  H  10  Y   0.007341  -0.171793   0.028131   0.004440  -0.101654
  138  H  10  Z  -0.112176   0.068155  -0.029839   0.034925   0.005731
  139  F  11  S   0.000580   0.003852   0.000040   0.004781   0.000022
  140  F  11  S  -0.004396   0.065557   0.000637   0.056884   0.000145
  141  F  11  S  -0.032704   0.147932   0.001415   0.107808   0.000111
  142  F  11  S  -0.731747   1.490933   0.014182   1.063163   0.005404
  143  F  11  X  -0.045138  -0.084862   0.017057  -0.105624   0.001240
  144  F  11  Y   0.065184  -0.022701  -0.010837  -0.005101  -0.000904
  145  F  11  Z   0.037679   0.032330   0.040094   0.046507   0.003026
  146  F  11  X  -0.011952  -0.122962   0.004176  -0.105721   0.009708
  147  F  11  Y   0.039544  -0.001205  -0.003193  -0.005218  -0.005874
  148  F  11  Z   0.015673   0.055510   0.012293   0.046579   0.021873
  149  F  11  X   0.347795  -0.412991   0.172147  -0.268368   0.007887
  150  F  11  Y   0.177587  -0.232191  -0.106700   0.147601  -0.003682
  151  F  11  Z  -0.109929   0.125354   0.392073   0.159727   0.020762
  152  F  11 XX  -0.001024  -0.002147   0.000232  -0.001002   0.001665
  153  F  11 YY   0.000503   0.001561   0.000628  -0.000261   0.000405
  154  F  11 ZZ   0.000521   0.000586  -0.000860   0.001263  -0.002069
  155  F  11 XY  -0.000188   0.000489  -0.000691  -0.000911  -0.000973
  156  F  11 XZ   0.000958   0.002000   0.000102   0.001191   0.001583
  157  F  11 YZ  -0.000051  -0.000164  -0.001210  -0.000193  -0.000568
  158  F  11 XX  -0.007416   0.004090  -0.006958  -0.003843  -0.004809
  159  F  11 YY   0.003216  -0.005966   0.000487   0.005541   0.003104
  160  F  11 ZZ   0.004200   0.001876   0.006471  -0.001698   0.001705
  161  F  11 XY  -0.005785   0.007419   0.001946  -0.006924  -0.001460
  162  F  11 XZ   0.005478   0.001974  -0.007236  -0.001756  -0.005695
  163  F  11 YZ   0.001761  -0.006420  -0.002187   0.006061  -0.006836

                     31         32         33         34         35
                    0.1080     0.1180     0.1233     0.1267     0.1327
                     A          A          A          A          A   
    1  C   1  S   0.018603  -0.017014  -0.000969  -0.008202  -0.002285
    2  C   1  S   0.114493  -0.079913   0.020417  -0.046519   0.036672
    3  C   1  S  -0.470467   0.416645   0.052771   0.117024   0.353784
    4  C   1  S   1.587772   4.167497   5.644424   6.205111  -8.493371
    5  C   1  X  -0.080794  -0.128656  -0.004434  -0.106320   0.084310
    6  C   1  Y  -0.093160   0.036555  -0.057662   0.010314   0.082970
    7  C   1  Z   0.008816   0.001966  -0.010581  -0.104998   0.015417
    8  C   1  X   0.372965   0.478177  -0.145932   0.625599  -0.011790
    9  C   1  Y   0.589609  -0.227181   0.608692  -0.313756   0.045256
   10  C   1  Z  -0.394462   0.116624   0.314509   0.590200  -0.994059
   11  C   1  X   1.081497   2.508937   0.388682   5.197365   0.474965
   12  C   1  Y   1.189636  -1.596668   4.953671   1.529905  -3.961620
   13  C   1  Z  -1.983071  -0.531617   1.182924   0.310590  -0.329079
   14  C   1 XX  -0.004215  -0.001285  -0.009368   0.010181   0.006802
   15  C   1 YY  -0.006382   0.000099   0.007278  -0.005744  -0.007779
   16  C   1 ZZ   0.010597   0.001187   0.002090  -0.004437   0.000978
   17  C   1 XY  -0.001588  -0.006920   0.000951  -0.007734  -0.006093
   18  C   1 XZ   0.004709   0.017292   0.000735   0.002742  -0.027098
   19  C   1 YZ  -0.004363  -0.004482   0.003038   0.011702   0.000845
   20  C   1 XX  -0.018787  -0.018512   0.089646   0.092149  -0.196049
   21  C   1 YY  -0.041794   0.054749  -0.295911  -0.033470   0.173238
   22  C   1 ZZ   0.060581  -0.036237   0.206265  -0.058679   0.022811
   23  C   1 XY   0.061939   0.068677  -0.002318  -0.031039   0.090668
   24  C   1 XZ   0.044268   0.101012  -0.026613   0.325282  -0.044537
   25  C   1 YZ  -0.202980   0.025927   0.023171   0.150352  -0.102663
   26  C   2  S   0.016905  -0.013769  -0.000139  -0.000134   0.007480
   27  C   2  S  -0.047987  -0.041389   0.000089  -0.000256  -0.033969
   28  C   2  S  -0.899044   0.285897   0.005672   0.003447  -0.290859
   29  C   2  S  -8.931545  -1.812576   0.044356  -0.122650  19.139687
   30  C   2  X  -0.037773  -0.122379  -0.003106  -0.017077   0.143142
   31  C   2  Y  -0.078578  -0.056316   0.002944   0.010222  -0.100154
   32  C   2  Z  -0.004086   0.040449  -0.010031  -0.039002  -0.091494
   33  C   2  X   0.202784   0.026308  -0.062040   0.356174   0.727460
   34  C   2  Y   0.359617  -0.158642   0.032139  -0.217396   1.351155
   35  C   2  Z  -0.000182  -0.052924  -0.137925   0.786299   0.054455
   36  C   2  X   1.633466   0.451105  -2.878034  -2.149651  -3.922164
   37  C   2  Y   5.214519   2.260378   1.617283   1.318486   1.533816
   38  C   2  Z   0.624451   0.442032  -6.274445  -4.820711   2.112872
   39  C   2 XX   0.000736   0.023616   0.002701  -0.013011  -0.015920
   40  C   2 YY   0.012242  -0.009613   0.001560   0.005567   0.005229
   41  C   2 ZZ  -0.012978  -0.014003  -0.004261   0.007445   0.010691
   42  C   2 XY   0.005054  -0.000586  -0.002317  -0.000940  -0.003416
   43  C   2 XZ  -0.008373  -0.025693   0.002427  -0.014655   0.016613
   44  C   2 YZ   0.006965   0.005144  -0.002785  -0.013220  -0.002547
   45  C   2 XX  -0.014762   0.105341  -0.045382  -0.081422  -0.035142
   46  C   2 YY   0.179065  -0.016652  -0.053189   0.082052   0.335430
   47  C   2 ZZ  -0.164302  -0.088689   0.098571  -0.000630  -0.300288
   48  C   2 XY   0.109748   0.038379   0.064950  -0.051484  -0.027736
   49  C   2 XZ  -0.071597  -0.118193  -0.029722  -0.099964  -0.227254
   50  C   2 YZ   0.070353   0.020772   0.097936  -0.176939   0.247996
   51  C   3  S   0.018619  -0.017038   0.000948   0.008118  -0.002058
   52  C   3  S   0.114173  -0.079887  -0.020824   0.046005   0.038338
   53  C   3  S  -0.472498   0.416256  -0.051732  -0.116366   0.352523
   54  C   3  S   1.542711   4.205926  -5.688810  -6.060209  -8.762513
   55  C   3  X  -0.078414  -0.081791   0.005785  -0.007196   0.059547
   56  C   3  Y  -0.094811   0.007598   0.056823   0.056613   0.096620
   57  C   3  Z   0.013873   0.106676   0.016314  -0.136158  -0.033995
   58  C   3  X   0.643525   0.203072   0.208380   0.052013   0.731313
   59  C   3  Y   0.424034  -0.054797  -0.639412  -0.087113  -0.369033
   60  C   3  Z   0.199175  -0.506046  -0.192571   0.900594   0.612743
   61  C   3  X   2.337788   1.798102  -0.320117  -3.539727  -0.221391
   62  C   3  Y   0.436660  -1.106116  -4.923709  -2.496430  -3.586293
   63  C   3  Z   0.832543  -2.190314  -1.174913   3.240758  -1.854258
   64  C   3 XX  -0.000147  -0.014961   0.004241   0.004242   0.024425
   65  C   3 YY  -0.005943  -0.002272  -0.007914  -0.000131  -0.010966
   66  C   3 ZZ   0.006091   0.017232   0.003673  -0.004111  -0.013459
   67  C   3 XY  -0.003346  -0.000059   0.001620   0.009046  -0.008725
   68  C   3 XZ   0.008829   0.004218  -0.005968   0.013967  -0.008240
   69  C   3 YZ  -0.004590  -0.001803  -0.002195   0.003168   0.009136
   70  C   3 XX   0.042261  -0.101743  -0.155177   0.299130   0.014160
   71  C   3 YY  -0.125000   0.087276   0.184571  -0.101324   0.082601
   72  C   3 ZZ   0.082738   0.014466  -0.029394  -0.197806  -0.096760
   73  C   3 XY   0.126869   0.063820   0.129517   0.030433   0.105028
   74  C   3 XZ   0.132453   0.012148  -0.009063   0.102563   0.190179
   75  C   3 YZ  -0.016913  -0.053202   0.191874   0.178619   0.105311
   76  H   4  S  -0.011013   0.008371  -0.063828   0.055818   0.103435
   77  H   4  S   1.307866   0.733475  -1.269676   0.859023   0.923094
   78  H   4  S   2.386687   3.390152  -3.627961   4.316213   0.900189
   79  H   4  X   0.015893   0.008649  -0.000279   0.001998   0.000675
   80  H   4  Y  -0.004446  -0.002366   0.006027   0.004562   0.005708
   81  H   4  Z  -0.005816  -0.004441   0.006177  -0.005873  -0.005511
   82  H   4  X   0.281704   0.091015  -0.210168   0.089117   0.063506
   83  H   4  Y  -0.069909   0.020633   0.042817  -0.066691  -0.064451
   84  H   4  Z  -0.251116  -0.170315   0.032659  -0.072268   0.119440
   85  H   5  S  -0.017039   0.007782  -0.019769  -0.019955  -0.052151
   86  H   5  S  -0.043579  -1.184730  -0.642939  -2.357735   1.199234
   87  H   5  S   0.055425  -3.396117  -0.851613  -4.917184   2.965772
   88  H   5  X  -0.002940   0.016325  -0.005077   0.021748  -0.008659
   89  H   5  Y  -0.001131  -0.000167   0.002499   0.003061  -0.004860
   90  H   5  Z   0.000969   0.011369   0.008140   0.010691  -0.014069
   91  H   5  X  -0.018955   0.212304   0.104261   0.432204  -0.311584
   92  H   5  Y  -0.034493   0.055407   0.012772   0.137209  -0.142839
   93  H   5  Z   0.052909   0.222227  -0.009259   0.292386  -0.263162
   94  H   6  S   0.004093  -0.028573   0.065520  -0.005042  -0.044186
   95  H   6  S   1.561781  -0.874768   1.822849  -0.455540  -1.085862
   96  H   6  S   2.058425  -1.757109   7.097421   0.430527  -3.111085
   97  H   6  X  -0.000318   0.002917  -0.002269   0.005896   0.006345
   98  H   6  Y   0.019994  -0.015051   0.012746  -0.000222  -0.007200
   99  H   6  Z   0.012403   0.000198   0.003023  -0.007349  -0.001265
  100  H   6  X  -0.018130  -0.047776   0.032875  -0.072685   0.121777
  101  H   6  Y   0.415612  -0.136014   0.337815  -0.102099  -0.251029
  102  H   6  Z  -0.044497  -0.079763   0.147275  -0.056705   0.084127
  103  H   7  S   0.041625  -0.002249  -0.000083  -0.000062  -0.014829
  104  H   7  S  -0.340214   0.059577   0.004891   0.011916  -3.552507
  105  H   7  S  -6.136573  -0.557337   0.035714  -0.043296  -1.957963
  106  H   7  X  -0.000543  -0.001865   0.000622  -0.002064   0.004261
  107  H   7  Y   0.014715   0.007136  -0.000440   0.001236   0.026047
  108  H   7  Z   0.004146   0.002774   0.001282  -0.004873   0.004926
  109  H   7  X  -0.102507  -0.065290   0.013013  -0.014845   0.142557
  110  H   7  Y   0.134024  -0.040300  -0.007936   0.005038   0.787330
  111  H   7  Z   0.082124   0.017967   0.023561  -0.030787   0.144785
  112  H   8  S  -0.010998   0.008267   0.065513  -0.056141   0.102617
  113  H   8  S   1.326112   0.747803   1.272915  -0.855744   0.940210
  114  H   8  S   2.373986   3.426052   3.641391  -4.252818   0.915711
  115  H   8  X   0.014146   0.008675   0.003527  -0.006259   0.005736
  116  H   8  Y  -0.003242  -0.002233  -0.007684  -0.002020   0.002673
  117  H   8  Z  -0.010009  -0.004700   0.000703  -0.004149   0.004791
  118  H   8  X   0.362439   0.190657   0.156237  -0.095218  -0.051335
  119  H   8  Y  -0.113978  -0.035009  -0.010400   0.071278   0.004599
  120  H   8  Z  -0.087712   0.039409  -0.151623   0.047017  -0.142318
  121  H   9  S  -0.017106   0.007432   0.018197   0.020316  -0.051555
  122  H   9  S  -0.041965  -1.203930   0.614069   2.337019   1.240810
  123  H   9  S   0.044839  -3.437760   0.810465   4.889161   2.943142
  124  H   9  X  -0.002869   0.002813   0.008881  -0.007642   0.003141
  125  H   9  Y  -0.001098   0.007836  -0.004467  -0.011045  -0.011965
  126  H   9  Z   0.000996  -0.018225  -0.000180   0.020110   0.012158
  127  H   9  X  -0.056516  -0.004270  -0.079520  -0.109418  -0.052341
  128  H   9  Y  -0.013115   0.186033  -0.024180  -0.320004  -0.301003
  129  H   9  Z  -0.031058  -0.256142   0.059490   0.411236   0.316450
  130  H  10  S   0.003995  -0.028307  -0.065030   0.005368  -0.044760
  131  H  10  S   1.538557  -0.866042  -1.825090   0.456307  -1.047598
  132  H  10  S   2.035787  -1.745583  -7.097892  -0.440854  -3.102292
  133  H  10  X  -0.005402  -0.000928   0.001590  -0.009180   0.003636
  134  H  10  Y   0.022769  -0.012650  -0.012254   0.001848  -0.005418
  135  H  10  Z   0.001738  -0.008461  -0.005238   0.000426  -0.006697
  136  H  10  X   0.095447   0.000277   0.019077   0.027983  -0.024615
  137  H  10  Y   0.339413  -0.162064  -0.368766   0.123344  -0.155522
  138  H  10  Z   0.208954   0.021422  -0.035899  -0.034609  -0.236134
  139  F  11  S   0.001781   0.000952  -0.000046  -0.000034  -0.003851
  140  F  11  S   0.025157  -0.002638  -0.000521  -0.000311  -0.045353
  141  F  11  S   0.052795  -0.028109  -0.000867  -0.000283  -0.093781
  142  F  11  S   0.946623  -0.921662  -0.007507   0.003057  -1.136905
  143  F  11  X  -0.046932  -0.088947   0.036176  -0.012872   0.090641
  144  F  11  Y  -0.021457   0.023671  -0.020571   0.007333   0.009040
  145  F  11  Z   0.015619   0.046455   0.077831  -0.028724  -0.038625
  146  F  11  X  -0.076773  -0.023872   0.028232  -0.015173   0.064622
  147  F  11  Y  -0.011965  -0.004952  -0.015911   0.009002  -0.002956
  148  F  11  Z   0.031681   0.009393   0.059999  -0.034208  -0.030523
  149  F  11  X  -0.316923   0.291588   0.161601  -0.050325   0.547557
  150  F  11  Y  -0.348715  -0.037882  -0.088629   0.028050  -0.135271
  151  F  11  Z   0.051049  -0.142999   0.347870  -0.104056  -0.285051
  152  F  11 XX  -0.000747  -0.000388  -0.000188   0.000757  -0.000476
  153  F  11 YY   0.000795   0.000674  -0.000010   0.000579   0.001080
  154  F  11 ZZ  -0.000047  -0.000286   0.000199  -0.001336  -0.000604
  155  F  11 XY   0.000118   0.000401   0.000058  -0.000803  -0.000424
  156  F  11 XZ   0.000485   0.000181  -0.000210   0.000602  -0.000371
  157  F  11 YZ   0.000157   0.000099  -0.000043  -0.001027   0.000786
  158  F  11 XX   0.005395  -0.012973  -0.006527   0.001309   0.005018
  159  F  11 YY  -0.005351   0.007210  -0.001006   0.002541  -0.009008
  160  F  11 ZZ  -0.000045   0.005763   0.007533  -0.003850   0.003990
  161  F  11 XY   0.008608   0.010723   0.003144  -0.002891   0.007387
  162  F  11 XZ   0.000183   0.017013  -0.006140   0.000881   0.003189
  163  F  11 YZ  -0.006010  -0.006948   0.001312  -0.004665  -0.008398

                     36         37         38         39         40
                    0.1485     0.1498     0.1561     0.1710     0.1852
                     A          A          A          A          A   
    1  C   1  S   0.004319  -0.018567  -0.004846   0.002950  -0.001957
    2  C   1  S   0.025831  -0.109347   0.007846   0.016931  -0.015812
    3  C   1  S  -0.053784   0.379981   0.497022   0.043525   0.247140
    4  C   1  S  -2.859404  18.446598  -4.372728  -3.773355  17.068134
    5  C   1  X  -0.101124   0.163406   0.089611   0.098046   0.056794
    6  C   1  Y   0.163371   0.069680   0.063961  -0.160974   0.041424
    7  C   1  Z   0.050154  -0.002458   0.038211  -0.175605  -0.003636
    8  C   1  X   0.002925  -0.250676  -0.009848   0.063138   0.488614
    9  C   1  Y  -0.031241  -1.079502   0.608483  -0.015386  -0.051699
   10  C   1  Z   0.080171   1.393845  -0.437370  -0.053379   0.733783
   11  C   1  X   0.545229  -1.751855  -1.864063  -1.259932   1.121537
   12  C   1  Y  -0.687493   2.115236  -0.480893   0.647171   1.930848
   13  C   1  Z   0.214404  -4.677584   1.426008   1.840015  -4.430407
   14  C   1 XX  -0.023819   0.002331  -0.026324   0.035067  -0.014058
   15  C   1 YY   0.012493   0.008499   0.030547  -0.042278   0.024895
   16  C   1 ZZ   0.011327  -0.010830  -0.004224   0.007210  -0.010837
   17  C   1 XY   0.027526  -0.014098  -0.024627  -0.006629  -0.015656
   18  C   1 XZ  -0.006230  -0.022861   0.004079  -0.012193  -0.035838
   19  C   1 YZ   0.030297   0.018563  -0.000256  -0.001008   0.004195
   20  C   1 XX   0.246242   0.250317   0.070306  -0.047326   0.203898
   21  C   1 YY   0.079104  -0.003114   0.061179  -0.003760  -0.047253
   22  C   1 ZZ  -0.325347  -0.247204  -0.131485   0.051085  -0.156645
   23  C   1 XY  -0.294830   0.023669   0.252154   0.035661   0.281514
   24  C   1 XZ   0.142461   0.137024  -0.181437  -0.025689   0.006352
   25  C   1 YZ  -0.197117   0.352513  -0.250057   0.076220  -0.089333
   26  C   2  S  -0.012990  -0.000661   0.002079   0.000031   0.012860
   27  C   2  S  -0.039417  -0.000622  -0.104370   0.001163   0.127201
   28  C   2  S   0.390121   0.025218  -0.715471   0.003963   0.073814
   29  C   2  S   3.712951  -0.054474  13.042970   0.017559 -35.742912
   30  C   2  X   0.152188   0.024203  -0.229586  -0.021222   0.044142
   31  C   2  Y  -0.026838  -0.009971  -0.002188   0.013740   0.043069
   32  C   2  Z  -0.076645   0.029672   0.103300  -0.053959  -0.008583
   33  C   2  X   0.163655   0.885195   0.544029   0.035003  -0.985992
   34  C   2  Y  -0.351520  -0.558844   0.562852  -0.023967  -1.089313
   35  C   2  Z  -0.335972   1.934684  -0.088856   0.079632   0.153182
   36  C   2  X  -0.326837  -3.594503   1.549778   1.025298   4.048041
   37  C   2  Y  -0.294836   2.079208  -0.607107  -0.655136   8.236366
   38  C   2  Z   0.753635  -7.874197  -0.955425   2.343099   0.380049
   39  C   2 XX  -0.009764  -0.002036   0.029292   0.005471  -0.015010
   40  C   2 YY   0.000478   0.005009  -0.032654   0.017752  -0.018691
   41  C   2 ZZ   0.009287  -0.002973   0.003363  -0.023223   0.033701
   42  C   2 XY   0.008102  -0.003363  -0.041490  -0.018380  -0.006976
   43  C   2 XZ   0.017041  -0.001398  -0.032406   0.001602   0.032605
   44  C   2 YZ  -0.007643  -0.009969   0.011938  -0.033920  -0.018315
   45  C   2 XX  -0.373780  -0.302970   0.197508  -0.056785  -0.048574
   46  C   2 YY   0.308118   0.171422   0.370525  -0.049950   0.116340
   47  C   2 ZZ   0.065662   0.131547  -0.568032   0.106734  -0.067766
   48  C   2 XY   0.055073  -0.059103   0.214868   0.064097   0.170893
   49  C   2 XZ   0.345069  -0.301019  -0.476642  -0.037230   0.046120
   50  C   2 YZ   0.036273  -0.365986   0.270079   0.088960  -0.023873
   51  C   3  S   0.001912   0.019075  -0.004378  -0.002898  -0.001894
   52  C   3  S   0.012357   0.110748   0.009769  -0.017493  -0.015679
   53  C   3  S  -0.001198  -0.398094   0.478794  -0.049677   0.241945
   54  C   3  S  -0.458284 -18.442738  -4.646982   3.705031  17.126628
   55  C   3  X  -0.057908  -0.134541   0.040057  -0.164186   0.047365
   56  C   3  Y   0.152363  -0.078274   0.093460   0.195313   0.047760
   57  C   3  Z   0.106946   0.098289  -0.055792   0.039943  -0.020765
   58  C   3  X  -0.238978   1.325461   0.428961  -0.082098  -0.208631
   59  C   3  Y  -0.047588   0.427670   0.361275   0.013200   0.358539
   60  C   3  Z  -0.201536   1.035329   0.516218   0.015856  -0.786309
   61  C   3  X   0.459797  -2.466075  -2.390926   2.061243   4.270223
   62  C   3  Y  -0.376991   0.406280  -0.247330  -1.094193   0.108546
   63  C   3  Z  -0.236079  -4.807202   0.227750  -0.149745   2.538440
   64  C   3 XX   0.000048  -0.007744  -0.022392  -0.026682   0.014482
   65  C   3 YY   0.038527  -0.005032   0.016032   0.034878   0.010423
   66  C   3 ZZ  -0.038575   0.012776   0.006360  -0.008195  -0.024905
   67  C   3 XY  -0.007359   0.016383  -0.011330   0.010663  -0.011246
   68  C   3 XZ   0.007870   0.019333   0.012932   0.021914  -0.003401
   69  C   3 YZ  -0.014965  -0.019638   0.030530   0.015878   0.037684
   70  C   3 XX  -0.213631   0.175415   0.230374  -0.021547   0.085748
   71  C   3 YY  -0.149141  -0.236350  -0.084178  -0.059167  -0.028174
   72  C   3 ZZ   0.362772   0.060936  -0.146196   0.080714  -0.057574
   73  C   3 XY   0.094297   0.044967   0.343739   0.043375   0.307754
   74  C   3 XZ  -0.276747   0.343243   0.023052  -0.021134  -0.111961
   75  C   3 YZ   0.228356   0.185527   0.071646   0.045784  -0.136518
   76  H   4  S  -0.011109   0.059219  -0.064254   0.104458   0.064684
   77  H   4  S   0.294432  -1.977307  -0.475112   0.195925   0.301914
   78  H   4  S   1.416025  -2.190648  -0.983257  -3.700352   1.583219
   79  H   4  X   0.017640  -0.021693   0.002384  -0.017985   0.000151
   80  H   4  Y  -0.001183   0.015997   0.009776  -0.000145   0.007083
   81  H   4  Z   0.004475   0.017669   0.003264   0.000956   0.009091
   82  H   4  X   0.506034  -0.384441   0.061463  -0.288385   0.038772
   83  H   4  Y  -0.151675   0.210161   0.304608  -0.080781   0.427619
   84  H   4  Z   0.162582   0.379964   0.172725   0.174231   0.014064
   85  H   5  S  -0.027051  -0.034912  -0.047019   0.033794  -0.156595
   86  H   5  S  -0.204823  -1.772357   0.575844   0.131337  -1.828210
   87  H   5  S   0.120810   4.736214   1.402376  -0.689053  -0.295383
   88  H   5  X  -0.007938   0.000492  -0.012041   0.008346  -0.002634
   89  H   5  Y   0.018098   0.003226  -0.001945  -0.003687  -0.002370
   90  H   5  Z   0.002267  -0.008305  -0.001489  -0.005918   0.003768
   91  H   5  X  -0.187313   0.204724  -0.356390   0.220611   0.159495
   92  H   5  Y   0.398213   0.043226  -0.186904  -0.182743   0.091782
   93  H   5  Z   0.232317   0.103055  -0.051971  -0.028141   0.078047
   94  H   6  S   0.057328   0.024484   0.105704  -0.116987   0.087855
   95  H   6  S  -0.035261  -2.149392   0.566217   0.121150   0.476200
   96  H   6  S  -1.132562  -1.178753  -0.404866   3.452672   0.694486
   97  H   6  X  -0.010142   0.011229   0.007402   0.002689   0.006858
   98  H   6  Y  -0.004453  -0.023301  -0.004176   0.021423  -0.009764
   99  H   6  Z  -0.018138  -0.010956  -0.003057   0.001822   0.004677
  100  H   6  X  -0.307354   0.142208   0.207500   0.063980   0.286925
  101  H   6  Y  -0.310993  -0.506966  -0.113127   0.365188  -0.014620
  102  H   6  Z  -0.333093  -0.143089  -0.003960  -0.026979  -0.210835
  103  H   7  S  -0.022822  -0.000314  -0.062324   0.001138  -0.111485
  104  H   7  S  -0.522367   0.023536  -2.075622   0.006959   2.323535
  105  H   7  S  -1.077721  -0.021354  -1.628647   0.040589  -4.649697
  106  H   7  X   0.007610  -0.002473  -0.020287  -0.003407   0.010535
  107  H   7  Y  -0.001323   0.001415   0.001747   0.002142  -0.023694
  108  H   7  Z  -0.003120  -0.006819   0.009568  -0.008151  -0.011169
  109  H   7  X   0.057686  -0.047544  -0.374769  -0.141702  -0.122669
  110  H   7  Y   0.075038   0.022714   0.353624   0.085845  -0.827988
  111  H   7  Z   0.006206  -0.116151   0.259363  -0.324425  -0.167175
  112  H   8  S  -0.004493  -0.060591  -0.067149  -0.102882   0.063680
  113  H   8  S   0.031099   1.975970  -0.451884  -0.180552   0.294059
  114  H   8  S   1.192389   2.340672  -0.886987   3.705271   1.565774
  115  H   8  X   0.005661   0.024996   0.001712   0.012828  -0.005154
  116  H   8  Y   0.006247  -0.016984   0.010277   0.003017   0.010080
  117  H   8  Z  -0.013706  -0.013897   0.000075  -0.012325  -0.002394
  118  H   8  X   0.133636   0.507478  -0.013006   0.334762   0.097053
  119  H   8  Y   0.057845  -0.265202   0.353216   0.046100   0.397270
  120  H   8  Z  -0.488648  -0.204743  -0.020062  -0.077650   0.140741
  121  H   9  S  -0.028209   0.033847  -0.047648  -0.031749  -0.157028
  122  H   9  S  -0.437658   1.721343   0.593047  -0.124414  -1.836810
  123  H   9  S   0.576250  -4.740544   1.362127   0.681802  -0.287041
  124  H   9  X  -0.002477  -0.007207  -0.007682  -0.009010  -0.005042
  125  H   9  Y   0.015754   0.002376  -0.004626   0.004293  -0.000948
  126  H   9  Z   0.012118  -0.004644   0.008658   0.004067  -0.001161
  127  H   9  X  -0.205774  -0.093562  -0.243624  -0.134535   0.067322
  128  H   9  Y   0.430898  -0.065423  -0.253523   0.138174   0.147256
  129  H   9  Z   0.136846   0.197389   0.210102   0.215296  -0.117941
  130  H  10  S   0.058497  -0.019308   0.107490   0.114666   0.088623
  131  H  10  S  -0.311835   2.145085   0.592744  -0.144236   0.480304
  132  H  10  S  -1.150440   1.081392  -0.511448  -3.462435   0.714706
  133  H  10  X   0.006626  -0.010628   0.006235  -0.004509  -0.000438
  134  H  10  Y  -0.016078   0.021508  -0.003629  -0.020304  -0.005391
  135  H  10  Z   0.014373   0.013451  -0.005196  -0.005705  -0.011608
  136  H  10  X  -0.019226  -0.108192   0.117927  -0.133401   0.340844
  137  H  10  Y  -0.531768   0.429313  -0.059933  -0.331471  -0.046871
  138  H  10  Z   0.248954   0.274386  -0.188236  -0.118310  -0.086717
  139  F  11  S  -0.004820  -0.000238   0.003140  -0.000050   0.001391
  140  F  11  S  -0.034999  -0.001682   0.051268  -0.000771  -0.001809
  141  F  11  S  -0.007562   0.000091   0.113551  -0.001758  -0.038536
  142  F  11  S   0.150814   0.040596  -2.465816   0.013934   3.506781
  143  F  11  X   0.080437   0.002092  -0.204093  -0.025292   0.099203
  144  F  11  Y  -0.023336   0.000404   0.060790   0.015987  -0.062169
  145  F  11  Z  -0.042272  -0.010520   0.108158  -0.062079  -0.061756
  146  F  11  X   0.079482  -0.016920  -0.066532  -0.021140  -0.026609
  147  F  11  Y   0.023694   0.014036   0.020758   0.013434  -0.007132
  148  F  11  Z  -0.026017  -0.048748   0.035058  -0.049951   0.010268
  149  F  11  X  -0.212638  -0.014092   0.364340   0.161039  -0.860352
  150  F  11  Y   0.093056   0.006776  -0.302852  -0.094278  -0.008016
  151  F  11  Z   0.120494   0.019599  -0.241558   0.367642   0.388164
  152  F  11 XX   0.000981  -0.001290  -0.001122   0.001525   0.000581
  153  F  11 YY   0.000127   0.000716   0.001921   0.000134  -0.000750
  154  F  11 ZZ  -0.001108   0.000574  -0.000799  -0.001658   0.000169
  155  F  11 XY   0.000991  -0.000193   0.001709  -0.000660   0.001606
  156  F  11 XZ  -0.000927  -0.001654   0.000782   0.001507   0.000449
  157  F  11 YZ   0.000190  -0.001689  -0.000048  -0.000025  -0.001144
  158  F  11 XX  -0.007034   0.000226  -0.010588  -0.008985   0.014193
  159  F  11 YY   0.008179   0.002931   0.002602   0.003093  -0.016345
  160  F  11 ZZ  -0.001145  -0.003157   0.007986   0.005892   0.002152
  161  F  11 XY  -0.007909  -0.003274   0.015017  -0.000097  -0.014435
  162  F  11 XZ  -0.000204  -0.000307   0.018763  -0.010265  -0.013233
  163  F  11 YZ   0.007603  -0.004235  -0.011643  -0.007466   0.002607

                     41         42         43         44         45
                    0.2058     0.2205     0.2223     0.2517     0.2648
                     A          A          A          A          A   
    1  C   1  S  -0.010729  -0.017479  -0.002245  -0.029886   0.008589
    2  C   1  S  -0.032997  -0.058092   0.028403  -0.107165   0.099608
    3  C   1  S   0.141921   1.320680  -0.013039   1.038877   0.002116
    4  C   1  S   5.041831  10.868587  -6.206346   9.517816   9.358819
    5  C   1  X  -0.022045  -0.146306  -0.017276  -0.025399   0.024335
    6  C   1  Y  -0.044530   0.055045   0.034934  -0.189260   0.065454
    7  C   1  Z   0.143023  -0.154234  -0.032641   0.135478  -0.082562
    8  C   1  X  -0.253948  -0.582390  -0.354859   0.416829   0.337116
    9  C   1  Y   0.472358  -0.184876   0.685616   0.990902  -0.404160
   10  C   1  Z  -0.485251   0.015379  -0.139839  -1.221076   0.880050
   11  C   1  X   0.323801  -1.544200   0.845432   2.026236   0.161290
   12  C   1  Y   0.034292   1.692163  -0.794230   2.955914   1.286817
   13  C   1  Z  -2.896979  -3.884780   2.313688  -3.672197  -1.117759
   14  C   1 XX  -0.032639   0.022907   0.004426  -0.009151   0.014431
   15  C   1 YY  -0.000715  -0.008742   0.026760  -0.003193   0.015009
   16  C   1 ZZ   0.033353  -0.014166  -0.031186   0.012344  -0.029440
   17  C   1 XY   0.005038   0.029570   0.016598   0.030274   0.019600
   18  C   1 XZ   0.008816   0.033452   0.007515  -0.016630  -0.020239
   19  C   1 YZ  -0.024453   0.009685  -0.008769  -0.055685  -0.002462
   20  C   1 XX  -0.046244  -0.064847   0.057947  -0.420664  -0.064374
   21  C   1 YY   0.008539   0.037937  -0.355870   0.057970   0.066877
   22  C   1 ZZ   0.037706   0.026910   0.297923   0.362693  -0.002504
   23  C   1 XY   0.057459  -0.374724  -0.185765  -0.187464  -0.332117
   24  C   1 XZ  -0.247741  -0.241339  -0.066869   0.091316   0.100429
   25  C   1 YZ  -0.193825   0.185026   0.030686  -0.375767   0.532442
   26  C   2  S   0.032819   0.000264   0.002183   0.000208  -0.033266
   27  C   2  S   0.210172   0.002966   0.017116   0.001186  -0.159354
   28  C   2  S  -0.349324   0.006320  -0.003101  -0.002117   0.683858
   29  C   2  S  -9.211523   1.676914  12.818170   0.062779 -14.846934
   30  C   2  X   0.014981  -0.005072   0.181495   0.168165  -0.041074
   31  C   2  Y  -0.244100   0.036603   0.159478  -0.099016   0.067983
   32  C   2  Z  -0.071495  -0.072057  -0.028892   0.369692   0.039169
   33  C   2  X   0.729674   0.180904   0.877983  -0.831726  -0.446731
   34  C   2  Y  -0.223079   0.091591   1.014612   0.497138  -1.140349
   35  C   2  Z  -0.394976   0.108202  -0.142793  -1.840195  -0.095495
   36  C   2  X  -0.468407  -2.908588  -2.349614  -2.777687   2.474359
   37  C   2  Y   3.127746   1.366312  -1.088534   1.622534   2.215517
   38  C   2  Z   1.111475  -5.483800   1.705450  -6.099484  -0.544262
   39  C   2 XX   0.002141  -0.008432   0.027352   0.033722  -0.005871
   40  C   2 YY   0.010496   0.002579  -0.043847  -0.019473  -0.019809
   41  C   2 ZZ  -0.012638   0.005853   0.016495  -0.014249   0.025679
   42  C   2 XY  -0.014239  -0.004364  -0.001956   0.008040  -0.014770
   43  C   2 XZ  -0.016843  -0.014440  -0.001867   0.039227   0.017550
   44  C   2 YZ   0.017033  -0.020670  -0.015764   0.044721  -0.010596
   45  C   2 XX   0.211296   0.090046  -0.160602   0.601713   0.320535
   46  C   2 YY   0.101769  -0.081103   0.082298  -0.259593  -0.770654
   47  C   2 ZZ  -0.313065  -0.008943   0.078304  -0.342120   0.450119
   48  C   2 XY   0.104246   0.022921  -0.232787   0.051666   0.218719
   49  C   2 XZ  -0.331226   0.144453   0.035055   0.676907   0.234985
   50  C   2 YZ   0.128642   0.213648   0.073078   0.624291  -0.534296
   51  C   3  S  -0.011055   0.016280  -0.006580   0.029688   0.008801
   52  C   3  S  -0.034101   0.063907   0.012978   0.106179   0.098779
   53  C   3  S   0.162186  -1.278985   0.329592  -1.032438  -0.009554
   54  C   3  S   5.305777 -12.078023  -3.196046  -9.582816   9.169152
   55  C   3  X  -0.124281  -0.018583   0.021941   0.147316   0.088465
   56  C   3  Y   0.015358   0.048634   0.001872   0.116592   0.029577
   57  C   3  Z  -0.081429  -0.193912   0.099515   0.137682   0.057130
   58  C   3  X   0.249310   0.420358  -0.121834  -1.333575  -0.480218
   59  C   3  Y   0.171766   0.385866   0.402848  -0.452968   0.069727
   60  C   3  Z   0.653917  -0.154386   0.686153  -0.798215  -0.898246
   61  C   3  X   2.336009  -2.271129  -0.654844  -4.543316   1.088222
   62  C   3  Y  -1.135022   0.513962   0.281081  -1.496104   0.711309
   63  C   3  Z   1.513265  -4.439868  -1.127295  -1.873656   1.001563
   64  C   3 XX   0.001073   0.016734  -0.018658  -0.035328   0.013622
   65  C   3 YY  -0.008936  -0.006292   0.018601   0.029413   0.009353
   66  C   3 ZZ   0.007864  -0.010442   0.000057   0.005915  -0.022975
   67  C   3 XY   0.001710  -0.015487   0.038427  -0.041663   0.026207
   68  C   3 XZ   0.045117   0.013581  -0.011227  -0.035418  -0.019487
   69  C   3 YZ  -0.003042   0.037493   0.000261  -0.005111   0.010412
   70  C   3 XX   0.261893  -0.018944   0.188692   0.041129  -0.308923
   71  C   3 YY  -0.129995  -0.077338  -0.264021   0.189028   0.306856
   72  C   3 ZZ  -0.131898   0.096282   0.075329  -0.230157   0.002068
   73  C   3 XY   0.087854   0.296033  -0.396830   0.076498  -0.490623
   74  C   3 XZ   0.095963   0.108389  -0.002987  -0.538596  -0.209744
   75  C   3 YZ   0.135453  -0.279584  -0.051243  -0.183329   0.012321
   76  H   4  S  -0.053085  -0.050800  -0.044167  -0.009005  -0.025054
   77  H   4  S  -1.119577  -2.105857  -1.115382   0.845961  -0.724714
   78  H   4  S   0.797982   0.089098  -0.383449   2.842060   0.106877
   79  H   4  X   0.006104  -0.010975   0.003842  -0.004401  -0.007124
   80  H   4  Y  -0.006844  -0.003109   0.001465  -0.020997  -0.003792
   81  H   4  Z   0.005885  -0.011639  -0.010496   0.011252  -0.003534
   82  H   4  X   0.059317  -0.479279  -0.249815   0.074495  -0.056835
   83  H   4  Y  -0.034048  -0.230517   0.006802  -0.541616  -0.538021
   84  H   4  Z   0.271919  -0.023059  -0.069050  -0.070016  -0.013269
   85  H   5  S   0.003463   0.177373  -0.044102  -0.044884  -0.099496
   86  H   5  S   0.905782   0.905650   0.041243  -0.516146  -1.980079
   87  H   5  S   1.573645   2.670235  -1.380855  -0.293509  -0.759700
   88  H   5  X  -0.007634   0.018310   0.002892   0.006171   0.006182
   89  H   5  Y  -0.010054   0.014073   0.007527  -0.007988   0.005781
   90  H   5  Z   0.015728   0.005521  -0.003430   0.010774  -0.010178
   91  H   5  X  -0.372016   0.334786   0.076912   0.146672   0.419619
   92  H   5  Y  -0.130810   0.244706   0.140203  -0.055551   0.294066
   93  H   5  Z  -0.067762   0.141790  -0.312661   0.054593  -0.170311
   94  H   6  S  -0.045639   0.008672   0.084921  -0.061279  -0.006876
   95  H   6  S  -0.040044  -1.172664   1.773291   0.211607  -0.761330
   96  H   6  S  -1.103286   0.552311   0.409455   2.072597   0.324792
   97  H   6  X  -0.005152  -0.016767  -0.003981  -0.006686  -0.004740
   98  H   6  Y  -0.011157  -0.006038  -0.005554  -0.002686   0.002075
   99  H   6  Z   0.010559  -0.009114   0.010512   0.019562   0.003518
  100  H   6  X  -0.013803  -0.458197  -0.244322  -0.321828  -0.222542
  101  H   6  Y   0.128584  -0.299721   0.355321   0.314760   0.084111
  102  H   6  Z   0.159683   0.006076   0.415762   0.284258   0.290815
  103  H   7  S   0.042821  -0.024833  -0.190045  -0.000010  -0.014491
  104  H   7  S   0.652423  -0.243187  -1.864067  -0.021234   3.410323
  105  H   7  S  -3.060257   0.029650   0.249701  -0.009304  -1.190985
  106  H   7  X  -0.016637  -0.005351   0.001032   0.012558  -0.014056
  107  H   7  Y  -0.001995   0.002555  -0.005262  -0.007273   0.008347
  108  H   7  Z   0.007091  -0.011964   0.000044   0.027353   0.008545
  109  H   7  X  -0.042421  -0.100278   0.112736   0.019862  -0.184150
  110  H   7  Y  -0.053961   0.042422  -0.219059  -0.006214  -0.537674
  111  H   7  Z   0.008375  -0.266440  -0.066779   0.035159  -0.071553
  112  H   8  S  -0.054076   0.035704  -0.055967   0.008111  -0.023114
  113  H   8  S  -1.170395   1.730699  -1.618833  -0.859236  -0.699773
  114  H   8  S   0.787178  -0.184478  -0.322997  -2.852866   0.086779
  115  H   8  X  -0.001527   0.002407   0.010255   0.014922  -0.002958
  116  H   8  Y  -0.002589   0.008903  -0.004899   0.014837  -0.006178
  117  H   8  Z  -0.010278  -0.012007   0.006998   0.012129   0.005510
  118  H   8  X  -0.171693   0.310581  -0.198718  -0.003092  -0.129402
  119  H   8  Y   0.092070   0.277377  -0.154560   0.495795  -0.498340
  120  H   8  Z  -0.206571  -0.207387   0.281612   0.245867  -0.173353
  121  H   9  S   0.006014  -0.183546   0.003050   0.045920  -0.098666
  122  H   9  S   0.896906  -0.868184   0.268599   0.536616  -1.931618
  123  H   9  S   1.646043  -2.929804  -0.641886   0.311984  -0.757331
  124  H   9  X  -0.018020  -0.009425   0.008481   0.004900   0.012699
  125  H   9  Y  -0.003656  -0.015974   0.010395   0.001405   0.002067
  126  H   9  Z  -0.007889   0.010752   0.000129   0.013755   0.003978
  127  H   9  X  -0.228181  -0.095075   0.334789  -0.053179   0.467599
  128  H   9  Y  -0.212327  -0.319993   0.098496  -0.004502   0.275507
  129  H   9  Z   0.241543   0.260388   0.115221   0.159109  -0.065870
  130  H  10  S  -0.046070   0.014169   0.083869   0.061653  -0.004346
  131  H  10  S  -0.049121   1.580344   1.421616  -0.201700  -0.750711
  132  H  10  S  -1.111802  -0.435351   0.514410  -2.068127   0.311867
  133  H  10  X  -0.013144   0.002671  -0.012558   0.018882  -0.005120
  134  H  10  Y  -0.006642   0.011455  -0.004451  -0.004418   0.002343
  135  H  10  Z  -0.006944  -0.015212  -0.001489   0.007336   0.002337
  136  H  10  X  -0.100820   0.251044  -0.478289   0.363088  -0.337386
  137  H  10  Y   0.177655   0.445764   0.340188  -0.333458   0.144448
  138  H  10  Z  -0.020606  -0.162702   0.136424  -0.203826   0.028274
  139  F  11  S   0.003207  -0.000624  -0.004815  -0.000023   0.005039
  140  F  11  S  -0.022582  -0.008010  -0.057867  -0.000464   0.043035
  141  F  11  S  -0.119962  -0.011861  -0.079484  -0.001415   0.058096
  142  F  11  S  -1.077516  -0.199832  -1.489236  -0.002270   0.400215
  143  F  11  X   0.045159   0.018446  -0.048477  -0.020978  -0.039803
  144  F  11  Y   0.038343  -0.029016  -0.115081   0.011986   0.106012
  145  F  11  Z  -0.010718   0.049562  -0.017844  -0.047601   0.045840
  146  F  11  X   0.088355   0.007878  -0.012046  -0.017666  -0.004804
  147  F  11  Y   0.004705  -0.020897  -0.125041   0.009875   0.102253
  148  F  11  Z  -0.038858   0.012980  -0.031223  -0.039387   0.029581
  149  F  11  X   1.534939   0.164528   1.619051  -0.240931  -0.517624
  150  F  11  Y  -0.237187   0.045440   0.114750   0.148757  -1.243884
  151  F  11  Z  -0.755019  -0.209405  -0.679744  -0.542049  -0.101573
  152  F  11 XX   0.008585   0.000144   0.005645  -0.003503  -0.005109
  153  F  11 YY  -0.005417  -0.000827  -0.005267  -0.002068   0.001760
  154  F  11 ZZ  -0.003167   0.000682  -0.000379   0.005571   0.003350
  155  F  11 XY  -0.000678  -0.000113  -0.003324   0.003268  -0.008722
  156  F  11 XZ  -0.008034  -0.001318  -0.004915  -0.003043   0.002127
  157  F  11 YZ   0.000629   0.000208   0.000575   0.003630   0.003450
  158  F  11 XX  -0.001258   0.002535  -0.021775  -0.011133   0.000042
  159  F  11 YY   0.000760   0.002041   0.004507  -0.000967  -0.007609
  160  F  11 ZZ   0.000498  -0.004576   0.017268   0.012100   0.007567
  161  F  11 XY   0.009457  -0.004197  -0.006634   0.004634   0.015832
  162  F  11 XZ   0.004957   0.008047   0.022000  -0.011170   0.012251
  163  F  11 YZ  -0.005054  -0.002537  -0.003135   0.000283  -0.014522

                     46         47         48         49         50
                    0.2787     0.2909     0.3075     0.3117     0.3347
                     A          A          A          A          A   
    1  C   1  S  -0.002664   0.011647  -0.013574   0.021701   0.004120
    2  C   1  S   0.093493  -0.019524   0.002808   0.059407  -0.042035
    3  C   1  S   0.742326  -0.923750   0.561200  -0.824714  -0.361657
    4  C   1  S   4.432545   7.109999   8.218765   8.605418  -1.004165
    5  C   1  X  -0.054755  -0.048788  -0.052900   0.094666   0.038181
    6  C   1  Y   0.042593  -0.027303   0.031699   0.085875   0.077827
    7  C   1  Z  -0.066285  -0.043520   0.018476  -0.123314   0.024951
    8  C   1  X  -0.370552  -0.023332   1.218971   0.336860   0.328262
    9  C   1  Y  -0.102443  -0.226909  -0.954877  -0.145838   0.682528
   10  C   1  Z   0.407316   0.101264  -0.716363   0.216007   0.174338
   11  C   1  X  -1.821260  -0.467716  -0.171525   1.665208   0.371486
   12  C   1  Y   0.089500  -0.955368   1.936239   1.146426   0.478389
   13  C   1  Z  -2.184118  -2.140774  -1.688927  -1.152170  -0.048493
   14  C   1 XX  -0.003254  -0.005865  -0.028901   0.004491  -0.003130
   15  C   1 YY  -0.019264   0.009473   0.004534   0.010265   0.003100
   16  C   1 ZZ   0.022518  -0.003608   0.024368  -0.014755   0.000030
   17  C   1 XY  -0.021350  -0.012948   0.023714   0.005920   0.002436
   18  C   1 XZ   0.024936  -0.010759  -0.008510   0.013052   0.026893
   19  C   1 YZ  -0.005075   0.025163   0.004935   0.020189  -0.013378
   20  C   1 XX   0.322205   0.069624   0.136262   0.069998  -0.204505
   21  C   1 YY  -0.254587   0.168968  -0.226072  -0.121016  -0.203672
   22  C   1 ZZ  -0.067618  -0.238592   0.089809   0.051018   0.408177
   23  C   1 XY   0.171942   0.279010   0.013076  -0.014350   0.208196
   24  C   1 XZ  -0.301324  -0.424209   0.131793   0.201895   0.351487
   25  C   1 YZ   0.215220  -0.091952  -0.025841   0.272725   0.092724
   26  C   2  S   0.000338   0.001297   0.000397  -0.014096   0.024263
   27  C   2  S   0.001736   0.047459   0.003089  -0.188134   0.123280
   28  C   2  S  -0.008283   0.151420   0.000720  -0.764663  -0.874530
   29  C   2  S   0.189771 -17.328446   0.293724 -23.813176   3.148062
   30  C   2  X   0.000229   0.243472   0.021479   0.124754   0.030135
   31  C   2  Y  -0.000721   0.105595  -0.012558  -0.110318  -0.035976
   32  C   2  Z  -0.000283  -0.081697   0.050086  -0.084060  -0.053036
   33  C   2  X   0.426994   0.001323   0.002827   0.293991   0.689971
   34  C   2  Y  -0.227046  -1.053966   0.026435  -2.354622   0.096685
   35  C   2  Z   0.923364  -0.287583   0.004437  -0.767765   0.174420
   36  C   2  X   1.485844   3.590330  -2.318607   1.727750   0.588850
   37  C   2  Y  -0.926984   7.712697   1.354367  -0.312551   1.241380
   38  C   2  Z   3.357401   0.421027  -5.053463  -0.901730  -0.510518
   39  C   2 XX  -0.023326  -0.006219   0.004463   0.005440   0.006008
   40  C   2 YY   0.025497   0.000623   0.006988  -0.009420   0.004792
   41  C   2 ZZ  -0.002171   0.005596  -0.011451   0.003980  -0.010800
   42  C   2 XY  -0.016799  -0.021202  -0.008127  -0.004653   0.021144
   43  C   2 XZ  -0.030490  -0.000630   0.002696  -0.001895  -0.011999
   44  C   2 YZ  -0.054594   0.008792  -0.012562  -0.002038  -0.000521
   45  C   2 XX  -0.240838   0.337662  -0.405052   0.174843   0.358774
   46  C   2 YY  -0.095611   0.021161  -0.339371  -0.631249  -0.527457
   47  C   2 ZZ   0.336449  -0.358824   0.744424   0.456405   0.168683
   48  C   2 XY   0.173963   0.797505   0.480699  -0.349559  -0.588516
   49  C   2 XZ  -0.215785  -0.159644  -0.322014   0.091455  -0.323511
   50  C   2 YZ   0.171511  -0.232467   0.640543  -0.192290  -0.228138
   51  C   3  S   0.002337   0.011857   0.013114   0.022161  -0.001335
   52  C   3  S  -0.095104  -0.019202  -0.005717   0.059930  -0.072221
   53  C   3  S  -0.737077  -0.934618  -0.557589  -0.843830  -0.145851
   54  C   3  S  -4.628761   7.086228  -8.487847   8.482117  -4.474663
   55  C   3  X  -0.020364  -0.005621   0.039322   0.168945   0.026623
   56  C   3  Y   0.001032  -0.052524  -0.025708   0.045532   0.124296
   57  C   3  Z  -0.095348   0.046608  -0.042292   0.037882  -0.012121
   58  C   3  X   0.567548  -0.108748  -1.147035   0.019693   0.820155
   59  C   3  Y  -0.008484  -0.198508   0.914561   0.065214   1.129698
   60  C   3  Z   0.035914  -0.165761   0.881835  -0.418431   0.418583
   61  C   3  X  -0.362646   1.037969  -1.496597   2.122749  -0.073717
   62  C   3  Y   1.182873  -1.852168  -1.007929   0.889815   1.330288
   63  C   3  Z  -2.591452   1.119787  -1.900829  -0.095606  -0.625398
   64  C   3 XX   0.014781  -0.003788  -0.010162  -0.019553  -0.012982
   65  C   3 YY   0.017434   0.018111  -0.016257   0.021944  -0.009991
   66  C   3 ZZ  -0.032215  -0.014323   0.026419  -0.002391   0.022973
   67  C   3 XY   0.018883  -0.022049   0.000311   0.002371   0.016352
   68  C   3 XZ  -0.011880  -0.010602  -0.027665  -0.015023   0.014635
   69  C   3 YZ   0.010333   0.008686   0.011409  -0.007173  -0.004058
   70  C   3 XX  -0.338058   0.337389   0.008527  -0.180580   0.075735
   71  C   3 YY   0.044153   0.068082   0.146829   0.116163  -0.145145
   72  C   3 ZZ   0.293906  -0.405472  -0.155357   0.064417   0.069410
   73  C   3 XY   0.033636   0.301570   0.023482  -0.166794  -0.160176
   74  C   3 XZ   0.337048  -0.109396   0.030548  -0.114174   0.462668
   75  C   3 YZ   0.185499   0.183570   0.198746  -0.243688  -0.531337
   76  H   4  S  -0.083182   0.052870  -0.092962   0.038134  -0.033907
   77  H   4  S  -2.749952   0.618797   1.213698   1.296877   0.539207
   78  H   4  S  -0.546124   1.077217  -0.565436   1.520497   0.736709
   79  H   4  X   0.001309   0.004456   0.009771   0.007655   0.001500
   80  H   4  Y   0.004154   0.006280   0.003840  -0.001581   0.001639
   81  H   4  Z  -0.007260  -0.001698   0.002342  -0.005400  -0.006616
   82  H   4  X  -0.212753   0.058538   0.847782  -0.026782  -0.685173
   83  H   4  Y   0.173430   0.607689  -0.279191   0.244827  -0.120778
   84  H   4  Z   0.180415  -0.391400  -0.059026  -0.368308  -0.277191
   85  H   5  S   0.008870   0.023399  -0.029114  -0.004636   0.055820
   86  H   5  S  -0.919430   1.709666  -1.659674  -0.657899  -0.941741
   87  H   5  S   0.411358   0.435989   0.909681  -2.058480   0.000517
   88  H   5  X   0.005145  -0.008300  -0.009395   0.003161   0.008739
   89  H   5  Y  -0.003370  -0.004704   0.012569   0.003303  -0.001075
   90  H   5  Z   0.012658   0.005893   0.006032  -0.003470  -0.002949
   91  H   5  X  -0.183279  -0.199007   0.011161   0.025354  -0.002378
   92  H   5  Y  -0.516392  -0.049342   0.355210   0.149132   0.050719
   93  H   5  Z   0.482790   0.006598   0.556782  -0.214765   0.276280
   94  H   6  S  -0.117455   0.030284   0.004482   0.010242   0.059954
   95  H   6  S  -0.788159   0.494025  -1.531893   0.753285   2.377855
   96  H   6  S  -0.591161  -0.255788   1.355382   0.135080   0.482874
   97  H   6  X   0.001087   0.002540  -0.011967  -0.000009   0.000783
   98  H   6  Y   0.001508  -0.000623  -0.011237  -0.001289  -0.000137
   99  H   6  Z  -0.001439  -0.005129   0.000858  -0.003600   0.007860
  100  H   6  X   0.138565   0.202138  -0.233897  -0.178000   0.134130
  101  H   6  Y   0.074278   0.272808  -0.510848   0.285209   0.282525
  102  H   6  Z   0.169921  -0.618430  -0.092393  -0.106267   0.356255
  103  H   7  S  -0.000714  -0.002720  -0.002061   0.209291  -0.057901
  104  H   7  S  -0.043744   2.908246  -0.080881   7.738979   1.256982
  105  H   7  S   0.009406  -3.266709  -0.026134   2.548727  -2.110393
  106  H   7  X  -0.006972  -0.012311  -0.005910   0.006750   0.006837
  107  H   7  Y   0.004170  -0.009885   0.003528  -0.006962   0.005180
  108  H   7  Z  -0.015769   0.002865  -0.012826  -0.004924   0.000820
  109  H   7  X  -0.422552  -0.827780  -0.360946  -0.236602   0.853927
  110  H   7  Y   0.258346  -1.013483   0.222837  -1.038468  -0.329251
  111  H   7  Z  -0.942592   0.100727  -0.798975  -0.177117  -0.277404
  112  H   8  S   0.082609   0.052921   0.093364   0.039811  -0.007579
  113  H   8  S   2.739538   0.708437  -1.216397   1.268180   0.808911
  114  H   8  S   0.533681   1.084988   0.543841   1.515911   0.596807
  115  H   8  X  -0.006845   0.005449  -0.005813   0.008623   0.005588
  116  H   8  Y  -0.000873   0.005865  -0.006060  -0.002283  -0.001537
  117  H   8  Z  -0.005046  -0.000025   0.006621  -0.002892   0.003749
  118  H   8  X   0.237749   0.448545  -0.568417   0.282135  -0.309188
  119  H   8  Y  -0.180578   0.385912   0.112962   0.056584  -0.398532
  120  H   8  Z  -0.123115   0.417670   0.680019   0.348775   0.630709
  121  H   9  S  -0.007697   0.023291   0.029227  -0.004547   0.060419
  122  H   9  S   0.960966   1.700147   1.686435  -0.669960  -0.705399
  123  H   9  S  -0.400384   0.434431  -0.867062  -2.085701  -0.784061
  124  H   9  X   0.005924  -0.010837   0.008123   0.005565   0.005983
  125  H   9  Y  -0.003208  -0.003081  -0.011976   0.001910  -0.001294
  126  H   9  Z   0.012196   0.000772  -0.008591   0.001017  -0.006398
  127  H   9  X   0.556300  -0.155677   0.313655   0.212192  -0.198964
  128  H   9  Y   0.287798  -0.068322  -0.551051   0.042141   0.108972
  129  H   9  Z   0.367988   0.123462   0.168270   0.164236  -0.203297
  130  H  10  S   0.117769   0.030770  -0.003116   0.010998   0.075667
  131  H  10  S   0.803260   0.412989   1.560706   0.823027   3.877304
  132  H  10  S   0.593568  -0.269393  -1.354781   0.126968   1.530942
  133  H  10  X  -0.002032   0.005435   0.010773   0.002397  -0.008867
  134  H  10  Y  -0.000968  -0.002412   0.012056  -0.002345   0.004553
  135  H  10  Z  -0.000804   0.001189  -0.003529   0.001412  -0.006920
  136  H  10  X   0.015320   0.632029   0.196372   0.007973  -0.212198
  137  H  10  Y  -0.169636  -0.000419   0.540039   0.192876   0.606438
  138  H  10  Z   0.163285   0.321635  -0.008648   0.303382  -0.200613
  139  F  11  S  -0.000025   0.001425  -0.000114   0.014038   0.005166
  140  F  11  S  -0.000301  -0.023544  -0.000731   0.072678   0.036771
  141  F  11  S  -0.000580  -0.092016  -0.000838   0.031452   0.030560
  142  F  11  S  -0.012968   1.341606  -0.010625   0.369423  -2.175563
  143  F  11  X   0.042659   0.109537  -0.047830  -0.016130   0.059247
  144  F  11  Y  -0.026125   0.108239   0.029099  -0.038185  -0.004011
  145  F  11  Z   0.093412  -0.020903  -0.106964  -0.004104  -0.020177
  146  F  11  X   0.059612   0.082528  -0.039595   0.083864   0.168359
  147  F  11  Y  -0.036098   0.070754   0.023873  -0.060495   0.034132
  148  F  11  Z   0.130916  -0.018026  -0.086691  -0.055199  -0.079815
  149  F  11  X  -0.476475   0.126248   0.804882   0.824365   0.316956
  150  F  11  Y   0.298405  -1.866103  -0.484338   0.767960  -1.152028
  151  F  11  Z  -1.072425  -0.553425   1.780415  -0.152716  -0.526961
  152  F  11 XX  -0.002499   0.002520   0.009048   0.007961   0.000470
  153  F  11 YY   0.000592  -0.001107   0.000362  -0.007681   0.000439
  154  F  11 ZZ   0.001907  -0.001413  -0.009410  -0.000280  -0.000909
  155  F  11 XY   0.000348  -0.010016  -0.003392   0.003416  -0.006190
  156  F  11 XZ  -0.002793  -0.006841   0.009119  -0.003562  -0.003921
  157  F  11 YZ  -0.001665   0.005883   0.000865  -0.003656   0.003320
  158  F  11 XX   0.010254   0.008951  -0.027069  -0.025433   0.011948
  159  F  11 YY   0.007991  -0.011019   0.001867   0.021876   0.009797
  160  F  11 ZZ  -0.018245   0.002068   0.025202   0.003557  -0.021744
  161  F  11 XY  -0.011311   0.023976   0.007364  -0.005091   0.005732
  162  F  11 XZ   0.008194   0.005964  -0.028461   0.015817  -0.011989
  163  F  11 YZ  -0.014018  -0.016739  -0.008428   0.006471   0.010869

                     51         52         53         54         55
                    0.3369     0.3389     0.3420     0.3537     0.3608
                     A          A          A          A          A   
    1  C   1  S  -0.017176   0.001331   0.005020   0.013865  -0.010105
    2  C   1  S  -0.118233  -0.121999   0.070396  -0.053198  -0.097695
    3  C   1  S   0.609678  -1.080040  -0.071844  -1.129911  -0.467175
    4  C   1  S -13.242042  -9.884416  13.275589  -6.731548  -5.192500
    5  C   1  X   0.067418   0.089304  -0.053042  -0.135883  -0.159480
    6  C   1  Y   0.139552  -0.085175   0.045836   0.039420  -0.050280
    7  C   1  Z   0.065683   0.006174   0.057548   0.018577  -0.016822
    8  C   1  X   0.692024   1.291838  -0.439997  -1.377904  -1.395315
    9  C   1  Y   2.595796   0.168589   0.241913   0.378483   0.460139
   10  C   1  Z  -1.751281  -1.462878   2.485597   0.264761  -2.179909
   11  C   1  X   1.388000   1.416507  -1.144080  -2.428683  -4.257685
   12  C   1  Y   1.899262  -2.020308   4.011389   0.995791  -0.309562
   13  C   1  Z   4.055479   0.390155  -0.114430   1.825619  -0.660112
   14  C   1 XX   0.007907  -0.012451   0.049435   0.009357  -0.018229
   15  C   1 YY  -0.014232  -0.005982  -0.006440   0.007398   0.008202
   16  C   1 ZZ   0.006326   0.018432  -0.042996  -0.016755   0.010028
   17  C   1 XY   0.005187   0.030612  -0.008751  -0.008220  -0.042555
   18  C   1 XZ  -0.012921   0.001343  -0.003075  -0.023610  -0.000722
   19  C   1 YZ  -0.035630  -0.015324  -0.015064  -0.011171  -0.029003
   20  C   1 XX  -0.110849  -0.426513   0.143154  -0.210015  -0.365859
   21  C   1 YY  -0.905012   0.228799  -0.561387  -0.251579   0.119782
   22  C   1 ZZ   1.015860   0.197714   0.418233   0.461595   0.246077
   23  C   1 XY   0.001036  -0.537843   0.046223  -0.252288   0.695370
   24  C   1 XZ  -0.388325   0.446531   0.035527  -0.355884  -0.569862
   25  C   1 YZ  -0.349089  -0.465101   0.690058   0.114571  -0.319616
   26  C   2  S   0.005178   0.035460   0.000940   0.026469  -0.000043
   27  C   2  S   0.023741   0.143341   0.002435   0.051042  -0.000418
   28  C   2  S  -0.187149  -1.097255  -0.045702  -1.651193  -0.003764
   29  C   2  S   1.189624  15.160189   0.501935   5.186822   0.099114
   30  C   2  X   0.065349  -0.178853  -0.055899   0.025288   0.071045
   31  C   2  Y  -0.052500  -0.042678   0.024236  -0.275680  -0.040044
   32  C   2  Z   0.155577   0.064644  -0.110601  -0.084191   0.157751
   33  C   2  X  -0.946088   1.599708   0.918149  -0.347603  -1.083855
   34  C   2  Y   0.737239   1.506139  -0.499314  -0.942291   0.646194
   35  C   2  Z  -2.458189  -0.247251   1.941389  -0.116555  -2.386483
   36  C   2  X   1.324052  -2.133171  -3.240377   0.148221   0.777617
   37  C   2  Y  -0.695026  -0.068741   1.688056  -5.119719  -0.498108
   38  C   2  Z   2.980716   1.011380  -6.905361  -1.340446   1.748117
   39  C   2 XX   0.023971   0.008785  -0.009217  -0.012895   0.012677
   40  C   2 YY   0.007827   0.003985   0.003867   0.008100  -0.015289
   41  C   2 ZZ  -0.031799  -0.012770   0.005350   0.004795   0.002611
   42  C   2 XY  -0.013071  -0.026931  -0.001522  -0.007320   0.011532
   43  C   2 XZ   0.018123  -0.029334  -0.011069   0.008257   0.017050
   44  C   2 YZ  -0.008741   0.024520  -0.008534   0.004100   0.032827
   45  C   2 XX   0.254902  -0.196031  -0.527786   0.006581   0.008284
   46  C   2 YY  -0.830147   0.365447   0.061441  -0.355559  -0.263638
   47  C   2 ZZ   0.575245  -0.169416   0.466346   0.348978   0.255354
   48  C   2 XY   0.598723  -0.093665   0.118522   0.057456   0.239766
   49  C   2 XZ   0.385763  -0.002785  -0.527315   0.302502   0.067455
   50  C   2 YZ   1.564231   0.098910  -0.184782  -0.310475   0.521737
   51  C   3  S   0.018007   0.000048  -0.004715   0.013801   0.009543
   52  C   3  S   0.088948  -0.127992  -0.076443  -0.052301   0.099012
   53  C   3  S  -0.817495  -1.017528   0.010457  -1.116977   0.520711
   54  C   3  S  11.376101 -10.439963 -14.006458  -6.516274   5.156379
   55  C   3  X  -0.014248   0.041089   0.068287  -0.099718   0.105621
   56  C   3  Y  -0.140455  -0.034278  -0.056978   0.019798   0.084907
   57  C   3  Z   0.011704  -0.104881  -0.027214   0.102444  -0.099083
   58  C   3  X  -1.858829   2.052603   2.098491  -1.100829  -0.710169
   59  C   3  Y  -1.455811   0.034411  -1.172691   0.240061   0.789958
   60  C   3  Z  -1.541669   0.062905   0.994715   0.982845  -2.395066
   61  C   3  X   1.648506   0.167896  -0.103978  -2.771561   2.439703
   62  C   3  Y  -3.459735  -0.762718  -3.297633   1.306121   1.410067
   63  C   3  Z   2.170251  -2.244658  -2.685309   1.138664  -3.268370
   64  C   3 XX  -0.028899   0.015814  -0.003430   0.017599   0.004339
   65  C   3 YY   0.030244  -0.006664   0.023213  -0.010697   0.023962
   66  C   3 ZZ  -0.001345  -0.009151  -0.019784  -0.006902  -0.028301
   67  C   3 XY  -0.011208   0.021653  -0.022121   0.006866   0.015576
   68  C   3 XZ  -0.005187   0.024212   0.044539  -0.013230  -0.020491
   69  C   3 YZ  -0.007897  -0.017082  -0.012376   0.023895  -0.036875
   70  C   3 XX  -0.891716  -0.380392  -0.103646   0.356396  -0.660398
   71  C   3 YY   0.776867  -0.280027  -0.109925  -0.195656  -0.045837
   72  C   3 ZZ   0.114849   0.660419   0.213571  -0.160740   0.706235
   73  C   3 XY   0.336620  -0.185689   0.555213  -0.534575  -0.416081
   74  C   3 XZ  -0.383025   0.538996   0.229993   0.174118  -0.489803
   75  C   3 YZ   0.277709   0.308741   0.667543   0.029803  -0.013959
   76  H   4  S   0.103595   0.069865  -0.034997   0.050541  -0.011744
   77  H   4  S   1.081548   4.994248  -3.970573  -1.660359  -0.234988
   78  H   4  S  -0.506292   1.813111  -3.577870  -2.092999  -2.572013
   79  H   4  X  -0.003596   0.003781  -0.016864  -0.007028  -0.002941
   80  H   4  Y  -0.002532  -0.015157   0.000483  -0.001139   0.009378
   81  H   4  Z  -0.001137   0.008366  -0.006462  -0.001944  -0.000393
   82  H   4  X  -0.315585   0.849220  -0.824655  -0.447564   0.032155
   83  H   4  Y  -0.195127  -0.788598   0.050148   0.132877   0.869594
   84  H   4  Z  -0.148862  -0.000013  -0.312438  -0.037858  -0.010760
   85  H   5  S   0.024871   0.072295  -0.033189   0.030078   0.039435
   86  H   5  S   0.443069   0.379154  -3.050036   2.452848   5.101873
   87  H   5  S  -3.218545   0.169543   0.921997   1.247126   3.467054
   88  H   5  X   0.001057   0.001465   0.012691   0.000547  -0.007709
   89  H   5  Y  -0.005634   0.008226  -0.001641  -0.003374  -0.016200
   90  H   5  Z   0.004710   0.005978  -0.016250  -0.008521   0.010556
   91  H   5  X   0.226863   0.370044   1.025508   0.332720  -0.679007
   92  H   5  Y  -0.237589   0.550484  -0.242019   0.140466  -1.130626
   93  H   5  Z   0.087275  -0.133702  -0.488635  -0.441616  -0.279380
   94  H   6  S   0.066943   0.036015  -0.071289   0.059853   0.030138
   95  H   6  S   6.250151   0.371486   1.225650   2.137474   0.377236
   96  H   6  S   4.346032  -0.757769   3.009463   0.778408   0.881049
   97  H   6  X  -0.003893  -0.011035   0.003736   0.002343   0.009323
   98  H   6  Y  -0.000339   0.000326   0.005699  -0.002491  -0.003822
   99  H   6  Z   0.017713   0.001565   0.009645   0.010046   0.006860
  100  H   6  X  -0.104987  -0.756130   0.022661   0.244417   0.721768
  101  H   6  Y   0.590085  -0.149806   0.500922   0.037798  -0.054502
  102  H   6  Z   0.683002  -0.098389   0.642116   0.724356   0.263577
  103  H   7  S  -0.007873  -0.033318   0.001022   0.064315  -0.000724
  104  H   7  S   0.057129  -3.032198  -0.031939   3.605474  -0.011688
  105  H   7  S  -0.270081  -0.453059   0.105494   3.482552   0.009981
  106  H   7  X  -0.007835  -0.022312  -0.006068   0.007246   0.007893
  107  H   7  Y   0.005089  -0.002634   0.003237   0.004122  -0.004358
  108  H   7  Z  -0.016082   0.011163  -0.012270  -0.001788   0.016763
  109  H   7  X  -0.455186  -0.549527  -0.060807  -0.300501   0.088042
  110  H   7  Y   0.296127   0.536322   0.033442  -0.552326  -0.035788
  111  H   7  Z  -1.202457   0.479548  -0.074804  -0.000162   0.136829
  112  H   8  S  -0.098952   0.079733   0.039059   0.051978   0.009995
  113  H   8  S  -0.381783   4.878546   4.184398  -1.792867   0.158964
  114  H   8  S   0.844094   1.592641   3.602176  -2.200978   2.524897
  115  H   8  X   0.002828  -0.006840   0.006336  -0.004093   0.000094
  116  H   8  Y   0.001906  -0.009787   0.004882  -0.003479  -0.007423
  117  H   8  Z  -0.002545  -0.012821  -0.016375   0.005946  -0.006145
  118  H   8  X   0.106048   0.396289   0.343809  -0.277165  -0.217186
  119  H   8  Y   0.129753  -0.580013   0.219578   0.001594  -0.767415
  120  H   8  Z  -0.149979  -0.883543  -0.834703   0.409467  -0.337169
  121  H   9  S  -0.001528   0.071057   0.036840   0.029195  -0.039215
  122  H   9  S  -0.635439   0.217270   3.091927   2.363933  -5.131515
  123  H   9  S   3.108110  -0.179051  -0.915787   1.220098  -3.469592
  124  H   9  X   0.005619  -0.001005  -0.019719   0.006482   0.015912
  125  H   9  Y   0.003507   0.009574   0.006269  -0.006625   0.011424
  126  H   9  Z   0.004156  -0.001335   0.000653   0.003076   0.007236
  127  H   9  X  -0.032310   0.505658  -0.951478   0.600294   0.454055
  128  H   9  Y   0.219624   0.486854   0.252295   0.009491   1.246962
  129  H   9  Z   0.264883  -0.014356   0.555013   0.059151  -0.172035
  130  H  10  S  -0.045374   0.037865   0.074268   0.057750  -0.029928
  131  H  10  S  -5.285647   1.049483  -1.193436   2.266312  -0.348842
  132  H  10  S  -4.096310  -0.143306  -3.036299   0.915023  -0.859965
  133  H  10  X   0.012375  -0.010158   0.002609  -0.006146  -0.000536
  134  H  10  Y  -0.005189  -0.000120  -0.009890   0.002806  -0.001308
  135  H  10  Z   0.006371   0.006214   0.006038  -0.008499   0.012064
  136  H  10  X   0.345769  -0.530218   0.311911  -0.353070  -0.280442
  137  H  10  Y  -0.668857  -0.211975  -0.731220   0.412730  -0.190805
  138  H  10  Z   0.061878   0.521922   0.184533  -0.558189   0.673971
  139  F  11  S   0.000937   0.005192   0.000040  -0.006402   0.000054
  140  F  11  S   0.005865   0.023812  -0.000095  -0.044537   0.000592
  141  F  11  S   0.003362  -0.001112  -0.000898  -0.052560   0.000889
  142  F  11  S  -0.327642  -0.989890  -0.000121   0.947305  -0.028329
  143  F  11  X  -0.015016  -0.016964  -0.035148   0.071953  -0.025017
  144  F  11  Y   0.014670   0.036936   0.020459   0.017362   0.013349
  145  F  11  Z  -0.049507   0.023108  -0.075404  -0.026049  -0.053622
  146  F  11  X   0.053885   0.022295  -0.041681   0.014904   0.000640
  147  F  11  Y  -0.012616   0.009277   0.023149   0.024926  -0.000453
  148  F  11  Z   0.057901  -0.008894  -0.089140   0.001778   0.000684
  149  F  11  X   0.251899   0.109780   0.437187  -0.496570   0.526544
  150  F  11  Y  -0.275020  -0.122974  -0.226937   0.120907  -0.306751
  151  F  11  Z   0.381600  -0.144751   0.970676   0.240142   1.139877
  152  F  11 XX   0.001603   0.000457   0.002972   0.000183   0.003939
  153  F  11 YY  -0.001625  -0.000520   0.001178  -0.001585  -0.000179
  154  F  11 ZZ   0.000022   0.000063  -0.004150   0.001402  -0.003760
  155  F  11 XY   0.000322   0.000139  -0.002031   0.002594  -0.001193
  156  F  11 XZ   0.001439  -0.000528   0.002694   0.002009   0.004083
  157  F  11 YZ   0.003862  -0.000314  -0.002205  -0.002488   0.001038
  158  F  11 XX  -0.028306   0.004530   0.003260   0.013686  -0.022202
  159  F  11 YY   0.006456  -0.017142  -0.004185  -0.010846  -0.004578
  160  F  11 ZZ   0.021850   0.012611   0.000925  -0.002840   0.026780
  161  F  11 XY   0.005687   0.012264   0.002701  -0.002722   0.012338
  162  F  11 XZ  -0.032885   0.015446   0.004698  -0.011651  -0.021403
  163  F  11 YZ  -0.016200  -0.017214   0.007728   0.000193   0.007000

                     56         57         58         59         60
                    0.3692     0.3775     0.3983     0.4070     0.4240
                     A          A          A          A          A   
    1  C   1  S   0.008592   0.004503   0.006615  -0.021081  -0.059654
    2  C   1  S  -0.015907  -0.004541  -0.015112   0.008676  -0.015899
    3  C   1  S  -1.094442  -0.347666  -0.756293   1.828192   3.901147
    4  C   1  S   6.382234   1.080823   2.772703  -6.604942  -5.521184
    5  C   1  X   0.025211   0.016166  -0.096341  -0.089214  -0.053577
    6  C   1  Y   0.155305  -0.037395  -0.053184   0.055854   0.045112
    7  C   1  Z   0.083160   0.177804   0.026236  -0.112244  -0.000055
    8  C   1  X  -0.039512   1.823024  -2.005479  -0.319793  -0.907142
    9  C   1  Y   2.009879  -0.095032   0.434622   0.131586   0.477798
   10  C   1  Z   0.777773   1.814044   0.499187  -1.048834  -0.508384
   11  C   1  X  -0.303320   0.173498  -2.399189  -1.405366  -0.459969
   12  C   1  Y   3.265501   1.175047   0.259863  -0.366659  -0.614978
   13  C   1  Z  -0.327421   1.688728  -0.987320   1.463471   2.053979
   14  C   1 XX   0.028176   0.012464   0.002748   0.001522   0.004990
   15  C   1 YY  -0.035141  -0.009712  -0.022391   0.001457  -0.004353
   16  C   1 ZZ   0.006964  -0.002752   0.019643  -0.002979  -0.000637
   17  C   1 XY  -0.009610   0.011039  -0.005990  -0.002811   0.000703
   18  C   1 XZ  -0.004157   0.003173  -0.038145  -0.000107  -0.014833
   19  C   1 YZ  -0.010081  -0.003185   0.009855  -0.007200  -0.005955
   20  C   1 XX   0.193625   0.111469   0.571802  -0.112497  -0.483708
   21  C   1 YY  -0.381876  -0.037042  -0.273739   0.176250   0.534689
   22  C   1 ZZ   0.188251  -0.074426  -0.298063  -0.063753  -0.050981
   23  C   1 XY  -0.046797   0.089713  -0.336081   0.438632  -0.014598
   24  C   1 XZ  -0.078480   0.074006  -0.262488   0.051388  -0.010918
   25  C   1 YZ  -0.017400   0.082475  -0.349954  -0.103428  -0.185106
   26  C   2  S  -0.006542  -0.021044   0.000187   0.006285  -0.022027
   27  C   2  S  -0.027790   0.079985  -0.000026   0.032601   0.018682
   28  C   2  S   0.740444   1.574167  -0.014502  -0.093262   1.575765
   29  C   2  S -16.491341   2.620207  -0.003499  17.105856  18.147983
   30  C   2  X  -0.045450   0.233803   0.015508   0.142229   0.063825
   31  C   2  Y   0.039615  -0.147610  -0.011556   0.073396   0.083430
   32  C   2  Z   0.029937  -0.143848   0.039190  -0.043962  -0.006101
   33  C   2  X  -0.179394  -0.321836   0.074195   1.171400   2.329254
   34  C   2  Y   0.624031  -0.729440  -0.051027   1.070401   1.693538
   35  C   2  Z   0.268754  -0.079250   0.167796  -0.237366  -0.571568
   36  C   2  X   2.502405   2.516678  -0.429916   0.192761  -1.572092
   37  C   2  Y   3.331776  -2.461593   0.215597  -2.681889  -3.135886
   38  C   2  Z  -0.295832  -1.797863  -0.880544  -0.818478  -0.117396
   39  C   2 XX  -0.017021  -0.001909   0.020172   0.010376   0.011773
   40  C   2 YY   0.027636  -0.000538   0.001668  -0.015199  -0.015100
   41  C   2 ZZ  -0.010614   0.002447  -0.021840   0.004823   0.003328
   42  C   2 XY   0.000912  -0.026775  -0.008320   0.014004  -0.020511
   43  C   2 XZ   0.002415  -0.007783   0.020224   0.003387  -0.013627
   44  C   2 YZ   0.011999   0.013261   0.000087  -0.013992   0.005581
   45  C   2 XX  -0.000955  -0.143894   0.074036   0.443286   0.162083
   46  C   2 YY   0.045623   0.252688   0.119802  -0.175780   0.202668
   47  C   2 ZZ  -0.044669  -0.108794  -0.193839  -0.267506  -0.364751
   48  C   2 XY   0.038718   0.751244  -0.147816  -0.025018  -0.197239
   49  C   2 XZ  -0.018245   0.319127   0.043038  -0.493802  -0.467114
   50  C   2 YZ  -0.001655  -0.279479  -0.233200   0.098997   0.344346
   51  C   3  S   0.008395   0.004733  -0.006587  -0.020683  -0.059934
   52  C   3  S  -0.017216  -0.003100   0.014137   0.008815  -0.016417
   53  C   3  S  -1.080183  -0.349173   0.740115   1.806628   3.900924
   54  C   3  S   6.193571   1.106286  -2.826230  -6.668095  -5.526682
   55  C   3  X  -0.012718  -0.121429   0.091402   0.032019  -0.027288
   56  C   3  Y   0.178888   0.045306   0.055852  -0.015237   0.028464
   57  C   3  Z  -0.000180  -0.128321  -0.031522   0.150559   0.058240
   58  C   3  X  -0.181251  -0.084887   1.598150   0.593994  -0.160549
   59  C   3  Y   2.091468   1.020336  -0.206200  -0.402289   0.044841
   60  C   3  Z   0.456128  -2.402808  -1.290377   0.875802   1.181256
   61  C   3  X   0.600324  -0.847645   0.852546  -2.041730  -1.887770
   62  C   3  Y   2.725178   1.799374   0.655356  -0.023972   0.198093
   63  C   3  Z   1.747453  -0.628334  -2.378276  -0.001055  -1.068470
   64  C   3 XX   0.018797   0.004273  -0.038579  -0.000033   0.016047
   65  C   3 YY  -0.035452  -0.005581   0.015179  -0.004493  -0.009434
   66  C   3 ZZ   0.016655   0.001309   0.023400   0.004526  -0.006612
   67  C   3 XY  -0.005771   0.010532   0.025282   0.003821   0.001645
   68  C   3 XZ  -0.013164  -0.005941   0.003970   0.000618  -0.002582
   69  C   3 YZ  -0.011409  -0.011958   0.000130   0.005590   0.004771
   70  C   3 XX   0.241297  -0.065963  -0.324826  -0.005888  -0.166456
   71  C   3 YY  -0.301351   0.067067   0.609935   0.203933   0.253985
   72  C   3 ZZ   0.060054  -0.001104  -0.285109  -0.198044  -0.087529
   73  C   3 XY  -0.140010   0.048187  -0.098213   0.380740   0.141505
   74  C   3 XZ  -0.059242  -0.110169   0.431759   0.165246   0.363425
   75  C   3 YZ  -0.182772  -0.123564  -0.267298  -0.125291   0.403126
   76  H   4  S   0.045424  -0.043559   0.061285   0.009950   0.023921
   77  H   4  S  -0.944670   1.327077  -3.621349  -0.249139  -1.713178
   78  H   4  S  -0.724396   0.214350  -1.706090  -0.977020  -1.049059
   79  H   4  X  -0.007523  -0.003002  -0.007544  -0.004035  -0.003035
   80  H   4  Y  -0.003213  -0.005268   0.001705  -0.001014   0.002692
   81  H   4  Z   0.004099  -0.011453   0.016150  -0.004201   0.012681
   82  H   4  X  -0.207431   0.491803  -0.314057   0.240487  -0.815877
   83  H   4  Y  -0.347745   0.059642  -0.325689   0.517767  -0.746417
   84  H   4  Z  -0.167556  -1.028482   0.703777   0.717593   0.369073
   85  H   5  S   0.008147  -0.026291  -0.022329   0.028116  -0.021844
   86  H   5  S  -0.849012  -4.362138   2.278232   0.724872   0.675698
   87  H   5  S  -0.684023  -2.111920   2.346752   0.796838  -0.506633
   88  H   5  X   0.002345   0.005630  -0.001507   0.002705   0.005794
   89  H   5  Y  -0.007195   0.002335  -0.007256   0.005590   0.000484
   90  H   5  Z   0.001055   0.005904  -0.007609   0.001756  -0.004160
   91  H   5  X   0.378682   0.863070  -0.723908   0.271418   0.274000
   92  H   5  Y  -0.631400   0.037935   0.486932  -0.993900  -0.051150
   93  H   5  Z  -0.317807   0.699953  -0.262066  -0.040113   0.060103
   94  H   6  S  -0.026652  -0.053360  -0.063463   0.013008   0.050837
   95  H   6  S   4.536806   0.124078   1.289388  -1.279965  -1.928745
   96  H   6  S   3.084882   0.783470  -0.020979  -0.260116  -0.107888
   97  H   6  X   0.002870  -0.007127   0.005145   0.005217  -0.001363
   98  H   6  Y   0.012353   0.002449   0.006152   0.000338  -0.000635
   99  H   6  Z   0.004817  -0.003242  -0.003879  -0.002522   0.005043
  100  H   6  X  -0.040545  -0.358201   0.731014  -0.270806   0.586805
  101  H   6  Y   0.895805   0.085455   0.446730  -0.655766  -0.606683
  102  H   6  Z  -0.301501   0.110649  -0.610024   0.147230  -0.584188
  103  H   7  S   0.061104  -0.024012   0.000881  -0.065744  -0.018358
  104  H   7  S  -0.455918  -0.827134   0.030389  -2.679848  -5.261532
  105  H   7  S  -2.962840   1.126995   0.031733   0.207468   1.073328
  106  H   7  X  -0.002745   0.000322   0.001770   0.004875  -0.011700
  107  H   7  Y   0.010339   0.002037  -0.001046   0.000829  -0.000529
  108  H   7  Z   0.004061   0.000593   0.004045  -0.001931   0.005053
  109  H   7  X   0.035488  -1.349675   0.164915   0.209175  -0.425656
  110  H   7  Y   0.601337  -0.009560  -0.102472   0.887637   1.697219
  111  H   7  Z   0.153057   0.610585   0.352107   0.144318   0.634812
  112  H   8  S   0.046428  -0.043578  -0.061187   0.009837   0.024489
  113  H   8  S  -0.916164   1.377396   3.557051  -0.180287  -1.774710
  114  H   8  S  -0.731433   0.246104   1.673021  -0.932237  -1.047546
  115  H   8  X  -0.008466   0.005187   0.016108   0.000315  -0.010733
  116  H   8  Y  -0.002497  -0.010115  -0.006601  -0.003396   0.007037
  117  H   8  Z   0.001657   0.006365   0.002942   0.004826  -0.003891
  118  H   8  X  -0.081502   1.087303   0.749162  -0.233113  -0.971669
  119  H   8  Y  -0.424131  -0.290629   0.047542   0.821018  -0.659497
  120  H   8  Z   0.101494   0.250102   0.321833  -0.366349   0.056622
  121  H   9  S   0.008295  -0.026061   0.022062   0.028016  -0.021840
  122  H   9  S  -0.806014  -4.424304  -2.185960   0.726517   0.753838
  123  H   9  S  -0.716207  -2.153739  -2.342064   0.802339  -0.471326
  124  H   9  X  -0.000621   0.000233  -0.002976   0.001450   0.006896
  125  H   9  Y  -0.005421   0.005677   0.009807   0.006215  -0.000163
  126  H   9  Z  -0.005414  -0.006112  -0.002253  -0.000347  -0.001762
  127  H   9  X   0.354833   0.106742   0.228923   0.029397   0.122283
  128  H   9  Y  -0.626423   0.500250  -0.185979  -0.851586   0.016457
  129  H   9  Z  -0.348772  -1.001329  -0.836530  -0.592628  -0.230060
  130  H  10  S  -0.025665  -0.053285   0.064720   0.014005   0.049399
  131  H  10  S   4.548038   0.066679  -1.272465  -1.290999  -1.887630
  132  H  10  S   3.116709   0.764687   0.035301  -0.302815  -0.124820
  133  H  10  X   0.000716  -0.002124  -0.007551   0.005348  -0.004453
  134  H  10  Y   0.013439  -0.000633  -0.004919   0.000124   0.001436
  135  H  10  Z   0.000483   0.008053  -0.001236  -0.002454  -0.002113
  136  H  10  X   0.349525  -0.316277  -1.007978  -0.427177   0.702256
  137  H  10  Y   0.654661   0.035697  -0.278342  -0.569417  -0.661630
  138  H  10  Z   0.569135   0.223800  -0.016386  -0.171741  -0.329034
  139  F  11  S   0.002101  -0.007710   0.000010   0.006195   0.014798
  140  F  11  S  -0.018232  -0.038567  -0.000121   0.051213   0.083194
  141  F  11  S  -0.133300   0.034311  -0.001001   0.073926   0.048495
  142  F  11  S   2.631440  -0.451919   0.015571  -4.073587  -4.448763
  143  F  11  X  -0.024221   0.205862  -0.040238   0.069376   0.024352
  144  F  11  Y   0.067440   0.003466   0.023608  -0.072107  -0.038744
  145  F  11  Z   0.029165  -0.093308  -0.086289  -0.051435  -0.020836
  146  F  11  X  -0.124432   0.242145  -0.045574   0.240665   0.231716
  147  F  11  Y   0.063876  -0.059202   0.026536  -0.103778  -0.152652
  148  F  11  Z   0.072845  -0.125890  -0.095604  -0.137862  -0.145597
  149  F  11  X  -0.155716  -1.765755  -0.001745  -0.043726   1.257867
  150  F  11  Y  -0.486178   0.388994   0.006857  -0.563604   0.673641
  151  F  11  Z  -0.061307   0.915257  -0.034934  -0.126998  -0.393382
  152  F  11 XX   0.000017   0.000734  -0.003804  -0.002385   0.006192
  153  F  11 YY  -0.001104  -0.000093   0.000569   0.000943  -0.003830
  154  F  11 ZZ   0.001087  -0.000641   0.003236   0.001442  -0.002361
  155  F  11 XY  -0.000486   0.001607   0.000755  -0.007600  -0.000314
  156  F  11 XZ   0.000620  -0.000221  -0.004036  -0.000620  -0.005815
  157  F  11 YZ  -0.000595  -0.000608  -0.001792   0.003562   0.000483
  158  F  11 XX   0.003332   0.017361  -0.002458   0.004143  -0.005982
  159  F  11 YY  -0.002712  -0.015305   0.006738  -0.013278  -0.002005
  160  F  11 ZZ  -0.000620  -0.002056  -0.004280   0.009134   0.007987
  161  F  11 XY   0.011620   0.005409  -0.005626  -0.008736   0.017316
  162  F  11 XZ   0.002722  -0.010582  -0.004290   0.001078   0.017137
  163  F  11 YZ  -0.006743  -0.005706  -0.014026  -0.003526  -0.013803

                     61         62         63         64         65
                    0.4370     0.4441     0.4582     0.4647     0.4724
                     A          A          A          A          A   
    1  C   1  S   0.047106   0.007696   0.019322  -0.013864  -0.000383
    2  C   1  S   0.028878  -0.020946  -0.020956  -0.003525  -0.004173
    3  C   1  S  -3.656028  -1.897634  -0.836256   2.365135  -0.399456
    4  C   1  S -10.527057  -6.643835  -0.233737   3.721921   1.460973
    5  C   1  X  -0.026684   0.068241  -0.183361  -0.055979  -0.031289
    6  C   1  Y   0.138537   0.174353  -0.004498   0.002810   0.156336
    7  C   1  Z  -0.186038  -0.157463   0.052544   0.213115   0.152254
    8  C   1  X   0.710032   0.877431  -1.207337  -0.642577  -0.045541
    9  C   1  Y   1.469356   3.660627   0.621553  -1.934961   0.451336
   10  C   1  Z  -2.501587  -2.870381  -0.105738   4.404594   0.770243
   11  C   1  X  -0.611313   1.534889  -0.744863  -1.145587   0.337940
   12  C   1  Y  -0.451355   1.310811  -0.195797   0.229907   0.497942
   13  C   1  Z   0.320260   0.826695  -0.066304   0.915116   0.280408
   14  C   1 XX  -0.008382  -0.001853   0.003006   0.007245  -0.018372
   15  C   1 YY   0.003905  -0.016117  -0.018717  -0.008317   0.020931
   16  C   1 ZZ   0.004477   0.017970   0.015711   0.001072  -0.002559
   17  C   1 XY   0.000814   0.001549   0.001129  -0.006300   0.005620
   18  C   1 XZ  -0.010397   0.017197   0.019449   0.034228  -0.002601
   19  C   1 YZ  -0.010734  -0.020512   0.001351   0.014438   0.009031
   20  C   1 XX  -0.203554  -0.458862  -0.035233   0.275344  -1.325434
   21  C   1 YY   0.595362   0.535212  -0.117542   0.805962   0.563437
   22  C   1 ZZ  -0.391809  -0.076350   0.152776  -1.081306   0.761997
   23  C   1 XY   0.407549   0.065558   0.668148   0.319542   0.368688
   24  C   1 XZ  -0.273114  -0.034552   0.820719   0.182571  -0.236433
   25  C   1 YZ  -0.206664  -0.762274   0.304058   0.713222   0.667368
   26  C   2  S   0.041500   0.000972  -0.004423   0.000786   0.013406
   27  C   2  S   0.002739  -0.000394   0.028720   0.000279   0.002816
   28  C   2  S  -1.417289  -0.042568   1.190303  -0.058920  -1.493520
   29  C   2  S  16.738610   0.342525   2.202922  -0.093585  -5.408910
   30  C   2  X   0.149559  -0.079607   0.044019   0.084898  -0.057919
   31  C   2  Y   0.152734   0.052233  -0.012639  -0.052583  -0.087717
   32  C   2  Z  -0.022547  -0.180696  -0.027298   0.190539   0.001263
   33  C   2  X   1.041678  -2.299985   1.103196   2.133677  -1.171127
   34  C   2  Y   1.867187   1.412842   0.627637  -1.250056  -0.483888
   35  C   2  Z   0.135779  -5.119948  -0.448536   4.747387   0.323329
   36  C   2  X  -1.453146  -0.261061  -0.025056   0.216428  -0.174290
   37  C   2  Y  -2.403212   0.083675   0.609218  -0.153138  -0.595282
   38  C   2  Z   0.039236  -0.478882   0.177073   0.506772  -0.047052
   39  C   2 XX   0.003244  -0.001680   0.007411  -0.019280  -0.032383
   40  C   2 YY  -0.020702  -0.014723   0.016402  -0.002952   0.033385
   41  C   2 ZZ   0.017457   0.016403  -0.023812   0.022232  -0.001002
   42  C   2 XY  -0.016156   0.013468   0.025930   0.009996   0.004291
   43  C   2 XZ   0.005484   0.001875  -0.012014  -0.017237   0.023511
   44  C   2 YZ  -0.006515   0.027462   0.002719   0.004650   0.005195
   45  C   2 XX   0.059663   0.552472   0.076319  -0.561242   0.498373
   46  C   2 YY   0.512287   0.130030   0.253534   0.505621  -0.890717
   47  C   2 ZZ  -0.571950  -0.682502  -0.329853   0.055621   0.392344
   48  C   2 XY   0.604332  -0.286005  -0.356489  -0.321852  -0.217914
   49  C   2 XZ  -0.252464   0.527824  -0.431246  -0.720858  -0.121591
   50  C   2 YZ   0.113634  -0.148156   0.424036  -1.135392  -0.264776
   51  C   3  S   0.047091  -0.006468   0.018896   0.014617  -0.001897
   52  C   3  S   0.028376   0.022640  -0.020263   0.003378  -0.003457
   53  C   3  S  -3.698698   1.768164  -0.765255  -2.452725  -0.248783
   54  C   3  S -10.705311   6.191496   0.002299  -3.719460   1.696244
   55  C   3  X   0.147159  -0.178827  -0.169456   0.184754  -0.113730
   56  C   3  Y   0.044200  -0.101822  -0.022943  -0.071987   0.199816
   57  C   3  Z   0.186143  -0.108975   0.097312   0.080020   0.009478
   58  C   3  X   2.654430  -3.163344  -0.754839   3.933048  -0.641166
   59  C   3  Y   0.463610  -2.247993   0.193306   0.020260   0.721876
   60  C   3  Z   1.591642  -2.478535   1.110157   2.885743  -0.237846
   61  C   3  X  -0.681166  -0.691727  -0.531266   1.391122   0.058307
   62  C   3  Y  -0.334921  -1.830601  -0.412386  -0.337841   0.663449
   63  C   3  Z   0.026821   0.991162   0.539760  -0.394445  -0.126325
   64  C   3 XX   0.009417   0.002419  -0.007944   0.029404  -0.008599
   65  C   3 YY  -0.005352   0.019589  -0.007365  -0.005389   0.023117
   66  C   3 ZZ  -0.004065  -0.022008   0.015309  -0.024015  -0.014518
   67  C   3 XY   0.003282  -0.005007  -0.005811   0.007931   0.000013
   68  C   3 XZ   0.010938  -0.018332   0.005426   0.007300   0.007530
   69  C   3 YZ   0.008450   0.013516  -0.021366   0.020181   0.007411
   70  C   3 XX   0.082380   0.028950  -0.565136   0.641041  -0.157614
   71  C   3 YY   0.363428   0.079827   0.447891  -0.999439   1.079066
   72  C   3 ZZ  -0.445808  -0.108776   0.117245   0.358398  -0.921452
   73  C   3 XY   0.569799  -0.500131   0.285619  -0.417277  -0.487913
   74  C   3 XZ   0.120850  -0.576688   0.144413   0.846606   0.904068
   75  C   3 YZ   0.371509  -0.501579  -0.908439  -0.110478  -0.093193
   76  H   4  S   0.003615   0.003412  -0.101942  -0.094946  -0.085066
   77  H   4  S   3.515889   3.381561  -0.485144  -3.895273  -0.500742
   78  H   4  S   0.107018   1.232525  -0.888198  -2.629910  -0.466479
   79  H   4  X   0.002831  -0.001253   0.002213   0.007048   0.016886
   80  H   4  Y   0.004527  -0.003426  -0.002890   0.009268   0.008469
   81  H   4  Z  -0.002484   0.001906  -0.008228  -0.013466   0.001618
   82  H   4  X   1.259700   0.295333  -0.027487  -1.647666  -1.106927
   83  H   4  Y  -0.777548  -1.102303   0.076938  -0.049897   0.012294
   84  H   4  Z  -0.344732  -0.437129   0.668259   0.463807  -0.380495
   85  H   5  S  -0.033899   0.051174   0.133524   0.010985  -0.072019
   86  H   5  S   2.566848   2.284243   0.405468  -2.942015   0.054194
   87  H   5  S   1.491213  -1.291759   1.142894  -0.185835  -0.998459
   88  H   5  X  -0.002232   0.007665   0.004340   0.006866  -0.009118
   89  H   5  Y   0.002364  -0.006603  -0.002880   0.006434   0.011214
   90  H   5  Z  -0.000557   0.010335   0.018439   0.005243  -0.002172
   91  H   5  X  -0.895715  -1.038109  -0.192381   0.606520   0.804670
   92  H   5  Y  -0.885403  -0.768457  -0.187250  -0.488301  -0.739644
   93  H   5  Z   0.541918   0.234642  -1.193500   0.948921  -0.386616
   94  H   6  S   0.071124   0.043978  -0.035457   0.068902   0.133488
   95  H   6  S   0.974074   4.013954   0.926042  -3.505521   0.688993
   96  H   6  S   0.044685   2.559676  -0.079687   0.502080   0.938106
   97  H   6  X  -0.003489  -0.002350  -0.012879  -0.002313  -0.005276
   98  H   6  Y   0.001672   0.008857   0.006183   0.002464  -0.020060
   99  H   6  Z   0.001598   0.001281  -0.011768  -0.006368   0.001863
  100  H   6  X   0.369134  -0.063706   1.157060   0.415379  -0.170267
  101  H   6  Y   0.542538   1.137023   0.451212  -0.751611   1.049231
  102  H   6  Z   0.448942   0.091827   0.393499  -1.300558   0.214873
  103  H   7  S  -0.123453  -0.003203   0.042990  -0.000304  -0.004885
  104  H   7  S  -5.488614  -0.135168  -1.703276   0.029187   2.882731
  105  H   7  S  -0.167737  -0.009701  -0.703374   0.040723   1.739135
  106  H   7  X  -0.002657   0.009697   0.009478   0.004944   0.002447
  107  H   7  Y  -0.008953  -0.006259   0.005680  -0.002427   0.021248
  108  H   7  Z  -0.001788   0.022084  -0.002539   0.010721   0.004045
  109  H   7  X  -0.701460   0.534509  -0.096513  -0.005967   0.521101
  110  H   7  Y   1.464520  -0.277994   0.076852   0.002042  -0.647560
  111  H   7  Z   0.674672   1.229091   0.086349  -0.035943  -0.412076
  112  H   8  S   0.002701  -0.000344  -0.104450   0.090015  -0.096605
  113  H   8  S   3.664149  -3.171384  -0.618828   3.898657  -0.565331
  114  H   8  S   0.163337  -1.186846  -0.966111   2.604422  -0.656659
  115  H   8  X   0.004630   0.002697   0.007112  -0.015599   0.012709
  116  H   8  Y   0.003526   0.002855  -0.005624  -0.003483   0.011422
  117  H   8  Z   0.001314   0.001631   0.002071  -0.007057  -0.009301
  118  H   8  X   0.968904  -0.241919  -0.511023   1.441032  -0.551178
  119  H   8  Y  -0.644948   1.051486   0.378934   0.146540  -0.362107
  120  H   8  Z  -1.030512   0.376633  -0.309315  -0.854942   0.978211
  121  H   9  S  -0.031601  -0.055950   0.133935  -0.013854  -0.067317
  122  H   9  S   2.646671  -2.125802   0.338802   3.060436  -0.098600
  123  H   9  S   1.447152   1.334568   1.225127   0.166464  -0.942237
  124  H   9  X  -0.000755   0.003622  -0.010644  -0.002193  -0.002767
  125  H   9  Y   0.001467  -0.000075   0.005962  -0.008934   0.007888
  126  H   9  Z   0.002205   0.014462  -0.014411   0.005499   0.012674
  127  H   9  X  -1.196695   0.939117   0.711755   0.377039   0.730434
  128  H   9  Y  -0.769547   0.769295  -0.671853  -0.128918  -0.670525
  129  H   9  Z  -0.036131  -0.279522   0.734035   1.191292  -0.706174
  130  H  10  S   0.072504  -0.040947  -0.036939  -0.064783   0.137049
  131  H  10  S   1.023978  -4.058596   0.791278   3.526486   0.557324
  132  H  10  S   0.117826  -2.569980  -0.168868  -0.462283   0.996125
  133  H  10  X  -0.003288   0.000616   0.000785  -0.003824  -0.009081
  134  H  10  Y   0.001823  -0.007623  -0.002095   0.000270  -0.018417
  135  H  10  Z   0.002661  -0.005064   0.018249  -0.006355  -0.005376
  136  H  10  X   0.034561  -0.108974   0.595889  -1.063854   0.009588
  137  H  10  Y   0.753981  -1.052765   0.754776   1.165297   0.944987
  138  H  10  Z  -0.286417  -0.464572  -0.884242  -0.108538   0.415547
  139  F  11  S  -0.002487  -0.000103   0.010646   0.000040   0.000713
  140  F  11  S  -0.015904  -0.000402   0.035023  -0.000397  -0.012171
  141  F  11  S  -0.012936   0.001104  -0.102688  -0.004098  -0.128254
  142  F  11  S  -0.941631  -0.008249  -1.680955   0.035185   1.480445
  143  F  11  X   0.022619   0.015044   0.038411   0.007898  -0.024406
  144  F  11  Y  -0.051561  -0.009976  -0.017810  -0.004549   0.017613
  145  F  11  Z  -0.025292   0.034497  -0.021985   0.019183   0.013590
  146  F  11  X  -0.003062   0.015008   0.149373  -0.048103  -0.151102
  147  F  11  Y  -0.153565  -0.012786  -0.033963   0.026144  -0.013028
  148  F  11  Z  -0.040666   0.037764  -0.075333  -0.096419   0.066789
  149  F  11  X  -0.546726   0.258209   0.571142   0.201464  -0.267068
  150  F  11  Y   0.686048  -0.141527   0.055774  -0.121140  -0.048757
  151  F  11  Z   0.415950   0.596665  -0.242082   0.460384   0.103200
  152  F  11 XX  -0.003790   0.005022   0.002217   0.000579  -0.003075
  153  F  11 YY   0.001864   0.001920   0.000593  -0.000371   0.002962
  154  F  11 ZZ   0.001927  -0.006942  -0.002810  -0.000209   0.000113
  155  F  11 XY   0.000301  -0.003609  -0.000798   0.000240   0.000747
  156  F  11 XZ   0.003628   0.004743  -0.003756   0.000868   0.002165
  157  F  11 YZ  -0.000486  -0.003141   0.001896   0.000977   0.000103
  158  F  11 XX   0.009068  -0.001795  -0.004786   0.012371   0.028291
  159  F  11 YY  -0.003849   0.001909  -0.008596  -0.002028  -0.003685
  160  F  11 ZZ  -0.005220  -0.000114   0.013382  -0.010343  -0.024606
  161  F  11 XY   0.007626  -0.001042   0.002002  -0.001951   0.019479
  162  F  11 XZ  -0.006603  -0.002744   0.014059   0.011664  -0.028971
  163  F  11 YZ  -0.002443  -0.004127  -0.010253   0.005264   0.001015

                     66         67         68         69         70
                    0.4838     0.4951     0.5045     0.5105     0.5299
                     A          A          A          A          A   
    1  C   1  S  -0.016744  -0.037368   0.042676   0.017943   0.041666
    2  C   1  S   0.027592  -0.008006  -0.028494   0.015796  -0.012259
    3  C   1  S   0.846700   2.379493  -3.763291  -1.012270  -1.119103
    4  C   1  S  -0.523173   1.781911  -1.014426   1.027634  -3.128279
    5  C   1  X  -0.153057  -0.038497   0.023118   0.065134   0.057806
    6  C   1  Y   0.166511  -0.111600  -0.081445   0.042325  -0.033117
    7  C   1  Z  -0.046036  -0.130033   0.149921   0.068901   0.096517
    8  C   1  X  -0.943321  -0.906580  -2.890643  -0.326188   1.504941
    9  C   1  Y   1.338697   0.404057  -3.359009   0.585023  -0.830028
   10  C   1  Z  -1.102690  -0.622750  -0.701126   0.773370   4.048448
   11  C   1  X   0.238528   0.601406  -0.148435  -0.522509   0.027931
   12  C   1  Y   1.070263   0.020852  -0.353016   0.409759  -0.255489
   13  C   1  Z   0.368589  -0.141287   0.477822  -0.394681   1.550144
   14  C   1 XX  -0.008410   0.005984  -0.005910  -0.008279  -0.009456
   15  C   1 YY   0.024772  -0.004213   0.004998   0.023140   0.003613
   16  C   1 ZZ  -0.016361  -0.001771   0.000912  -0.014861   0.005843
   17  C   1 XY   0.002141  -0.001353  -0.006647  -0.005849  -0.010912
   18  C   1 XZ  -0.013687   0.005698  -0.009367  -0.007905  -0.005612
   19  C   1 YZ   0.001655  -0.005269  -0.013343  -0.005849  -0.008432
   20  C   1 XX  -0.799309   0.630645  -0.503340  -0.394146   1.235907
   21  C   1 YY   0.534756  -1.083261   0.770235   0.147445   0.020823
   22  C   1 ZZ   0.264553   0.452616  -0.266895   0.246701  -1.256730
   23  C   1 XY   0.000857   0.413455  -0.806844  -0.575025  -0.405755
   24  C   1 XZ   1.441089   0.266858   0.002979  -0.490444   0.369975
   25  C   1 YZ  -0.297798  -0.437586   0.398027   0.222673   1.956346
   26  C   2  S   0.000192   0.002038  -0.054295   0.000232  -0.102471
   27  C   2  S   0.001364  -0.001906   0.085015   0.003094   0.007775
   28  C   2  S  -0.016426  -0.184902   4.728814  -0.030105   9.395716
   29  C   2  S  -0.181084  -0.295092   0.774125  -0.292405  11.207925
   30  C   2  X  -0.073020  -0.015688  -0.042717   0.015229  -0.053222
   31  C   2  Y   0.038113   0.013120  -0.085314  -0.010560  -0.068610
   32  C   2  Z  -0.159994  -0.040738  -0.003728   0.037665   0.005622
   33  C   2  X  -0.568469  -0.470004   0.055766   0.487750  -2.758590
   34  C   2  Y   0.294304   0.298245  -0.949040  -0.187428  -3.762144
   35  C   2  Z  -1.213315  -1.091629  -0.336052   0.850986   0.259781
   36  C   2  X  -0.439252  -0.823149  -0.483769  -0.217653  -1.597554
   37  C   2  Y   0.245163   0.597148  -1.564650   0.169719  -3.436374
   38  C   2  Z  -0.983140  -1.882909  -0.184857  -0.514460  -0.257234
   39  C   2 XX  -0.026284   0.005016   0.021689  -0.002855   0.004510
   40  C   2 YY  -0.007566   0.005184  -0.029777   0.002509   0.006634
   41  C   2 ZZ   0.033850  -0.010200   0.008088   0.000347  -0.011143
   42  C   2 XY   0.016604  -0.005895  -0.010178  -0.003146  -0.005504
   43  C   2 XZ  -0.023416   0.004362  -0.009582  -0.005466  -0.014114
   44  C   2 YZ   0.012049  -0.008582  -0.006526  -0.009785   0.010121
   45  C   2 XX   0.687018  -0.035499   0.092509  -0.264583  -0.026173
   46  C   2 YY   0.084894  -0.174474  -1.080703  -0.289173  -0.713718
   47  C   2 ZZ  -0.771912   0.209974   0.988194   0.553756   0.739891
   48  C   2 XY  -0.345358   0.221305  -0.698152   0.314537  -0.148056
   49  C   2 XZ   0.650731  -0.000513   0.433505  -0.202579   0.514221
   50  C   2 YZ  -0.122746   0.399691  -0.431690   0.478009  -0.457645
   51  C   3  S   0.017512   0.035947   0.044768  -0.015013   0.042019
   52  C   3  S  -0.028494   0.010038  -0.026110  -0.016923  -0.013158
   53  C   3  S  -0.924663  -2.269552  -3.856254   0.642220  -1.174779
   54  C   3  S   0.628462  -1.526937  -0.941431  -0.906728  -3.290660
   55  C   3  X   0.030754  -0.042638  -0.108651  -0.007567  -0.035521
   56  C   3  Y  -0.089318   0.160329   0.012929  -0.082892   0.017216
   57  C   3  Z  -0.206661  -0.044316  -0.139016   0.059920  -0.108449
   58  C   3  X  -0.471428   0.190596  -2.119101   0.577737  -1.911392
   59  C   3  Y  -0.570823   0.254485  -3.752463  -1.197708   1.106056
   60  C   3  Z  -1.827794  -1.151992   1.030190   0.287078  -3.779834
   61  C   3  X  -0.094843  -0.442047  -0.510418   0.025751  -1.138872
   62  C   3  Y  -1.127013  -0.079676  -0.098902  -0.138202   0.396645
   63  C   3  Z  -0.068845   0.398137  -0.213934  -0.718669  -1.072384
   64  C   3 XX  -0.000663   0.001617   0.006682   0.004373   0.003272
   65  C   3 YY  -0.015278   0.006812  -0.006172  -0.009561  -0.006582
   66  C   3 ZZ   0.015941  -0.008429  -0.000511   0.005188   0.003310
   67  C   3 XY  -0.007466  -0.003571   0.002260  -0.006122  -0.005829
   68  C   3 XZ   0.003336   0.001192   0.007568  -0.000104   0.009028
   69  C   3 YZ  -0.020049   0.001023   0.017279  -0.023138   0.011677
   70  C   3 XX   1.331122  -0.416082  -0.631510  -0.185825  -0.932010
   71  C   3 YY  -0.388677   0.833791   0.604940  -0.062005   1.056666
   72  C   3 ZZ  -0.942445  -0.417710   0.026569   0.247829  -0.124656
   73  C   3 XY  -0.286495  -0.239368  -0.646005   0.652726  -0.645518
   74  C   3 XZ  -0.862301  -0.010361  -0.043093  -0.022360  -2.062094
   75  C   3 YZ   0.209248   0.846582   0.884628  -0.395377  -0.449694
   76  H   4  S  -0.156665   0.005210  -0.003498  -0.017045   0.088791
   77  H   4  S   1.866166  -2.734135  -0.503922  -2.412655  -1.052019
   78  H   4  S  -1.094742   0.499373  -0.163929  -0.219710  -0.541437
   79  H   4  X   0.004749  -0.010654   0.003432   0.005353  -0.006742
   80  H   4  Y   0.000166  -0.007400   0.007923   0.008662   0.005004
   81  H   4  Z  -0.004825   0.000682   0.015743   0.002557  -0.001463
   82  H   4  X   0.262264  -1.381777  -0.251708  -1.250365   0.490279
   83  H   4  Y  -0.797313   1.039312  -0.420577  -0.119174  -0.515893
   84  H   4  Z   1.022303   0.500306  -0.286081  -0.158895   0.472704
   85  H   5  S   0.056388   0.122748  -0.048330  -0.131998   0.012875
   86  H   5  S  -0.225291  -0.077234   7.901973   0.402711  -6.691865
   87  H   5  S   0.050638   0.439694   0.012180   0.172881  -0.606698
   88  H   5  X  -0.012401   0.012891  -0.005366  -0.008308  -0.004159
   89  H   5  Y   0.009925  -0.010049   0.006161  -0.006343  -0.004476
   90  H   5  Z  -0.004703  -0.002486  -0.015436  -0.011042  -0.004910
   91  H   5  X   0.624415  -0.964651  -2.383934   0.124696   1.774115
   92  H   5  Y   0.004947   0.688074  -0.496864   0.973957   0.166501
   93  H   5  Z  -1.004423   0.230131  -2.366717   0.256442   1.763924
   94  H   6  S   0.086789  -0.123627   0.035388   0.073339   0.082481
   95  H   6  S   0.470720   1.854722  -5.529051   2.522925   0.630991
   96  H   6  S   1.651659  -1.040281  -0.303206   0.723240  -0.167584
   97  H   6  X  -0.008071  -0.003441   0.014136   0.004901   0.004335
   98  H   6  Y  -0.015276   0.009092  -0.005578  -0.008314   0.000367
   99  H   6  Z   0.005314  -0.005680   0.023791   0.006757  -0.002946
  100  H   6  X   0.834588   0.535462  -0.482045   0.179627  -0.069846
  101  H   6  Y   0.154735  -0.052704  -1.554213   1.599793   0.836669
  102  H   6  Z   0.072265   0.850811  -1.222290   0.970481   0.933413
  103  H   7  S  -0.001706   0.004003  -0.188970  -0.008002  -0.017064
  104  H   7  S   0.087195   0.051370   0.889615  -0.011498   2.609437
  105  H   7  S   0.048624  -0.058580   1.383444   0.001071   1.781557
  106  H   7  X   0.002291  -0.005317  -0.007699  -0.001371  -0.006206
  107  H   7  Y  -0.000893   0.003332  -0.010964  -0.000389   0.010358
  108  H   7  Z   0.004806  -0.012500   0.000373  -0.002386   0.005568
  109  H   7  X   0.011005   0.142641   0.647532  -0.491124   0.703776
  110  H   7  Y  -0.012397  -0.132045   0.826807   0.348500  -0.767601
  111  H   7  Z  -0.009705   0.346719   0.006369  -1.112364  -0.550609
  112  H   8  S   0.149813  -0.007606  -0.009423   0.014063   0.092130
  113  H   8  S  -1.926359   2.754662  -0.622529   2.363648  -0.623701
  114  H   8  S   1.065320  -0.480210  -0.230919   0.231890  -0.498162
  115  H   8  X  -0.005944   0.009647  -0.006175  -0.004293  -0.002813
  116  H   8  Y   0.001494   0.007505   0.015825  -0.008643   0.002405
  117  H   8  Z   0.000099  -0.003508  -0.008460   0.000472   0.007661
  118  H   8  X   0.660614   1.093442  -0.101870   0.750761   0.062675
  119  H   8  Y   0.213061  -0.831895  -0.635377   0.375182  -0.188727
  120  H   8  Z   1.161460  -1.140496   0.184610  -0.877558  -0.909175
  121  H   9  S  -0.060035  -0.118561  -0.065496   0.126917   0.018340
  122  H   9  S   0.395474  -0.175665   7.928322   0.769468  -6.706287
  123  H   9  S  -0.080920  -0.416585   0.002447  -0.118094  -0.638752
  124  H   9  X   0.003061  -0.009135   0.008162  -0.000152  -0.000302
  125  H   9  Y  -0.003981   0.007699  -0.002543   0.011762  -0.006177
  126  H   9  Z  -0.014974   0.011037   0.016827  -0.008497   0.003406
  127  H   9  X  -1.098898   0.697266   0.031173  -0.095182  -0.013309
  128  H   9  Y   0.214568  -0.463408  -1.823802  -1.244803   1.157850
  129  H   9  Z  -0.092631  -0.926362   2.793023   0.244031  -2.202971
  130  H  10  S  -0.080864   0.120159   0.050324  -0.076710   0.078680
  131  H  10  S  -0.523116  -1.559570  -5.399866  -3.025423   0.288837
  132  H  10  S  -1.617256   1.055594  -0.133038  -0.741238  -0.229207
  133  H  10  X   0.011551  -0.003053  -0.009044   0.002417   0.004896
  134  H  10  Y   0.012233  -0.005373   0.006422   0.004666   0.000096
  135  H  10  Z   0.003040  -0.008079  -0.027037   0.008610  -0.000652
  136  H  10  X  -0.535904   0.273348   0.254771   0.321835  -0.543026
  137  H  10  Y  -0.310050  -0.311396  -1.833688  -2.083339   0.952900
  138  H  10  Z   0.592743   0.872718   0.393786   0.050115  -0.161671
  139  F  11  S   0.000112  -0.000116   0.006920   0.000369   0.000452
  140  F  11  S  -0.000494  -0.000027  -0.000578   0.000290   0.015542
  141  F  11  S  -0.006495   0.002068  -0.157930  -0.007588   0.100838
  142  F  11  S   0.025602   0.025644  -1.017293  -0.043071  -1.586233
  143  F  11  X   0.040648  -0.006164   0.054372   0.008869   0.045879
  144  F  11  Y  -0.023620   0.003850  -0.050611  -0.006669  -0.007574
  145  F  11  Z   0.088331  -0.010914  -0.041019   0.015667  -0.021760
  146  F  11  X   0.019019  -0.005621   0.210293   0.028486   0.172661
  147  F  11  Y  -0.011679   0.001049  -0.041995  -0.014425   0.008785
  148  F  11  Z   0.043805  -0.001203  -0.110442   0.042104  -0.074826
  149  F  11  X  -0.084269   0.301518   0.494669   0.183911   0.298213
  150  F  11  Y   0.042507  -0.186231   0.108565  -0.099597   0.522276
  151  F  11  Z  -0.172632   0.658671  -0.198050   0.310354   0.025125
  152  F  11 XX   0.004476   0.003269   0.004491   0.002148   0.007248
  153  F  11 YY  -0.002479  -0.000234  -0.009518   0.000285  -0.002273
  154  F  11 ZZ  -0.001997  -0.003035   0.005027  -0.002434  -0.004974
  155  F  11 XY   0.000861  -0.000629  -0.004682  -0.001687   0.003009
  156  F  11 XZ   0.005297   0.003561  -0.001094   0.002047  -0.006797
  157  F  11 YZ   0.005644   0.001505  -0.002345  -0.001179   0.000233
  158  F  11 XX   0.005619   0.001421  -0.013055  -0.005496  -0.020498
  159  F  11 YY  -0.001348  -0.010047  -0.000679   0.007853   0.030662
  160  F  11 ZZ  -0.004271   0.008627   0.013734  -0.002357  -0.010164
  161  F  11 XY  -0.000597   0.009417   0.000133  -0.006887   0.012501
  162  F  11 XZ   0.004747   0.003473   0.018903  -0.005880   0.010313
  163  F  11 YZ   0.002549   0.020709  -0.005460  -0.018099   0.005331

                     71         72         73         74         75
                    0.5411     0.5585     0.5685     0.5958     0.6079
                     A          A          A          A          A   
    1  C   1  S  -0.011660  -0.100868   0.008122  -0.000419  -0.015751
    2  C   1  S  -0.002328  -0.008741   0.022700   0.001618  -0.012845
    3  C   1  S   1.099354   8.642451   0.214479   1.348186  -0.707587
    4  C   1  S   4.608654   7.202705  12.815906   3.303704  -5.200340
    5  C   1  X  -0.086831   0.169577  -0.014956   0.011737   0.036850
    6  C   1  Y   0.044306   0.070285  -0.019078   0.082258   0.087789
    7  C   1  Z   0.049946  -0.020351   0.034707   0.054443   0.011085
    8  C   1  X   1.791138  -0.734234   3.172017  -4.765192   2.133939
    9  C   1  Y  -2.661500   1.347620  -1.104704  -0.256538  -0.026703
   10  C   1  Z   0.124888  -3.461252   1.598023  -2.551505  -4.048139
   11  C   1  X   0.237583  -0.269803   0.746620  -1.012363  -0.065380
   12  C   1  Y   0.373276   1.690733   1.045567   0.104407  -0.560315
   13  C   1  Z  -0.809441  -2.619041  -2.999989  -1.766475   0.746132
   14  C   1 XX  -0.008024  -0.011189   0.014786  -0.006585  -0.005608
   15  C   1 YY   0.011618   0.000876   0.005834   0.014741   0.003273
   16  C   1 ZZ  -0.003594   0.010313  -0.020620  -0.008156   0.002335
   17  C   1 XY   0.012627  -0.012787  -0.002309   0.012495  -0.012569
   18  C   1 XZ   0.007848  -0.015975   0.006103  -0.009867   0.013727
   19  C   1 YZ   0.000161  -0.008833   0.013741   0.003964   0.004070
   20  C   1 XX  -0.151732  -1.164332   0.132269  -0.340150  -1.867226
   21  C   1 YY   0.454201   0.555966   0.632192   0.398375  -0.235443
   22  C   1 ZZ  -0.302469   0.608366  -0.764462  -0.058225   2.102669
   23  C   1 XY   0.621062  -1.052164   0.222387  -0.695739  -0.240405
   24  C   1 XZ   0.455351  -0.989293   1.123906  -1.319197   0.472365
   25  C   1 YZ   0.940157  -0.812359  -0.507661   0.757182  -0.261114
   26  C   2  S  -0.052458  -0.001174   0.031736   0.000038   0.011039
   27  C   2  S  -0.017246  -0.000608   0.039816   0.000279  -0.005228
   28  C   2  S   6.459623   0.156749  -4.533039  -0.010110  -0.266986
   29  C   2  S -12.030096   0.412671 -31.224745  -0.188182  11.621621
   30  C   2  X   0.111721  -0.104460   0.164281  -0.047951   0.081639
   31  C   2  Y  -0.058868   0.061154  -0.027692   0.026793   0.086930
   32  C   2  Z  -0.061364  -0.227110  -0.086620  -0.104903  -0.013436
   33  C   2  X  -2.568590  -2.761514  -0.867562  -0.471975   3.257038
   34  C   2  Y   1.917578   1.746004  -6.163886   0.204365   7.790612
   35  C   2  Z   1.807059  -6.021442  -1.363629  -0.986636   0.775112
   36  C   2  X   1.730793  -2.276402   2.100012   0.479405  -2.132624
   37  C   2  Y   1.480398   1.233768   5.307009  -0.238484  -2.237408
   38  C   2  Z  -0.289062  -5.020198   0.366388   0.987268   0.389962
   39  C   2 XX  -0.017760  -0.003638   0.023405   0.015030   0.010675
   40  C   2 YY   0.003361  -0.001336  -0.040558   0.002022   0.025060
   41  C   2 ZZ   0.014398   0.004974   0.017153  -0.017052  -0.035735
   42  C   2 XY   0.008022   0.002752   0.019658  -0.007630   0.019912
   43  C   2 XZ   0.025690  -0.002159   0.006582   0.015167  -0.025924
   44  C   2 YZ  -0.011091   0.003913  -0.029272  -0.002532   0.013727
   45  C   2 XX  -0.274033   1.221564   0.495888   0.741872  -0.000319
   46  C   2 YY   0.148556  -0.434096  -1.045318  -0.817242   0.063087
   47  C   2 ZZ   0.125477  -0.787468   0.549430   0.075370  -0.062769
   48  C   2 XY   0.640265   0.025935   0.107998   0.553494  -1.314542
   49  C   2 XZ   0.483089   1.365079   0.200062   0.963956  -0.631109
   50  C   2 YZ  -0.387169   1.083670  -0.586287   1.744472   0.739269
   51  C   3  S  -0.014395   0.100254   0.011235   0.000580  -0.016889
   52  C   3  S  -0.002681   0.007954   0.022700  -0.001371  -0.014371
   53  C   3  S   1.325807  -8.627365  -0.077294  -1.335049  -0.684389
   54  C   3  S   4.868001  -7.560688  12.558025  -3.152862  -5.258245
   55  C   3  X  -0.082979  -0.142256  -0.043052   0.014556   0.031842
   56  C   3  Y   0.045796  -0.086791  -0.009674  -0.099542   0.090259
   57  C   3  Z   0.052035   0.080952  -0.012435   0.003982   0.007117
   58  C   3  X   0.726820  -2.238521   0.713744   1.391838   4.471911
   59  C   3  Y  -1.983996   0.294977   0.326203   2.193401  -1.094217
   60  C   3  Z  -2.363749  -2.965644  -3.680047  -4.734332   0.802493
   61  C   3  X   0.879164  -2.090876   2.767357  -0.574141  -0.673606
   62  C   3  Y   0.074490  -0.336943  -0.160042   0.843952  -0.184654
   63  C   3  Z   0.516932  -2.423757   1.510833  -1.740542  -0.637541
   64  C   3 XX  -0.008675  -0.012405  -0.012349  -0.003114  -0.016870
   65  C   3 YY   0.012954   0.009677   0.010716  -0.014815   0.003629
   66  C   3 ZZ  -0.004279   0.002727   0.001633   0.017929   0.013241
   67  C   3 XY   0.011075   0.010864   0.002563  -0.008685  -0.009749
   68  C   3 XZ   0.007047  -0.009767  -0.022795  -0.000373   0.003034
   69  C   3 YZ  -0.002748  -0.015711  -0.000591  -0.005531   0.000945
   70  C   3 XX  -0.656324  -0.556928  -1.098939  -0.598645  -0.146388
   71  C   3 YY   1.149221   0.489010   0.278760  -0.377756  -0.133884
   72  C   3 ZZ  -0.492897   0.067918   0.820179   0.976401   0.280272
   73  C   3 XY   0.084237   0.601128   1.010668   1.031737  -0.944089
   74  C   3 XZ  -0.206899  -1.025795  -0.021053   0.358538   2.181161
   75  C   3 YZ  -0.488440  -1.513846  -0.011027  -0.905988  -0.352328
   76  H   4  S  -0.114323   0.008284  -0.083720  -0.021902  -0.023551
   77  H   4  S   4.415703  -2.062178   6.405873  -8.340630   8.108750
   78  H   4  S   0.283742   0.761549   0.817626  -0.003519  -0.347679
   79  H   4  X   0.016297   0.000497  -0.009573   0.009462  -0.003805
   80  H   4  Y   0.004357   0.010465   0.014449   0.009414   0.012745
   81  H   4  Z  -0.024057   0.013929  -0.026876   0.000125  -0.009647
   82  H   4  X   0.905742  -1.009987   2.302542  -2.784968   2.802354
   83  H   4  Y  -0.056964  -0.508527  -0.704426   0.042299  -0.834898
   84  H   4  Z  -0.803577   0.350995  -0.501511   1.207701  -2.057474
   85  H   5  S   0.048726  -0.203931   0.010401  -0.062233  -0.028699
   86  H   5  S  -2.193912   3.300897  -6.838637  10.727602  -0.508878
   87  H   5  S  -0.231962   1.190785  -0.024180   0.626147   0.344697
   88  H   5  X  -0.009969  -0.014844  -0.008020  -0.003080  -0.010599
   89  H   5  Y   0.007586  -0.004909   0.004842   0.020442   0.000322
   90  H   5  Z   0.012098  -0.019205   0.004675  -0.020148   0.006444
   91  H   5  X   0.380542  -0.089959   2.315071  -3.725975   1.494365
   92  H   5  Y  -0.337110  -0.124252   0.424610  -1.319417   0.602305
   93  H   5  Z   0.519366   0.104049   1.210726  -2.170310  -0.937855
   94  H   6  S   0.087157  -0.059281   0.006712   0.086318   0.042083
   95  H   6  S  -5.350673  -3.359905  -1.371246  -3.225520  -1.327135
   96  H   6  S   0.152598   0.932840   0.298406  -0.140478  -0.298287
   97  H   6  X  -0.016447   0.016954  -0.012306   0.008598  -0.000264
   98  H   6  Y  -0.010752   0.003170   0.005492  -0.018042  -0.020700
   99  H   6  Z   0.020929  -0.005258   0.000099   0.001949   0.008350
  100  H   6  X   0.194671  -0.866116   0.787645  -1.057350   0.329014
  101  H   6  Y  -2.161540  -1.741026  -0.350533  -0.625094  -0.466017
  102  H   6  Z  -0.142846  -0.168747  -1.465127   0.100723   0.392206
  103  H   7  S  -0.051349   0.000526  -0.139982  -0.000454   0.014933
  104  H   7  S  -5.619776  -0.296972  13.743617   0.100863 -11.565589
  105  H   7  S  -0.136569   0.039594  -1.581752  -0.004704   0.823796
  106  H   7  X   0.018439  -0.001231   0.011783  -0.000586   0.004321
  107  H   7  Y   0.009179   0.001358  -0.031029   0.000260   0.013704
  108  H   7  Z  -0.005931  -0.002744  -0.013636  -0.001472   0.001517
  109  H   7  X  -0.714395   0.333377   0.166199  -0.863264   1.581569
  110  H   7  Y   3.064806  -0.094922  -4.001055   0.467955   4.474063
  111  H   7  Z   1.126611   0.812001  -1.129829  -1.873220   0.460156
  112  H   8  S  -0.114734  -0.007547  -0.083860   0.021938  -0.026352
  113  H   8  S   4.418891   1.938682   6.419675   8.277606   8.242392
  114  H   8  S   0.303256  -0.792547   0.788764   0.005765  -0.337629
  115  H   8  X   0.028947   0.007788   0.015374  -0.007964   0.006775
  116  H   8  Y  -0.002808  -0.015139  -0.000923  -0.010350   0.006147
  117  H   8  Z   0.003807   0.002769   0.028304   0.002400   0.013458
  118  H   8  X   1.170250   0.990220   1.795358   2.709910   3.257908
  119  H   8  Y  -0.227078   0.502098  -0.345717   0.027600  -1.017303
  120  H   8  Z  -0.222900  -0.246663  -1.648080  -1.304670  -1.186468
  121  H   9  S   0.045200   0.204323   0.019359   0.061702  -0.026573
  122  H   9  S  -2.072558  -3.063289  -6.897958 -10.666985  -0.723425
  123  H   9  S  -0.212367  -1.199729  -0.079625  -0.632884   0.335366
  124  H   9  X  -0.014020  -0.002601  -0.007812  -0.015893  -0.012384
  125  H   9  Y   0.009825   0.015303   0.005258  -0.009035   0.001290
  126  H   9  Z   0.003770  -0.019284   0.004198  -0.021994   0.002973
  127  H   9  X  -0.168163   0.113303   0.773700   1.186159   1.806265
  128  H   9  Y  -0.040415   0.036832   1.322249   2.783670   0.505752
  129  H   9  Z  -0.700536   0.126831  -2.118131  -3.297774  -0.344128
  130  H  10  S   0.085496   0.060143   0.008109  -0.087277   0.042463
  131  H  10  S  -5.490981   3.241531  -1.213151   3.154424  -0.901837
  132  H  10  S   0.204727  -0.929262   0.287755   0.152042  -0.286926
  133  H  10  X  -0.027720  -0.016326  -0.007859  -0.001172  -0.010469
  134  H  10  Y  -0.004071  -0.004152   0.002424   0.013747  -0.015135
  135  H  10  Z  -0.004919   0.007232   0.011183   0.014857  -0.013234
  136  H  10  X  -0.192348   0.731714   1.534187   0.917381  -0.090732
  137  H  10  Y  -2.008149   1.744989  -0.698857   0.676891  -0.056739
  138  H  10  Z  -0.960271  -0.008408   0.127472  -0.424710  -0.576506
  139  F  11  S  -0.003834  -0.000213   0.013313  -0.000011   0.005960
  140  F  11  S  -0.085416  -0.000568  -0.031313  -0.000621   0.035482
  141  F  11  S  -0.359411   0.002120  -0.506514  -0.003280   0.028011
  142  F  11  S   7.611749   0.032914   3.563889   0.036204  -2.576600
  143  F  11  X  -0.052080  -0.001439  -0.007297  -0.029817   0.033137
  144  F  11  Y  -0.003571   0.001617  -0.087623   0.017537  -0.002122
  145  F  11  Z   0.022806  -0.001566  -0.019646  -0.065154  -0.015386
  146  F  11  X  -0.410327  -0.024957  -0.061720  -0.027805   0.081590
  147  F  11  Y   0.019727   0.012062  -0.031225   0.016337  -0.055301
  148  F  11  Z   0.191734  -0.045032   0.019522  -0.058434  -0.053213
  149  F  11  X  -2.848299   0.109251   0.156625  -0.476037   0.994543
  150  F  11  Y   0.318649  -0.072191  -0.715749   0.272717   0.421146
  151  F  11  Z   1.379907   0.362868  -0.255922  -1.020961  -0.346260
  152  F  11 XX  -0.003184   0.003516  -0.000294  -0.002645   0.001561
  153  F  11 YY  -0.000040  -0.001173   0.002874  -0.003305  -0.002167
  154  F  11 ZZ   0.003224  -0.002343  -0.002579   0.005949   0.000606
  155  F  11 XY  -0.003952  -0.000162  -0.001931   0.004143  -0.003021
  156  F  11 XZ   0.002767   0.004056  -0.002507  -0.001711  -0.001863
  157  F  11 YZ   0.000387   0.002766   0.003114   0.006169   0.000874
  158  F  11 XX   0.067186   0.012531   0.022902   0.003762   0.005342
  159  F  11 YY  -0.055910  -0.000622   0.001009   0.000039  -0.002029
  160  F  11 ZZ  -0.011276  -0.011908  -0.023911  -0.003801  -0.003314
  161  F  11 XY  -0.015425  -0.004072  -0.032129  -0.001803   0.024003
  162  F  11 XZ  -0.056980   0.012086  -0.045751   0.003347   0.005331
  163  F  11 YZ   0.000046   0.000847   0.029919   0.000191  -0.011412

                     76         77         78         79         80
                    0.6301     0.6382     0.6436     0.6604     0.6843
                     A          A          A          A          A   
    1  C   1  S  -0.061639  -0.018079  -0.016721   0.016575  -0.036360
    2  C   1  S  -0.059701  -0.006872  -0.016943  -0.012741  -0.030691
    3  C   1  S   3.582994   2.077787   1.737062  -0.863832   4.791042
    4  C   1  S  -1.501069  -5.262217   0.956816   6.143356  -0.441880
    5  C   1  X  -0.014531   0.025183   0.091818  -0.031538   0.039075
    6  C   1  Y   0.110051   0.041085  -0.056995  -0.063527  -0.006107
    7  C   1  Z   0.022645  -0.073190  -0.056553   0.039918  -0.003300
    8  C   1  X   2.243170   0.404510   4.093072   1.421827   2.293685
    9  C   1  Y   7.803060  -1.945290  -2.712069  -1.736542   3.235205
   10  C   1  Z  -4.806794  -1.902683  -5.992302  -0.161160  -0.690720
   11  C   1  X  -0.018365  -0.073126  -0.191264  -0.438992  -0.237080
   12  C   1  Y   0.067707  -0.357608   0.094681   0.392282   0.147988
   13  C   1  Z  -0.354628   1.134380  -0.725211  -1.155972  -0.430111
   14  C   1 XX  -0.008959   0.002135   0.023884  -0.003806  -0.016168
   15  C   1 YY  -0.001202  -0.010119  -0.002824   0.008992   0.011903
   16  C   1 ZZ   0.010161   0.007983  -0.021061  -0.005187   0.004265
   17  C   1 XY   0.001586  -0.000711  -0.016087  -0.001533  -0.004961
   18  C   1 XZ   0.008276   0.003459  -0.003978  -0.002231  -0.019376
   19  C   1 YZ   0.019392  -0.004536  -0.006185  -0.012349  -0.009461
   20  C   1 XX  -1.014246  -0.892289  -1.476592   0.345437   1.784433
   21  C   1 YY  -0.739905   0.470020   1.139476   0.263485  -0.757337
   22  C   1 ZZ   1.754150   0.422270   0.337116  -0.608922  -1.027096
   23  C   1 XY   0.949233  -0.732343   0.406327   3.163374   0.099230
   24  C   1 XZ  -0.475702  -0.124028   0.551209  -1.358631   0.584816
   25  C   1 YZ  -3.056532   1.143722  -0.485985   0.267626   0.640296
   26  C   2  S   0.000030   0.024353  -0.000542  -0.015105  -0.000133
   27  C   2  S   0.000849  -0.040819  -0.000642  -0.011756  -0.000873
   28  C   2  S   0.001960  -2.335340   0.077219   1.320142   0.019668
   29  C   2  S  -0.166231  14.533045   0.331170 -12.361696   0.125401
   30  C   2  X  -0.074546  -0.004355  -0.042002  -0.264509  -0.054656
   31  C   2  Y   0.048279  -0.108811   0.026713  -0.125196   0.029735
   32  C   2  Z  -0.169724  -0.030323  -0.098729   0.084700  -0.121824
   33  C   2  X  -5.459131   0.298029  -1.931357  -3.734605  -0.551172
   34  C   2  Y   3.366453  -0.068974   1.091040  -2.015987   0.368092
   35  C   2  Z -12.155312  -0.396050  -4.228977   1.001959  -1.266271
   36  C   2  X   0.311848  -0.745788   0.141082   1.801483   0.377035
   37  C   2  Y  -0.207091  -0.124825  -0.150912   3.386907  -0.225835
   38  C   2  Z   0.691385   0.335430   0.359680   0.091585   0.884506
   39  C   2 XX   0.005773  -0.007646  -0.008815  -0.009413   0.004808
   40  C   2 YY   0.000277   0.022222  -0.001836  -0.011875  -0.005221
   41  C   2 ZZ  -0.006050  -0.014575   0.010651   0.021288   0.000413
   42  C   2 XY  -0.001624   0.001949   0.005202  -0.015554   0.003025
   43  C   2 XZ   0.005494  -0.005041  -0.008297   0.015915   0.006098
   44  C   2 YZ   0.000282   0.011784   0.003377  -0.005539   0.010692
   45  C   2 XX   2.225541  -0.169237   1.266276   0.924047   0.928375
   46  C   2 YY  -1.427690   0.674310  -0.946571   0.220811  -0.833215
   47  C   2 ZZ  -0.797851  -0.505073  -0.319706  -1.144858  -0.095160
   48  C   2 XY   0.603088   0.749979   0.528463   0.415611   0.528270
   49  C   2 XZ   2.625354   0.088065   1.536829  -1.246727   1.233380
   50  C   2 YZ   3.201134   0.059198   2.104423   0.452524   1.955546
   51  C   3  S   0.061190  -0.015760   0.017513   0.017913   0.036414
   52  C   3  S   0.059793  -0.005093   0.017184  -0.011719   0.031765
   53  C   3  S  -3.634740   1.934229  -1.753346  -0.951341  -4.793052
   54  C   3  S   1.557537  -5.125138  -1.151185   6.198883   0.310085
   55  C   3  X   0.004622   0.079666  -0.090212  -0.063216  -0.024116
   56  C   3  Y  -0.099765   0.004520   0.054038  -0.047514  -0.002949
   57  C   3  Z  -0.045588   0.037162   0.061876  -0.026418   0.029058
   58  C   3  X  -6.314980   1.217825  -6.539564   0.573090  -2.625056
   59  C   3  Y  -5.293227  -2.794752   4.080825  -1.326672  -3.078624
   60  C   3  Z  -4.357420  -0.255272   0.610859  -1.694973  -0.063706
   61  C   3  X  -0.236142  -0.911563  -0.439018   0.597233  -0.183838
   62  C   3  Y   0.081989   0.138278   0.285478  -0.211629   0.066959
   63  C   3  Z  -0.227751  -0.730775  -0.623361   1.134383  -0.488076
   64  C   3 XX   0.009176   0.002926  -0.001480   0.000216  -0.011416
   65  C   3 YY  -0.013514  -0.010284   0.014159  -0.002451  -0.000115
   66  C   3 ZZ   0.004338   0.007358  -0.012679   0.002235   0.011531
   67  C   3 XY   0.013466  -0.000954  -0.002821   0.008757   0.001929
   68  C   3 XZ  -0.003009   0.002900   0.023709   0.005424  -0.013071
   69  C   3 YZ   0.012665  -0.005875  -0.013935   0.011372  -0.020077
   70  C   3 XX  -1.691814  -0.584062   0.677654   1.599165   0.324727
   71  C   3 YY   1.986954   1.012760  -0.749846   1.054127   0.167840
   72  C   3 ZZ  -0.295140  -0.428698   0.072191  -2.653291  -0.492568
   73  C   3 XY  -1.332364  -1.361053  -0.559586   1.947104  -0.198978
   74  C   3 XZ  -2.565597   0.088220  -1.465438  -0.321658   1.707685
   75  C   3 YZ  -0.041499   0.327995  -0.339626  -1.046501   0.877614
   76  H   4  S  -0.070845   0.041761   0.091037   0.027597   0.065277
   77  H   4  S   3.027264   2.407882  14.640909   2.965122   0.155938
   78  H   4  S   0.327740  -0.183499   0.214714  -0.002178   0.004095
   79  H   4  X   0.002073  -0.003490  -0.017011   0.002236  -0.009812
   80  H   4  Y  -0.013381   0.015435   0.012819  -0.007656  -0.004885
   81  H   4  Z  -0.001588   0.003017   0.014523   0.000122  -0.007130
   82  H   4  X   0.632714   0.440255   4.122608   1.417801   1.375917
   83  H   4  Y   1.492890  -1.822075  -1.636953   1.005990  -0.131151
   84  H   4  Z  -0.935661  -0.877344  -4.038756  -1.455387   1.530472
   85  H   5  S  -0.013066   0.031053  -0.004412   0.015648  -0.014571
   86  H   5  S  -2.830378   2.996364  -0.098788   0.956996  -9.129837
   87  H   5  S  -0.015559  -0.094485   0.094358   0.208154  -0.007302
   88  H   5  X   0.003136  -0.002117   0.004461   0.003101  -0.003806
   89  H   5  Y   0.003966   0.011695   0.002833   0.004880   0.002210
   90  H   5  Z   0.021392   0.009225  -0.004217   0.010860  -0.023258
   91  H   5  X   1.113161  -0.615315   0.216995  -0.285242   2.074164
   92  H   5  Y   0.295935  -1.251570  -0.535617  -1.590076   0.049506
   93  H   5  Z   1.129138  -0.997515  -0.061119  -0.018472   3.534375
   94  H   6  S   0.049884   0.014361  -0.043857   0.004467   0.038705
   95  H   6  S  12.700059  -7.884864 -10.523685  -3.589906   5.777655
   96  H   6  S   0.291994   0.234237  -0.009299   0.211040   0.153580
   97  H   6  X  -0.008023   0.006844  -0.012890  -0.005199  -0.003100
   98  H   6  Y  -0.024006   0.000996   0.005752  -0.003345   0.002034
   99  H   6  Z   0.008184   0.001967   0.006317   0.012169   0.001995
  100  H   6  X   0.221928  -0.824932   1.154752   1.636154   0.360099
  101  H   6  Y   4.881316  -3.767757  -3.902239  -1.495620   2.109569
  102  H   6  Z  -0.664188  -0.025462  -0.871113  -0.933477   1.565779
  103  H   7  S  -0.003928   0.201620   0.001713   0.043112   0.002604
  104  H   7  S  -0.165312  -0.072577  -0.008322   2.521062  -0.185276
  105  H   7  S   0.030139  -0.895551   0.004879  -1.639796  -0.008584
  106  H   7  X   0.005458  -0.000371   0.007845  -0.012148   0.002867
  107  H   7  Y  -0.003490   0.034910  -0.004407   0.004915  -0.001734
  108  H   7  Z   0.011400   0.009479   0.017322   0.006797   0.007544
  109  H   7  X  -0.227919  -0.485746  -0.784893   0.949943  -0.141236
  110  H   7  Y   0.257937  -2.170209   0.423754  -0.894384   0.141886
  111  H   7  Z  -0.543514  -0.339804  -1.705137  -0.680795  -0.342209
  112  H   8  S   0.067004   0.047328  -0.088298   0.027902  -0.066091
  113  H   8  S  -2.933109   2.780774 -14.671550   2.646865  -0.055095
  114  H   8  S  -0.328854  -0.183292  -0.226623  -0.017096  -0.001209
  115  H   8  X   0.000365  -0.002348   0.019874   0.000380   0.001258
  116  H   8  Y   0.012076   0.015186  -0.013833  -0.006467   0.009039
  117  H   8  Z   0.005968   0.007756  -0.008511  -0.005040  -0.008734
  118  H   8  X  -1.334003   0.714972  -5.386032   2.067011   0.219078
  119  H   8  Y  -1.011788  -2.030774   2.241784   0.589393  -0.750096
  120  H   8  Z  -0.703602  -0.646740   1.299836   0.243457   1.871492
  121  H   9  S   0.008871   0.032273   0.010920   0.016555   0.013555
  122  H   9  S   2.701382   3.129531   0.066145   0.980531   9.234212
  123  H   9  S   0.027167  -0.089336  -0.112677   0.209618   0.026649
  124  H   9  X   0.012153  -0.005130  -0.006788  -0.004452  -0.014473
  125  H   9  Y  -0.013659   0.013501  -0.000757   0.009325   0.008379
  126  H   9  Z   0.013224   0.001383  -0.001429  -0.006387  -0.016555
  127  H   9  X   0.051790   0.074839  -0.104793  -0.488526   1.101867
  128  H   9  Y  -0.850499  -1.703200   0.425968  -1.473592  -1.940445
  129  H   9  Z   1.280550   0.526993   0.348589  -0.426650   3.473992
  130  H  10  S  -0.048481   0.010841   0.045565   0.004085  -0.040159
  131  H  10  S -12.364777  -8.761725  10.355708  -3.546608  -5.876598
  132  H  10  S  -0.301028   0.220068   0.015104   0.213222  -0.162946
  133  H  10  X   0.015166   0.003571   0.012722  -0.012394   0.003245
  134  H  10  Y   0.018562   0.004030  -0.005205   0.001279  -0.000891
  135  H  10  Z   0.008767  -0.004817  -0.007391  -0.004441  -0.002373
  136  H  10  X  -1.483577  -1.272091  -0.775855   1.450435   0.501344
  137  H  10  Y  -3.959173  -3.804974   3.548673  -1.373232  -2.642294
  138  H  10  Z  -2.233223  -1.137046   1.966481  -1.244934   0.263525
  139  F  11  S   0.000275  -0.006061  -0.000099  -0.008166  -0.000175
  140  F  11  S  -0.000073   0.016337  -0.000205   0.013930   0.000316
  141  F  11  S  -0.007872   0.267649   0.001757   0.260063   0.007519
  142  F  11  S   0.042414  -1.659185  -0.036636  -0.295704   0.053592
  143  F  11  X  -0.019613  -0.016614   0.009934  -0.005582  -0.003054
  144  F  11  Y   0.011295  -0.022668  -0.006714   0.053596   0.003855
  145  F  11  Z  -0.043379  -0.000021   0.020273   0.016205  -0.003959
  146  F  11  X   0.025502  -0.038989   0.013001  -0.027422  -0.023948
  147  F  11  Y  -0.015193  -0.064432  -0.009847   0.078103   0.020465
  148  F  11  Z   0.058221   0.001368   0.025625   0.033720  -0.045002
  149  F  11  X  -0.221938  -0.236312  -0.087961   0.699634   0.075234
  150  F  11  Y   0.149765  -0.991426   0.039352  -0.656823  -0.043764
  151  F  11  Z  -0.487321  -0.169680  -0.157504  -0.491183   0.201928
  152  F  11 XX   0.001849  -0.003771   0.003988   0.001820   0.003027
  153  F  11 YY  -0.002951   0.007556  -0.004808  -0.002143  -0.004283
  154  F  11 ZZ   0.001101  -0.003785   0.000820   0.000323   0.001256
  155  F  11 XY   0.002073  -0.002810   0.003458   0.003080   0.003379
  156  F  11 XZ   0.002594  -0.001776   0.005367   0.000421   0.003892
  157  F  11 YZ   0.005860   0.005325   0.010755  -0.002265   0.008957
  158  F  11 XX  -0.034918   0.004428  -0.009475  -0.027577  -0.004354
  159  F  11 YY   0.010855  -0.012556  -0.013171  -0.011401   0.001528
  160  F  11 ZZ   0.024063   0.008128   0.022646   0.038978   0.002827
  161  F  11 XY   0.001125   0.017869   0.016462   0.001598  -0.000985
  162  F  11 XZ  -0.039500   0.010071  -0.006236   0.047144  -0.005444
  163  F  11 YZ  -0.027020  -0.018337   0.024865  -0.023126  -0.003913

                     81         82         83         84         85
                    0.7061     0.7207     0.7378     0.7535     0.7547
                     A          A          A          A          A   
    1  C   1  S  -0.000899   0.006011  -0.026883   0.002293   0.010047
    2  C   1  S   0.030833  -0.001067  -0.024076   0.047223  -0.029551
    3  C   1  S   0.749490  -0.954567   2.747931  -0.257961  -0.576215
    4  C   1  S  -7.136272   0.539232  -1.154607  -5.891667   5.543970
    5  C   1  X  -0.077532  -0.023281  -0.284928   0.058381  -0.169699
    6  C   1  Y   0.053360  -0.012496  -0.075630   0.077173   0.066319
    7  C   1  Z  -0.089021  -0.001033   0.026184   0.032627  -0.114720
    8  C   1  X  -0.669662  -0.377046  -0.731392  -2.650169   2.752664
    9  C   1  Y  -0.755246   0.384576   1.018134  -2.377136   2.237939
   10  C   1  Z  -3.165956  -0.437047  -1.943402  -0.470307  -0.502038
   11  C   1  X   0.284632   1.249434   0.600676  -2.250241   1.015592
   12  C   1  Y  -1.459267  -0.695180   0.345077  -2.329841  -0.011000
   13  C   1  Z   0.484697  -0.471805   0.045830  -0.235706  -1.104944
   14  C   1 XX   0.010670  -0.006814   0.010150   0.008174   0.032178
   15  C   1 YY  -0.020883   0.021816   0.006441   0.002948  -0.020466
   16  C   1 ZZ   0.010213  -0.015002  -0.016590  -0.011122  -0.011712
   17  C   1 XY   0.001222   0.000353   0.021656   0.013537   0.016275
   18  C   1 XZ  -0.018464   0.022601   0.028228   0.012924   0.059559
   19  C   1 YZ   0.008973   0.005555   0.009762   0.000387   0.028194
   20  C   1 XX  -0.004406   1.331086  -0.267277   1.028464   0.003289
   21  C   1 YY   1.538333  -0.256232  -0.728096   1.841787   1.953069
   22  C   1 ZZ  -1.533928  -1.074853   0.995373  -2.870250  -1.956358
   23  C   1 XY  -0.418256  -2.237747   0.411531   2.151299   0.737560
   24  C   1 XZ   1.120812   0.405011  -0.646120  -2.276261  -2.023443
   25  C   1 YZ  -1.565252  -2.068644   0.634852  -1.293095  -1.423874
   26  C   2  S   0.012038   0.000816   0.052575  -0.002553  -0.017993
   27  C   2  S  -0.041038   0.000334   0.066647  -0.001797  -0.007773
   28  C   2  S   0.712830  -0.132057  -4.475981   0.480123   3.990822
   29  C   2  S  16.831500   0.008324   2.425951  -0.762670  -7.180956
   30  C   2  X   0.229427   0.002395   0.279058  -0.087054  -0.007547
   31  C   2  Y  -0.216018  -0.000805   0.210659   0.035904  -0.081757
   32  C   2  Z  -0.160453   0.003253  -0.073747  -0.178021   0.006258
   33  C   2  X   1.802551  -0.222899  -0.225574  -0.220176  -0.786661
   34  C   2  Y   2.908498   0.134948   0.635248   0.179179   0.677556
   35  C   2  Z  -0.089200  -0.494964   0.271213  -0.270644   0.555277
   36  C   2  X  -2.743894  -0.010820  -1.202518   2.184434   0.857756
   37  C   2  Y  -0.539571   0.001179  -1.217616  -0.892274   2.933166
   38  C   2  Z   1.103964  -0.005943   0.296181   4.550010  -0.231487
   39  C   2 XX  -0.029334  -0.016535  -0.024153   0.016345   0.003288
   40  C   2 YY   0.027501  -0.005957   0.015408  -0.015761  -0.040156
   41  C   2 ZZ   0.001832   0.022493   0.008745  -0.000584   0.036868
   42  C   2 XY  -0.002841   0.011918   0.000634   0.006478   0.009264
   43  C   2 XZ   0.018302  -0.014312   0.022417   0.021093   0.026292
   44  C   2 YZ   0.007502   0.011808  -0.000334   0.020978  -0.036162
   45  C   2 XX  -2.401328  -0.007287   1.901395  -1.175156   1.644216
   46  C   2 YY   3.058768  -0.491178  -1.441993   1.268770   3.375350
   47  C   2 ZZ  -0.657440   0.498465  -0.459402  -0.093613  -5.019565
   48  C   2 XY  -1.529693   0.357892  -2.210807   0.122497   4.544444
   49  C   2 XZ   0.329865   0.111795  -2.496724  -1.859238  -2.769477
   50  C   2 YZ   1.916342   0.859331   1.055053  -1.846478   1.256658
   51  C   3  S  -0.001319  -0.007016  -0.026385   0.000370   0.010557
   52  C   3  S   0.029868   0.001132  -0.024505  -0.052181  -0.018045
   53  C   3  S   0.829189   1.034237   2.712563   0.065475  -0.607792
   54  C   3  S  -7.084004  -0.593931  -0.980813   6.938143   4.168072
   55  C   3  X   0.023306   0.014331  -0.224361  -0.029127  -0.010744
   56  C   3  Y  -0.004698   0.016486  -0.118040  -0.092011  -0.003267
   57  C   3  Z   0.127002  -0.012582   0.155436   0.070155   0.200454
   58  C   3  X   1.660028  -0.161417   1.109685   2.416824   2.163334
   59  C   3  Y  -2.001893  -0.163893  -0.043459   3.249957   1.591006
   60  C   3  Z   1.921477  -0.632101   2.048494  -1.316705  -0.525286
   61  C   3  X  -0.406161  -1.061769   0.497749   2.039947   1.016614
   62  C   3  Y  -1.028792   0.582036   0.487973   2.466487  -0.819445
   63  C   3  Z  -1.076876   0.915260  -0.340075  -0.759190   0.113224
   64  C   3 XX   0.023534   0.030430  -0.023980   0.000487  -0.043600
   65  C   3 YY  -0.010431  -0.020479   0.018505  -0.003989   0.013880
   66  C   3 ZZ  -0.013103  -0.009951   0.005475   0.003501   0.029720
   67  C   3 XY  -0.012956  -0.008575   0.019814  -0.014256   0.010547
   68  C   3 XZ  -0.008660   0.001261  -0.010079   0.000564  -0.027997
   69  C   3 YZ  -0.009032  -0.001822  -0.021332  -0.001214  -0.054533
   70  C   3 XX  -1.414024   0.305107   0.784847  -1.447628   1.579601
   71  C   3 YY  -0.020616   2.260674  -0.007106  -0.430770   0.424177
   72  C   3 ZZ   1.434640  -2.565781  -0.777741   1.878398  -2.003778
   73  C   3 XY   1.586435  -0.363403  -0.764538  -2.711612   2.693762
   74  C   3 XZ   0.056081   0.761838   0.311197   1.079380  -0.521034
   75  C   3 YZ   1.332994  -1.787212  -0.696332  -1.018494   2.505067
   76  H   4  S  -0.069078  -0.005423  -0.109674  -0.043799   0.066850
   77  H   4  S   4.648392  -2.718011  -4.255580  -3.978279   0.373829
   78  H   4  S   0.046067   1.319372   0.096430  -0.523720   0.973454
   79  H   4  X  -0.003294  -0.001627   0.044649   0.011462  -0.007945
   80  H   4  Y   0.002576   0.012529   0.003946  -0.010126   0.008395
   81  H   4  Z  -0.004923  -0.020082  -0.056605  -0.016349  -0.027682
   82  H   4  X   1.744699  -0.081621  -1.885890  -0.633883  -0.029765
   83  H   4  Y  -0.525999   0.103834  -0.326615   1.498688   0.218279
   84  H   4  Z   0.127997   1.877022   0.996239   1.442757  -0.532996
   85  H   5  S  -0.002196   0.036330   0.101278  -0.091567   0.276944
   86  H   5  S   3.627907   1.487412   3.122623   9.402957   4.673685
   87  H   5  S   0.711338  -0.572265  -0.167129   1.288567  -0.645344
   88  H   5  X   0.001504   0.014980   0.038089   0.000913   0.055696
   89  H   5  Y   0.007078  -0.022198  -0.000738   0.009174  -0.003881
   90  H   5  Z   0.013689  -0.000457   0.035202  -0.023402   0.083363
   91  H   5  X  -1.259294  -1.460770  -1.142595  -2.977624  -2.174834
   92  H   5  Y  -0.050649   1.838116  -0.397844  -1.150770  -0.057236
   93  H   5  Z  -0.690924  -0.110062  -0.857008  -0.213354  -0.993490
   94  H   6  S  -0.020126  -0.021117  -0.041398  -0.042412   0.162353
   95  H   6  S  -5.757291   3.678219   1.094817  -6.270478  -1.295102
   96  H   6  S  -0.580248  -0.849894   0.067100  -1.457574  -0.114795
   97  H   6  X   0.009449   0.003635  -0.009073  -0.012611  -0.009511
   98  H   6  Y   0.013261  -0.011676   0.015414   0.002158  -0.017995
   99  H   6  Z   0.011762   0.017455  -0.003991   0.007998  -0.017302
  100  H   6  X  -0.308962  -1.948405  -0.297263   0.945743  -0.634407
  101  H   6  Y  -1.862384   1.624904   0.004447  -2.004495   0.417911
  102  H   6  Z  -1.019086  -1.630221   0.742259  -1.478414  -1.228022
  103  H   7  S   0.226951  -0.000781  -0.146370   0.009308   0.059547
  104  H   7  S -12.784614   0.200598   3.734471  -1.338632 -11.438847
  105  H   7  S  -0.462906  -0.001488   0.206050  -0.144585  -1.378550
  106  H   7  X  -0.022326   0.006836  -0.004472   0.005401   0.011700
  107  H   7  Y   0.045864  -0.003560  -0.042744  -0.003535  -0.017745
  108  H   7  Z   0.022269   0.015686  -0.009601   0.007706  -0.011188
  109  H   7  X   1.769316  -0.277886   1.768932   0.049766  -1.452617
  110  H   7  Y   2.871365   0.116017  -1.038451   0.299854   3.769573
  111  H   7  Z  -0.036459  -0.711971  -1.054913   0.713615   1.571547
  112  H   8  S  -0.064422   0.002560  -0.107035   0.059974   0.059553
  113  H   8  S   4.536113   2.685851  -4.150538   4.129161  -0.299688
  114  H   8  S   0.051011  -1.327256   0.137765   0.715472   0.784418
  115  H   8  X   0.000920  -0.014751   0.069979  -0.015399   0.017749
  116  H   8  Y  -0.000641  -0.002184  -0.010539   0.012282  -0.008151
  117  H   8  Z   0.006592  -0.018205   0.002116   0.008262   0.023316
  118  H   8  X   0.951813   1.352706  -2.021248   1.305041   0.216474
  119  H   8  Y  -0.037637  -0.850706  -0.307458  -1.769730   0.308007
  120  H   8  Z  -1.588073   0.972444   0.637140  -0.189130   0.477531
  121  H   9  S  -0.000420  -0.040276   0.103760   0.147586   0.250026
  122  H   9  S   3.330128  -1.547766   3.087753  -8.214142   6.566209
  123  H   9  S   0.697823   0.574982  -0.199599  -1.398156  -0.312705
  124  H   9  X  -0.006661  -0.005927  -0.000135  -0.023604  -0.017471
  125  H   9  Y   0.012347   0.016605   0.021106   0.010057   0.041069
  126  H   9  Z  -0.005131   0.021268  -0.048266  -0.033939  -0.082240
  127  H   9  X  -0.405518   0.604537  -0.184719   1.852512  -1.188849
  128  H   9  Y  -0.522645  -1.296102  -0.912019   1.486294  -1.278611
  129  H   9  Z   1.159991  -1.904314   1.174622  -1.275299   2.355801
  130  H  10  S  -0.016927   0.019065  -0.044111   0.079331   0.147054
  131  H  10  S  -5.549994  -3.629032   1.125362   5.756686  -2.903063
  132  H  10  S  -0.565153   0.864901   0.070552   1.394831  -0.404250
  133  H  10  X   0.000857   0.011826   0.000360   0.014105   0.000087
  134  H  10  Y   0.018082   0.002008   0.011288  -0.008907  -0.022907
  135  H  10  Z  -0.007492   0.016853   0.015252  -0.003787   0.011090
  136  H  10  X   0.158129  -0.141271  -0.743727  -1.156194   0.822228
  137  H  10  Y  -2.037731  -0.386758   0.240944   2.080595  -0.801979
  138  H  10  Z   0.003430  -3.033109  -0.156430   0.946847   1.019665
  139  F  11  S  -0.014960   0.000078   0.012769  -0.000344  -0.002030
  140  F  11  S   0.000273  -0.000153  -0.041141  -0.000235  -0.004836
  141  F  11  S   0.365710  -0.003875  -0.779351   0.004632  -0.029431
  142  F  11  S   0.677728  -0.031293  -4.586872  -0.001074  -0.409626
  143  F  11  X   0.019840   0.031868   0.139671   0.003462   0.002878
  144  F  11  Y   0.156825  -0.016635   0.047752  -0.013356  -0.093497
  145  F  11  Z   0.032402   0.068535  -0.051102   0.007842  -0.026224
  146  F  11  X  -0.058079   0.066255   0.274179   0.047603  -0.085999
  147  F  11  Y   0.491003  -0.033108   0.116415  -0.075429  -0.347527
  148  F  11  Z   0.159017   0.141679  -0.091428   0.124050  -0.065570
  149  F  11  X  -0.291501  -0.202113   1.525548   0.042186   0.051068
  150  F  11  Y   0.589587   0.120348   0.100940  -0.048347  -0.138065
  151  F  11  Z   0.281118  -0.494579  -0.656646   0.120323  -0.086560
  152  F  11 XX   0.009004   0.004685  -0.000866  -0.001167  -0.004842
  153  F  11 YY  -0.001653  -0.001840  -0.000812   0.005062   0.013041
  154  F  11 ZZ  -0.007351  -0.002845   0.001678  -0.003895  -0.008200
  155  F  11 XY   0.011950   0.000118   0.009705  -0.003799  -0.003015
  156  F  11 XZ  -0.006329   0.005272   0.005841  -0.002092  -0.004582
  157  F  11 YZ  -0.003294   0.003865  -0.006477  -0.006171   0.010335
  158  F  11 XX   0.055561  -0.008510   0.027035  -0.003038   0.014765
  159  F  11 YY  -0.061809   0.007598  -0.026350  -0.000660  -0.031679
  160  F  11 ZZ   0.006247   0.000912  -0.000685   0.003698   0.016914
  161  F  11 XY  -0.065437  -0.005056  -0.036425   0.003936   0.037375
  162  F  11 XZ  -0.057468  -0.011139  -0.032839  -0.001564   0.019214
  163  F  11 YZ   0.016717  -0.016244   0.012880  -0.009864  -0.037373

                     86         87         88         89         90
                    0.8058     0.8257     0.8616     0.8903     0.9438
                     A          A          A          A          A   
    1  C   1  S   0.033264   0.006766   0.000770   0.046827   0.113858
    2  C   1  S   0.039573  -0.012493   0.096174   0.181552   0.251390
    3  C   1  S  -1.751057  -0.172040   2.065993   0.924205  -3.402383
    4  C   1  S   5.683576   2.488779 -10.547478 -14.189812   2.602240
    5  C   1  X  -0.007700  -0.105643   0.064293  -0.387360  -0.552123
    6  C   1  Y  -0.315540   0.242941  -0.164218  -0.208215  -0.021401
    7  C   1  Z  -0.290708   0.135699   0.346032   0.205448  -0.135266
    8  C   1  X   0.604236   0.443162  -0.242426   3.618648   4.934962
    9  C   1  Y   0.025842  -0.381427   2.667088   2.678669  -0.909978
   10  C   1  Z   3.256096   1.374810  -6.030013  -4.690217   3.853686
   11  C   1  X  -0.085683   0.952181  -0.289581   2.336591   1.760541
   12  C   1  Y   2.155285  -1.282661  -1.425299  -0.764147   0.201745
   13  C   1  Z   0.152447  -1.416626   0.829831   2.975069  -0.131868
   14  C   1 XX   0.102126  -0.004463  -0.045984  -0.031915  -0.073462
   15  C   1 YY  -0.085399  -0.009906  -0.024386  -0.051013   0.025294
   16  C   1 ZZ  -0.016727   0.014369   0.070370   0.082927   0.048168
   17  C   1 XY  -0.004492  -0.006220  -0.007672   0.032587   0.029881
   18  C   1 XZ  -0.000817  -0.036892  -0.001950   0.111838   0.078529
   19  C   1 YZ   0.017047  -0.015932  -0.108794  -0.088932  -0.076633
   20  C   1 XX  -0.489021  -0.163945  -0.544697  -0.634016   0.600430
   21  C   1 YY   0.722085   3.049077   1.902607   0.184661  -0.786708
   22  C   1 ZZ  -0.233064  -2.885132  -1.357910   0.449355   0.186278
   23  C   1 XY  -0.015274  -1.018613   0.124393  -0.191098  -1.261448
   24  C   1 XZ   0.478556   2.555361  -0.117348  -0.509742   0.918576
   25  C   1 YZ   0.410349  -0.918910  -1.349585  -0.328287   0.760565
   26  C   2  S  -0.020879   0.000211   0.025647   0.000157  -0.044104
   27  C   2  S   0.043244  -0.000285   0.000227   0.000565  -0.068345
   28  C   2  S   2.876995  -0.021995  -1.871869  -0.000257   3.608683
   29  C   2  S -14.745257   0.078569  18.012406  -0.077325  -8.634921
   30  C   2  X   0.003171   0.080242  -0.192216  -0.053860  -0.221931
   31  C   2  Y   0.497532  -0.051664   0.141572   0.031666  -0.113113
   32  C   2  Z   0.132781   0.178066   0.124044  -0.120297   0.073086
   33  C   2  X  -1.785435   0.347805   6.110522  -2.646092  -1.141985
   34  C   2  Y  -4.530665  -0.144750   3.872557   1.535593  -2.531810
   35  C   2  Z  -0.442905   0.714889  -1.777849  -5.766164  -0.182745
   36  C   2  X   1.781680  -0.579160  -1.305458   1.753150   0.836776
   37  C   2  Y  -1.274035   0.373125  -1.028054  -1.009811   1.720143
   38  C   2  Z  -1.139367  -1.260237   0.340189   3.852751   0.083025
   39  C   2 XX   0.059532  -0.000935   0.094143   0.023574   0.035166
   40  C   2 YY  -0.112349   0.003744  -0.052359  -0.018161  -0.018538
   41  C   2 ZZ   0.052817  -0.002809  -0.041785  -0.005412  -0.016627
   42  C   2 XY   0.001157  -0.003121  -0.025816   0.009737   0.018862
   43  C   2 XZ   0.003865  -0.001572  -0.101627   0.029219  -0.026303
   44  C   2 YZ  -0.055187  -0.005752   0.022489   0.040148  -0.006653
   45  C   2 XX  -0.952284   2.374203  -0.143188   0.867744  -1.099942
   46  C   2 YY   0.413702   2.396411   3.153152  -0.722321  -1.056603
   47  C   2 ZZ   0.538582  -4.770613  -3.009964  -0.145423   2.156544
   48  C   2 XY   0.160050  -3.128326   1.043710   0.389383   0.280842
   49  C   2 XZ   1.122602   1.744453  -1.808436   1.062388   2.523457
   50  C   2 YZ  -0.313102  -4.434719   1.790179   1.529441  -1.557772
   51  C   3  S   0.033246  -0.007989   0.000530  -0.046926   0.112535
   52  C   3  S   0.039102   0.010089   0.095109  -0.182475   0.248179
   53  C   3  S  -1.757370   0.234017   2.070366  -0.950986  -3.400854
   54  C   3  S   5.749911  -2.507949 -10.440025  14.278932   2.680988
   55  C   3  X   0.150458   0.120473  -0.230960   0.446501  -0.283605
   56  C   3  Y  -0.407512  -0.245023   0.009118   0.181372  -0.179029
   57  C   3  Z   0.032281  -0.100167  -0.310173  -0.071825   0.464601
   58  C   3  X  -1.915510   0.812492   4.563758  -6.311816   0.459103
   59  C   3  Y   1.504990  -0.327495  -0.151350  -1.169008   1.663033
   60  C   3  Z  -2.284113   1.302884   4.681064  -1.229461  -6.143233
   61  C   3  X   0.213977  -1.405552  -1.047588   0.698107   1.338809
   62  C   3  Y   1.999236   1.499134  -0.979086  -1.029344   0.456629
   63  C   3  Z   0.917382   0.411632  -0.826706   3.678049  -1.088133
   64  C   3 XX   0.032521  -0.038569   0.039291   0.038761  -0.052874
   65  C   3 YY  -0.057300   0.023894  -0.080963   0.060947  -0.000464
   66  C   3 ZZ   0.024779   0.014675   0.041672  -0.099708   0.053337
   67  C   3 XY  -0.007740   0.008089   0.019481  -0.042471   0.050345
   68  C   3 XZ  -0.081324  -0.008408   0.097915  -0.106087   0.110164
   69  C   3 YZ  -0.051630  -0.015157   0.017528   0.074232  -0.013594
   70  C   3 XX  -0.792096   3.591516  -0.439251  -0.387459  -0.844581
   71  C   3 YY   0.846383  -1.383580   0.421107   0.132837  -0.335258
   72  C   3 ZZ  -0.054287  -2.207936   0.018144   0.254623   1.179839
   73  C   3 XY  -0.064269  -1.763371   1.565589   0.200693  -1.231096
   74  C   3 XZ   0.113558   0.441190   0.370435  -0.624539  -0.698175
   75  C   3 YZ   0.090220  -1.935456   1.691257  -0.511151  -0.425644
   76  H   4  S   0.138621   0.055545  -0.308205  -0.518787  -0.262032
   77  H   4  S   1.723242   6.465718   4.820219   7.821761   6.256584
   78  H   4  S  -0.443409   1.559032   0.299664   1.538533   1.450501
   79  H   4  X  -0.068651   0.022423   0.059065   0.145631   0.135015
   80  H   4  Y  -0.007761  -0.001681  -0.039801  -0.053345  -0.050095
   81  H   4  Z   0.032917   0.005534  -0.008319  -0.089792  -0.067872
   82  H   4  X   0.433880   2.154597   1.120379   1.145886   1.351948
   83  H   4  Y  -0.237241  -1.089843  -0.638227  -0.833328  -0.472570
   84  H   4  Z  -1.167868   0.111999   0.088956  -1.129319  -1.413301
   85  H   5  S   0.143697   0.004859  -0.318546  -0.196867  -0.186740
   86  H   5  S  -2.899530  -3.016714   7.650057   0.665165 -10.167799
   87  H   5  S  -0.877373   0.498831   0.794082  -2.680858  -1.497003
   88  H   5  X   0.061889  -0.001777  -0.083321  -0.005719   0.052138
   89  H   5  Y  -0.008062  -0.008279  -0.035530  -0.016603   0.001187
   90  H   5  Z   0.037936  -0.016954  -0.039534   0.044376   0.072003
   91  H   5  X   1.072292   0.429537  -1.693388  -0.026237   2.533612
   92  H   5  Y  -0.385044   0.712999  -0.649308  -0.280478   1.066818
   93  H   5  Z  -0.247747   1.012322  -0.746188   0.540767   2.070992
   94  H   6  S  -0.147403   0.055905  -0.343421  -0.430493  -0.168515
   95  H   6  S  -0.783703  -6.069550  -2.910292   2.637879   3.636625
   96  H   6  S   1.142835  -1.777641  -0.403792   0.929779   0.427215
   97  H   6  X   0.001624   0.000082   0.010008  -0.018987  -0.001217
   98  H   6  Y   0.120250  -0.045979   0.082190   0.103129   0.041000
   99  H   6  Z  -0.023731  -0.019998   0.048348   0.055674   0.022830
  100  H   6  X  -0.034739  -0.124125  -0.191073  -0.401433  -0.831081
  101  H   6  Y  -0.602433  -1.195700  -1.613519  -0.157862   1.111260
  102  H   6  Z  -0.241983  -1.312071  -0.350521   0.531111   0.020757
  103  H   7  S  -0.328565   0.002403  -0.128567  -0.000931   0.048616
  104  H   7  S   4.083315  -0.086506 -13.144378   0.075470   6.441521
  105  H   7  S   1.220094  -0.027232  -0.106984  -0.009025  -0.437549
  106  H   7  X  -0.014046  -0.012921  -0.004003   0.012514   0.013942
  107  H   7  Y  -0.168422   0.008771  -0.080267  -0.007115   0.042479
  108  H   7  Z  -0.038782  -0.028304  -0.019450   0.027386   0.004956
  109  H   7  X   0.150332   1.150870  -0.498169  -0.145084  -0.713710
  110  H   7  Y  -0.038344  -0.665471   3.968727   0.062298  -1.921276
  111  H   7  Z  -0.056695   2.564982   1.273704  -0.325807  -0.181693
  112  H   8  S   0.144415  -0.054067  -0.304965   0.516710  -0.260375
  113  H   8  S   1.686828  -6.484319   4.706195  -7.858774   6.361437
  114  H   8  S  -0.484975  -1.541612   0.282077  -1.530397   1.474208
  115  H   8  X  -0.073512  -0.010075   0.037332  -0.152198   0.132076
  116  H   8  Y  -0.006416  -0.005291  -0.026991   0.056438  -0.045963
  117  H   8  Z   0.027915   0.019885  -0.053850   0.074716  -0.078944
  118  H   8  X   1.093505  -1.187493   0.545595  -1.429689   1.883832
  119  H   8  Y  -0.624474   0.505994  -0.298344   0.986233  -0.751180
  120  H   8  Z   0.258083   2.038415  -1.111192   0.541216  -0.354202
  121  H   9  S   0.143978  -0.004525  -0.315895   0.196328  -0.182734
  122  H   9  S  -2.984238   3.035776   7.610413  -0.709759 -10.172614
  123  H   9  S  -0.874025  -0.482720   0.818124   2.692043  -1.500361
  124  H   9  X   0.013642  -0.008679  -0.034178   0.038531  -0.015430
  125  H   9  Y   0.020650   0.014882  -0.063577  -0.002536   0.042330
  126  H   9  Z  -0.068317  -0.006584   0.066223   0.028923  -0.077940
  127  H   9  X   0.843303   0.286419  -0.736253   0.458187   0.428506
  128  H   9  Y  -0.239179  -1.127171  -1.223907   0.036506   2.308243
  129  H   9  Z  -0.821254   0.585369   1.328207   0.392769  -2.512955
  130  H  10  S  -0.147582  -0.050184  -0.339870   0.436193  -0.162228
  131  H  10  S  -0.743141   6.093935  -2.903534  -2.623377   3.455632
  132  H  10  S   1.182174   1.752816  -0.402017  -0.945030   0.400432
  133  H  10  X   0.040742  -0.006588  -0.012102   0.033383  -0.010084
  134  H  10  Y   0.098340   0.046919   0.095141  -0.113325   0.042747
  135  H  10  Z   0.063370   0.006948   0.000971  -0.025650   0.004972
  136  H  10  X   0.024280  -0.636701  -0.171859   0.672808  -0.383667
  137  H  10  Y  -0.615916   1.651427  -1.597257   0.019372   0.777224
  138  H  10  Z  -0.127708  -0.313487  -0.359076   0.068607   1.020370
  139  F  11  S   0.004660   0.000108   0.034625  -0.000177  -0.015070
  140  F  11  S   0.007111  -0.000101   0.016949  -0.000024   0.001307
  141  F  11  S   0.002044  -0.004235  -0.798515   0.004889   0.590436
  142  F  11  S   4.052264  -0.035853  -3.341419  -0.000053   2.506755
  143  F  11  X  -0.063714  -0.066016   0.033421  -0.032837  -0.021324
  144  F  11  Y   0.029539   0.038913   0.011577   0.018834   0.008155
  145  F  11  Z   0.035304  -0.147292  -0.012006  -0.072844   0.011581
  146  F  11  X  -0.011840  -0.286465   0.375011   0.053516  -0.068944
  147  F  11  Y   0.245029   0.165767  -0.105745  -0.033229  -0.063014
  148  F  11  Z   0.067434  -0.635799  -0.195915   0.122608   0.011172
  149  F  11  X  -1.143971  -0.199274   0.629775  -0.037111  -0.431300
  150  F  11  Y   0.478671   0.116011  -0.098608   0.022119  -0.086874
  151  F  11  Z   0.634339  -0.463429  -0.317201  -0.087408   0.177293
  152  F  11 XX   0.004608  -0.012011  -0.004148  -0.000386   0.004089
  153  F  11 YY  -0.002124   0.000412   0.009349  -0.000586  -0.006546
  154  F  11 ZZ  -0.002484   0.011600  -0.005201   0.000972   0.002457
  155  F  11 XY   0.008058   0.003705   0.003116   0.000576  -0.005447
  156  F  11 XZ  -0.001628  -0.012170  -0.000105  -0.000245  -0.002921
  157  F  11 YZ  -0.003653  -0.002390   0.003327   0.000971   0.000095
  158  F  11 XX  -0.046029   0.055865  -0.119156  -0.089320  -0.072257
  159  F  11 YY   0.085328  -0.016712   0.083894   0.026001   0.021344
  160  F  11 ZZ  -0.039299  -0.039153   0.035262   0.063318   0.050912
  161  F  11 XY  -0.061860  -0.001739   0.068512   0.004726   0.044051
  162  F  11 XZ  -0.027872   0.061131   0.128759  -0.098164   0.103747
  163  F  11 YZ   0.074894   0.041455  -0.034413  -0.066457  -0.044026

                     91         92         93         94         95
                    0.9625     0.9763     1.0105     1.0323     1.0905
                     A          A          A          A          A   
    1  C   1  S  -0.125891   0.097861  -0.138800   0.111620  -0.070534
    2  C   1  S  -0.301123   0.216983  -0.301140   0.219344  -0.154160
    3  C   1  S   2.633783  -1.526080   3.520319  -2.891353  -3.219691
    4  C   1  S   3.286927  -4.545604   3.677676   3.362755  -1.467877
    5  C   1  X  -0.168886   0.354725  -0.284490   0.027366  -0.146893
    6  C   1  Y   0.228390  -0.343423  -0.361760   0.484670  -0.255192
    7  C   1  Z   0.165614  -0.153557  -0.255192   0.061773   0.483734
    8  C   1  X   0.569839  -4.011957   0.298425  -0.215936   2.859869
    9  C   1  Y  -2.096109   6.041952   3.735539  -6.106604   1.945828
   10  C   1  Z  -2.449410   2.630087   2.359602   3.689344  -2.698341
   11  C   1  X   0.930940  -0.791001   0.959759   0.119961   0.231975
   12  C   1  Y  -0.726484   0.191738   1.312203  -0.647295   0.261881
   13  C   1  Z  -1.113248   1.315659  -0.175190  -0.560848  -0.661925
   14  C   1 XX  -0.003917   0.025054   0.146574  -0.037877   0.050157
   15  C   1 YY   0.074012  -0.144612  -0.155400   0.070422  -0.031799
   16  C   1 ZZ  -0.070095   0.119557   0.008826  -0.032545  -0.018358
   17  C   1 XY  -0.014084  -0.010962   0.002031   0.031017  -0.018067
   18  C   1 XZ   0.008675  -0.093357   0.065417   0.065281   0.140601
   19  C   1 YZ   0.048994  -0.089669   0.104177   0.009058   0.096284
   20  C   1 XX  -0.212793  -0.083031  -0.884107   1.243599  -0.255334
   21  C   1 YY   0.342053   1.789494   2.174879   0.118761   0.136685
   22  C   1 ZZ  -0.129260  -1.706463  -1.290772  -1.362360   0.118649
   23  C   1 XY  -1.042695  -0.426943  -0.432171   0.191763  -0.105164
   24  C   1 XZ   1.978680   1.317419  -0.378090  -1.108835  -1.146652
   25  C   1 YZ  -0.926697  -0.724923  -1.062198   0.872946  -0.971395
   26  C   2  S  -0.020842   0.000329   0.000129   0.026392   0.100224
   27  C   2  S  -0.019035  -0.000109  -0.000188   0.093767   0.190578
   28  C   2  S  -3.316707  -0.041683  -0.042350   4.036771  -6.717743
   29  C   2  S  -3.305642   0.187001   0.108489 -10.721586  -0.627794
   30  C   2  X  -0.347851   0.097730  -0.084916   0.227195   0.195327
   31  C   2  Y   0.256253  -0.053746   0.048841   0.534502   0.137762
   32  C   2  Z   0.225962   0.203437  -0.183710   0.040520  -0.048656
   33  C   2  X   5.562552  -0.718753  -0.472533  -7.179865  -2.854451
   34  C   2  Y  -1.231200   0.426619   0.354741  -8.796072   0.712093
   35  C   2  Z  -2.808218  -1.513431  -1.120703   0.904331   1.363974
   36  C   2  X  -0.279781   0.412057  -0.466513   0.435957  -0.007568
   37  C   2  Y   0.397202  -0.273600   0.270567  -0.379613   0.210755
   38  C   2  Z   0.251078   0.939704  -1.010349  -0.300807   0.059188
   39  C   2 XX   0.107786  -0.001356   0.029837   0.045913   0.021478
   40  C   2 YY  -0.092656   0.017302   0.001563  -0.158798   0.109323
   41  C   2 ZZ  -0.015129  -0.015946  -0.031400   0.112885  -0.130802
   42  C   2 XY  -0.064152  -0.016333  -0.011249   0.046959   0.029791
   43  C   2 XZ  -0.106211  -0.004561   0.029368   0.077894  -0.100313
   44  C   2 YZ   0.018845  -0.034642   0.003709  -0.123155   0.077767
   45  C   2 XX  -1.544617   1.714029   0.936568  -0.593705  -1.080544
   46  C   2 YY   0.394606   1.130499   0.840401   0.304201   0.693895
   47  C   2 ZZ   1.150011  -2.844528  -1.776968   0.289504   0.386650
   48  C   2 XY  -1.743230  -1.616036  -1.119655   1.468159   2.208392
   49  C   2 XZ   1.127027   1.351487   0.696318   1.231203   1.906054
   50  C   2 YZ   0.449933  -1.916739  -1.507481  -0.887812  -1.189918
   51  C   3  S  -0.127655  -0.098457   0.137474   0.112896  -0.070330
   52  C   3  S  -0.304749  -0.217271   0.298997   0.222344  -0.154491
   53  C   3  S   2.680452   1.628840  -3.462866  -2.957150  -3.283807
   54  C   3  S   3.364339   4.368939  -3.770095   3.291691  -1.422962
   55  C   3  X  -0.195831  -0.280293   0.072476   0.061274  -0.488689
   56  C   3  Y   0.241654   0.295325   0.479979   0.463554  -0.058003
   57  C   3  Z   0.126814   0.303721  -0.194093   0.147964  -0.273643
   58  C   3  X   1.822601   3.487940   0.928881  -3.843359   4.120988
   59  C   3  Y  -2.802608  -5.608027  -4.369171  -3.954531   1.179936
   60  C   3  Z   0.081311  -3.786915   0.004883  -4.536279   0.189535
   61  C   3  X   1.324677   1.390651  -1.013954   0.356922   0.676700
   62  C   3  Y  -0.946713  -0.551227  -1.284831  -0.763391   0.013751
   63  C   3  Z  -0.332443   0.103613   0.019957  -0.056885   0.306665
   64  C   3 XX  -0.057486  -0.162069   0.012326  -0.081454  -0.133571
   65  C   3 YY   0.074672   0.165561   0.038073   0.073404   0.051435
   66  C   3 ZZ  -0.017187  -0.003491  -0.050399   0.008050   0.082136
   67  C   3 XY   0.003121   0.033049   0.057287   0.042851  -0.036909
   68  C   3 XZ  -0.045642  -0.053173   0.124036   0.022250  -0.063394
   69  C   3 YZ   0.039316   0.025050   0.154971  -0.000625  -0.095123
   70  C   3 XX  -1.807599   1.934967   0.515840   0.660379   1.088839
   71  C   3 YY  -0.387929  -0.695685  -0.583805   0.360867  -0.672599
   72  C   3 ZZ   2.195528  -1.239282   0.067965  -1.021246  -0.416240
   73  C   3 XY   0.229399  -1.177766  -0.958866   0.136682   0.234476
   74  C   3 XZ   0.545282   0.212217  -0.368215  -1.766739   0.428646
   75  C   3 YZ   0.311629  -1.147939  -2.146894   0.250568   0.889399
   76  H   4  S   0.345577  -0.085030   0.347946  -0.273240   0.144292
   77  H   4  S   5.495537  -4.668439  -3.402126  -0.877603   4.139098
   78  H   4  S   0.901047  -1.201563   0.155772   0.374590   0.503779
   79  H   4  X  -0.014043  -0.078906  -0.047407   0.074026   0.049030
   80  H   4  Y   0.001188  -0.002565   0.038750  -0.062002   0.014956
   81  H   4  Z  -0.008571   0.090239   0.037784  -0.034169  -0.048300
   82  H   4  X   2.009323  -0.960816  -1.220222  -0.147198   1.149121
   83  H   4  Y  -0.503151  -0.257856  -0.643656   0.946462  -0.172869
   84  H   4  Z  -0.306398   2.169603   0.897075  -0.230964  -0.835814
   85  H   5  S   0.251558  -0.201336   0.344198  -0.069792   0.242134
   86  H   5  S  -2.771934   1.135045  -2.148432   1.997353  -1.022378
   87  H   5  S  -0.196913   0.210438  -1.182296  -0.131436   0.331346
   88  H   5  X   0.049299  -0.061465   0.187825  -0.049077   0.045265
   89  H   5  Y   0.026905  -0.046685   0.066096  -0.042746   0.021605
   90  H   5  Z   0.006564  -0.038605   0.086383  -0.022790  -0.011569
   91  H   5  X   0.484097   0.070577   0.278681  -0.808249   0.080351
   92  H   5  Y   0.696620  -0.299354  -0.410015   0.251374  -0.319927
   93  H   5  Z   0.350838  -0.199584   0.731051  -0.143531   1.493057
   94  H   6  S   0.356093  -0.396405   0.142833  -0.258158   0.102776
   95  H   6  S  -6.021909   8.359742   0.844420  -6.132445   1.849363
   96  H   6  S  -1.175517   1.016701   1.104130  -0.834188   0.111243
   97  H   6  X   0.012606  -0.003940   0.006890   0.000389   0.030213
   98  H   6  Y  -0.127386   0.179601   0.094773  -0.079159   0.018475
   99  H   6  Z  -0.040667   0.043731  -0.008165  -0.047543  -0.048859
  100  H   6  X  -0.315516   0.078321  -0.718953  -0.249055  -0.497267
  101  H   6  Y  -1.788118   3.120325   0.608017  -1.861701   0.437345
  102  H   6  Z  -0.421512  -0.956309  -1.083488  -0.624220   0.426336
  103  H   7  S  -0.017015  -0.000916   0.000356  -0.186306  -0.018735
  104  H   7  S   2.094583  -0.130827  -0.129444  12.685979  -1.221847
  105  H   7  S   0.039321   0.002969  -0.012538   2.116821  -0.540877
  106  H   7  X  -0.008441   0.003763   0.021988   0.035725  -0.008004
  107  H   7  Y  -0.099781  -0.003044  -0.013066  -0.156592  -0.033256
  108  H   7  Z  -0.022738   0.009396   0.049283  -0.058080  -0.005222
  109  H   7  X   0.077055   0.345940   0.014934  -0.576612  -0.855811
  110  H   7  Y  -0.712558  -0.165231   0.031628  -3.835409   0.270512
  111  H   7  Z  -0.228462   0.765175   0.041588  -0.758051   0.452121
  112  H   8  S   0.350892   0.084483  -0.343406  -0.277764   0.137739
  113  H   8  S   5.566737   4.471445   3.576567  -0.760600   4.156387
  114  H   8  S   0.936113   1.169050  -0.145445   0.375810   0.500033
  115  H   8  X  -0.001646   0.116324   0.051996   0.064301   0.070813
  116  H   8  Y  -0.005774  -0.018499  -0.040603  -0.055021   0.003420
  117  H   8  Z   0.015600  -0.002759  -0.028124  -0.059866  -0.000713
  118  H   8  X   1.507261   2.178757   1.630650   0.283379   1.356537
  119  H   8  Y  -0.175232  -0.464553   0.413771   0.701697  -0.296595
  120  H   8  Z  -1.484122   0.688276  -0.112211   0.639410  -0.406718
  121  H   9  S   0.256374   0.204253  -0.342087  -0.074308   0.239402
  122  H   9  S  -2.753489  -0.853122   2.188487   1.961596  -1.148112
  123  H   9  S  -0.191656  -0.192303   1.186060  -0.149204   0.315263
  124  H   9  X   0.034362   0.022124  -0.076406  -0.025398   0.042880
  125  H   9  Y   0.037476   0.069371  -0.131145  -0.058163   0.024268
  126  H   9  Z  -0.028761  -0.045354   0.153719   0.031053  -0.016499
  127  H   9  X   0.179994  -0.153832   0.401779  -0.389240  -1.048699
  128  H   9  Y   0.859214   0.266626  -0.006843   0.009520   0.367345
  129  H   9  Z  -0.244068   0.124837   0.786668   0.748057  -1.068074
  130  H  10  S   0.359955   0.394965  -0.142713  -0.260236   0.106825
  131  H  10  S  -6.143595  -8.343358  -0.944515  -6.111313   1.790331
  132  H  10  S  -1.201475  -1.002184  -1.106412  -0.807880   0.109398
  133  H  10  X   0.014313   0.001066  -0.028161   0.019580   0.057661
  134  H  10  Y  -0.129031  -0.175434  -0.081223  -0.090264   0.002437
  135  H  10  Z  -0.040486  -0.052891  -0.039894  -0.006740   0.013184
  136  H  10  X  -0.252115  -1.293082  -0.395093  -0.078995  -0.559940
  137  H  10  Y  -1.860727  -2.392271   0.011820  -1.953811   0.454818
  138  H  10  Z  -0.297463  -1.803378  -1.395627  -0.274336   0.279802
  139  F  11  S   0.035132   0.000043   0.000180  -0.030915  -0.049424
  140  F  11  S  -0.002593  -0.000224  -0.000210   0.007276  -0.001019
  141  F  11  S  -0.869603  -0.005995  -0.007980   1.072294   1.708589
  142  F  11  S  -1.452685  -0.040373  -0.022680   3.701177   4.027072
  143  F  11  X   0.023159   0.000314  -0.044272  -0.016699   0.009128
  144  F  11  Y   0.112101  -0.000626   0.026120   0.048299  -0.023029
  145  F  11  Z   0.019782  -0.000626  -0.097680   0.020031  -0.008949
  146  F  11  X   0.556120  -0.114048  -0.089498  -0.299940  -0.624649
  147  F  11  Y   0.140530   0.066461   0.052291   0.192210   0.013148
  148  F  11  Z  -0.215810  -0.249492  -0.202046   0.184809   0.288349
  149  F  11  X   0.433283   0.017670  -0.097467  -0.615543  -1.365819
  150  F  11  Y   0.287299  -0.013155   0.054595   0.272816   0.123128
  151  F  11  Z  -0.120425   0.020780  -0.216730   0.345968   0.658685
  152  F  11 XX   0.003588   0.002011  -0.006845   0.007577   0.005096
  153  F  11 YY  -0.004140  -0.000930   0.000070  -0.005599  -0.007297
  154  F  11 ZZ   0.000552  -0.001081   0.006775  -0.001977   0.002202
  155  F  11 XY   0.009458   0.000442   0.002341   0.005122  -0.002106
  156  F  11 XZ   0.002193   0.002414  -0.006857  -0.004135  -0.002136
  157  F  11 YZ  -0.006429   0.002573  -0.001038  -0.003137  -0.001820
  158  F  11 XX  -0.192398   0.107634   0.027084   0.035250   0.179422
  159  F  11 YY   0.171685  -0.031567   0.005847   0.026614  -0.242147
  160  F  11 ZZ   0.020713  -0.076068  -0.032932  -0.061864   0.062725
  161  F  11 XY   0.091856  -0.006759  -0.013416  -0.091374  -0.075358
  162  F  11 XZ   0.175353   0.113873   0.026311  -0.105588  -0.095956
  163  F  11 YZ  -0.017363   0.078477  -0.006927   0.087538  -0.051269

                     96         97         98         99        100
                    1.0971     1.1756     1.2044     1.2122     1.2701
                     A          A          A          A          A   
    1  C   1  S   0.083202  -0.002063  -0.035061   0.018044   0.060524
    2  C   1  S   0.103097  -0.024298  -0.086274   0.070210   0.116623
    3  C   1  S  -4.729146  -7.116660   0.943517   5.345051  -0.378301
    4  C   1  S   4.204569   1.993413  -3.318405  -1.083975  -0.347526
    5  C   1  X  -0.049295   0.094959   0.035184  -0.260319  -0.149646
    6  C   1  Y   0.291523   0.041950  -0.158100   0.216030  -0.031359
    7  C   1  Z  -0.515301   0.150027   0.080747  -0.132137   0.108376
    8  C   1  X  -1.235215  -0.703511  -1.975025   3.286630   2.496663
    9  C   1  Y  -9.518525  -4.714858   2.933785   0.826911   0.388888
   10  C   1  Z  14.549791   5.848435  -1.283821  -5.428603  -2.496068
   11  C   1  X  -0.266555  -0.098206   0.035188   0.212462   0.076211
   12  C   1  Y  -1.207251   0.389365   0.021829  -0.143009  -0.153276
   13  C   1  Z   0.872979   0.374724   0.509628   0.213439  -0.488701
   14  C   1 XX   0.013367   0.175367  -0.174532   0.027785   0.094407
   15  C   1 YY  -0.002557  -0.156597   0.273611  -0.218221   0.065652
   16  C   1 ZZ  -0.010810  -0.018770  -0.099079   0.190436  -0.160059
   17  C   1 XY  -0.004301  -0.020883   0.040487  -0.022281   0.025893
   18  C   1 XZ   0.088050  -0.265345   0.139367  -0.079072  -0.210032
   19  C   1 YZ   0.027292   0.141317   0.000723  -0.085236  -0.063619
   20  C   1 XX   1.865156   0.245478   1.105611  -0.718792  -0.631518
   21  C   1 YY   0.229789   0.147939  -1.745464   0.378642  -0.333467
   22  C   1 ZZ  -2.094945  -0.393418   0.639853   0.340149   0.964985
   23  C   1 XY  -0.516428  -0.263985  -0.753334   0.739175   0.402569
   24  C   1 XZ   0.577967   2.834348  -0.355611  -1.481041   0.058124
   25  C   1 YZ   3.203105   1.067122  -0.793022  -0.497139   0.005389
   26  C   2  S   0.000534   0.000202   0.104269   0.005706   0.104408
   27  C   2  S   0.001084   0.000612   0.213952   0.011675   0.207070
   28  C   2  S  -0.020695  -0.008705  -2.956831  -0.164975  -1.897236
   29  C   2  S  -0.023562  -0.013668   7.567276   0.536526  -0.469168
   30  C   2  X  -0.217439  -0.260680  -0.027566   0.158422  -0.075518
   31  C   2  Y   0.127378   0.154495  -0.292105  -0.113570  -0.144637
   32  C   2  Z  -0.482747  -0.579180  -0.085629   0.350168  -0.004507
   33  C   2  X   9.515748   5.934848   2.017306  -4.147748  -0.126664
   34  C   2  Y  -5.584673  -3.540745   4.657248   2.847666   4.939808
   35  C   2  Z  21.065411  13.114880   0.883385  -9.460302   1.347434
   36  C   2  X   0.651707  -0.473368  -1.236501  -0.099908   0.603578
   37  C   2  Y  -0.372150   0.262811  -1.137572  -0.079257   1.493945
   38  C   2  Z   1.434052  -1.028328   0.266805  -0.009790   0.133801
   39  C   2 XX  -0.173603   0.168897   0.223147   0.046746  -0.087699
   40  C   2 YY   0.066480   0.029577  -0.299721   0.075493  -0.087667
   41  C   2 ZZ   0.107123  -0.198474   0.076573  -0.122238   0.175366
   42  C   2 XY  -0.006309  -0.086982   0.106769  -0.095855  -0.282713
   43  C   2 XZ  -0.193582   0.159553  -0.049571   0.003729   0.076115
   44  C   2 YZ  -0.160204  -0.041898  -0.149456  -0.196345   0.038102
   45  C   2 XX  -2.058671  -2.024568  -2.118788   0.297254   0.460813
   46  C   2 YY   1.568453   1.287486   2.687342  -1.660664   0.805236
   47  C   2 ZZ   0.490218   0.737082  -0.568554   1.363410  -1.266049
   48  C   2 XY  -0.833528  -0.557201  -0.663828   1.585373   1.232433
   49  C   2 XZ  -2.486991  -2.353678   0.681541   0.939622  -0.780190
   50  C   2 YZ  -3.490277  -2.833157   1.001540   3.833827   0.225267
   51  C   3  S  -0.082757   0.000670  -0.031173  -0.023538   0.060517
   52  C   3  S  -0.102274   0.021084  -0.074449  -0.082764   0.116337
   53  C   3  S   4.684645   7.162407   1.407647  -5.134841  -0.425291
   54  C   3  S  -4.204181  -1.965177  -3.436740   0.632341  -0.332903
   55  C   3  X  -0.392151   0.038378  -0.069892   0.036551  -0.185915
   56  C   3  Y  -0.037511  -0.121640  -0.086154  -0.095971  -0.018148
   57  C   3  Z  -0.450308   0.134173  -0.093216  -0.362372   0.035645
   58  C   3  X  13.006213   5.411704   0.785577  -6.177669   3.545889
   59  C   3  Y   2.668507   1.979165   1.561034   1.023753  -0.082085
   60  C   3  Z  11.332551   4.822350   3.319998  -0.634483  -0.281322
   61  C   3  X   1.036147   0.256768  -0.339025  -0.015593   0.385618
   62  C   3  Y   0.764510  -0.462787   0.247212   0.021845  -0.300953
   63  C   3  Z   0.814538  -0.022775  -0.367751   0.274618   0.121726
   64  C   3 XX   0.079396  -0.255654  -0.198816  -0.209001   0.158674
   65  C   3 YY  -0.025011   0.079106   0.194173   0.235903  -0.032387
   66  C   3 ZZ  -0.054386   0.176549   0.004643  -0.026902  -0.126287
   67  C   3 XY  -0.000236   0.127468   0.091428   0.091607   0.103748
   68  C   3 XZ   0.013319   0.216118   0.102942  -0.061683  -0.117283
   69  C   3 YZ   0.042065   0.018423   0.084012   0.090441   0.156283
   70  C   3 XX   1.544504   2.786811   1.182957  -1.241355   0.195761
   71  C   3 YY  -1.874010  -1.097698  -1.968958  -0.264581   0.006005
   72  C   3 ZZ   0.329505  -1.689113   0.786001   1.505936  -0.201766
   73  C   3 XY   0.973876   0.161589  -0.424718  -0.418664  -0.223055
   74  C   3 XZ   3.289511   0.391653  -0.240621  -0.746810   0.835760
   75  C   3 YZ   0.628175   1.222996  -0.249797  -0.576508  -0.593649
   76  H   4  S  -0.326477   0.316455  -0.283553   0.347449   0.311547
   77  H   4  S  -6.638376  -0.162187  -2.858617   2.631436   3.204343
   78  H   4  S  -0.985296  -1.019800  -0.090128   0.104572   0.365613
   79  H   4  X   0.026699  -0.061510   0.021013   0.074274   0.009929
   80  H   4  Y  -0.032136   0.007765  -0.023675  -0.085472  -0.061434
   81  H   4  Z   0.029620  -0.011324   0.014171   0.072596  -0.031018
   82  H   4  X  -1.503631  -0.027357  -0.381771   0.255504   0.490689
   83  H   4  Y   0.473535  -0.228422   0.233100   0.333447  -0.081225
   84  H   4  Z   0.514540   0.879563   0.456729  -0.913843  -0.647613
   85  H   5  S  -0.258604  -0.308473   0.021376   0.008760  -0.220386
   86  H   5  S  -7.524743  -4.102414   1.446903   1.871865   0.996033
   87  H   5  S  -0.452036   0.106192   0.064967  -0.220310   0.349452
   88  H   5  X   0.034894  -0.081994  -0.000788   0.074258   0.073601
   89  H   5  Y  -0.002011  -0.031419   0.028509  -0.002279  -0.003079
   90  H   5  Z   0.024650  -0.053988   0.005219   0.023239  -0.132786
   91  H   5  X   1.682201   1.180261  -0.623369  -0.803058  -0.407730
   92  H   5  Y   0.703915   0.841019   0.256777  -0.486652  -0.054128
   93  H   5  Z   0.898959  -0.216632  -0.213184   0.260112  -0.470249
   94  H   6  S  -0.246826  -0.353386   0.543221  -0.312004  -0.035558
   95  H   6  S  -7.294083  -1.707822   3.424957  -0.108684  -0.238876
   96  H   6  S  -1.709252   0.441388   0.064786   0.125940  -0.012077
   97  H   6  X   0.002011  -0.017013   0.002986   0.083278  -0.018034
   98  H   6  Y  -0.009886   0.023222  -0.037040  -0.003095   0.000172
   99  H   6  Z   0.039000  -0.061704  -0.013937  -0.009809  -0.025251
  100  H   6  X  -0.105742   0.239071  -0.355878  -0.371446  -0.198695
  101  H   6  Y  -1.680251  -0.255815   0.431792   0.254437  -0.391642
  102  H   6  Z  -0.790217  -0.126227   0.732745  -0.123638   0.477306
  103  H   7  S  -0.000893  -0.006553  -0.787696  -0.048387  -0.414182
  104  H   7  S  -0.004501   0.057296  -6.140368  -0.442601  -5.781439
  105  H   7  S  -0.006482   0.008958   0.127958   0.018709  -1.080865
  106  H   7  X  -0.006609   0.024272   0.089056  -0.012065  -0.112316
  107  H   7  Y   0.003940  -0.014756  -0.035936   0.009090  -0.030477
  108  H   7  Z  -0.014317   0.050677  -0.047140  -0.043419   0.043865
  109  H   7  X  -0.196536  -0.097192  -0.168754  -0.525113  -0.518465
  110  H   7  Y   0.111627   0.024335   0.821468   0.382181   1.590943
  111  H   7  Z  -0.416005  -0.210392   0.386106  -1.143961   0.638080
  112  H   8  S   0.326870  -0.327924  -0.233585  -0.378153   0.314107
  113  H   8  S   6.658409  -0.063581  -2.470883  -2.925646   3.292751
  114  H   8  S   0.992725   1.012448  -0.079179  -0.117837   0.378614
  115  H   8  X   0.009644   0.031836  -0.002035   0.016378   0.018570
  116  H   8  Y   0.011353   0.010160  -0.015822   0.030313  -0.063169
  117  H   8  Z   0.048569  -0.054202  -0.047348   0.124639  -0.015188
  118  H   8  X   1.304092   0.629509  -0.430117  -0.937068   0.801287
  119  H   8  Y  -0.340507  -0.134558   0.316335   0.068572  -0.252506
  120  H   8  Z  -0.978038   0.602465   0.151293  -0.465862  -0.028461
  121  H   9  S   0.258955   0.309860   0.012074  -0.006638  -0.235093
  122  H   9  S   7.493142   4.115118   1.489668  -1.618160   0.763348
  123  H   9  S   0.451941  -0.119972   0.023302   0.218479   0.322755
  124  H   9  X  -0.004361   0.021744   0.004548  -0.034001   0.144676
  125  H   9  Y  -0.015282   0.068234   0.028115  -0.019305  -0.043400
  126  H   9  Z   0.039588  -0.075516   0.003089   0.066398   0.021089
  127  H   9  X  -0.631925  -1.112673  -0.298590   0.788835   0.064412
  128  H   9  Y  -1.321386  -0.891917  -0.002162   0.466137  -0.289567
  129  H   9  Z   1.391679   0.370822   0.660406  -0.106445   0.482801
  130  H  10  S   0.247266   0.365408   0.492037   0.375373  -0.025934
  131  H  10  S   7.359905   1.828367   3.415474   0.411659  -0.095615
  132  H  10  S   1.715202  -0.433897   0.082728  -0.125537  -0.015695
  133  H  10  X   0.028467  -0.036746   0.013444  -0.062035   0.005251
  134  H  10  Y  -0.007382   0.007548  -0.036422  -0.014140  -0.012259
  135  H  10  Z   0.028168  -0.057435  -0.015317   0.052452   0.023448
  136  H  10  X  -0.190617  -0.205553  -0.692081   0.039869  -0.539899
  137  H  10  Y   1.860292   0.260701   0.641907  -0.065699  -0.149395
  138  H  10  Z   0.194158   0.222602   0.082022  -0.446649  -0.275124
  139  F  11  S  -0.000251  -0.000010  -0.005687  -0.000178   0.001398
  140  F  11  S   0.000023   0.000243   0.024796   0.001015   0.039511
  141  F  11  S   0.008787   0.005924   0.706943   0.032148   0.336284
  142  F  11  S   0.023728  -0.011061  -0.223498  -0.043994   1.216775
  143  F  11  X  -0.040453   0.015935   0.161415   0.126119  -0.078678
  144  F  11  Y   0.023206  -0.005595   0.182400  -0.055042  -0.147424
  145  F  11  Z  -0.089215   0.029750  -0.045216   0.252625  -0.001376
  146  F  11  X  -0.166330  -0.079812  -0.170928   0.084348  -0.220969
  147  F  11  Y   0.094957   0.048451  -0.028143  -0.055638   0.018165
  148  F  11  Z  -0.357712  -0.176900   0.056297   0.201527   0.105611
  149  F  11  X  -0.256067   0.370250   0.372624   0.290960  -0.820596
  150  F  11  Y   0.146251  -0.201172   0.943439  -0.085985  -0.660799
  151  F  11  Z  -0.546738   0.786033   0.024616   0.570107   0.202008
  152  F  11 XX  -0.009286  -0.006001   0.003520   0.014875  -0.001654
  153  F  11 YY  -0.000237  -0.001736  -0.003848  -0.001755   0.003545
  154  F  11 ZZ   0.009523   0.007737   0.000328  -0.013121  -0.001891
  155  F  11 XY   0.003302   0.003786  -0.002481  -0.003617  -0.000855
  156  F  11 XZ  -0.009380  -0.005813  -0.005012   0.014998  -0.000730
  157  F  11 YZ  -0.000989   0.002408   0.000321   0.005406   0.002377
  158  F  11 XX   0.147671  -0.184296  -0.214731  -0.157356   0.263167
  159  F  11 YY  -0.025994   0.035335   0.355798  -0.091555   0.187382
  160  F  11 ZZ  -0.121677   0.148961  -0.141068   0.248911  -0.450548
  161  F  11 XY  -0.024841   0.027685  -0.245292   0.142971   0.377652
  162  F  11 XZ   0.153924  -0.191279  -0.044317  -0.113924  -0.361336
  163  F  11 YZ   0.073339  -0.088777   0.264865   0.227864   0.076885

                    101        102        103        104        105
                    1.3151     1.3198     1.3702     1.4292     1.4308
                     A          A          A          A          A   
    1  C   1  S  -0.026776  -0.039432   0.058036   0.028602   0.018532
    2  C   1  S  -0.049914  -0.103216   0.100890   0.052387   0.020992
    3  C   1  S  -1.524224   2.273516  -2.410414  -1.011303  -6.458015
    4  C   1  S   4.310742   1.876892  -3.283385   4.629883  -1.578067
    5  C   1  X   0.070034   0.139822  -0.165423  -0.061568  -0.041605
    6  C   1  Y  -0.101271   0.139105  -0.002035  -0.007869  -0.013027
    7  C   1  Z  -0.088738   0.147262   0.113243  -0.097877   0.146346
    8  C   1  X  -1.710380  -3.926072   3.335235   1.226454  -0.907419
    9  C   1  Y   1.380434  -3.602309  -0.400060   0.450793  -2.106965
   10  C   1  Z   4.141758  -2.220389  -0.707810   3.882727   4.530040
   11  C   1  X  -0.450712  -1.330276   1.412335   0.206517   0.379322
   12  C   1  Y   0.936665  -0.688508  -0.823142   1.046618  -0.725103
   13  C   1  Z  -0.310153  -1.730715   0.579176  -0.402639   0.271579
   14  C   1 XX  -0.181880   0.203040   0.052387  -0.220539  -0.025047
   15  C   1 YY   0.232000  -0.324500   0.003099   0.072561   0.079469
   16  C   1 ZZ  -0.050120   0.121460  -0.055486   0.147977  -0.054422
   17  C   1 XY   0.180907   0.100889  -0.085043  -0.108171  -0.003685
   18  C   1 XZ   0.140266   0.302465  -0.202740  -0.121511  -0.034091
   19  C   1 YZ   0.065575   0.013033  -0.051568   0.242235   0.161606
   20  C   1 XX   1.455421  -1.334575  -0.712113   1.437542   1.036223
   21  C   1 YY  -1.256175   2.160155   0.196800  -0.342545  -0.384115
   22  C   1 ZZ  -0.199246  -0.825579   0.515313  -1.094997  -0.652107
   23  C   1 XY  -1.232476  -0.789027   0.548372   0.983155   0.228036
   24  C   1 XZ  -0.766687  -2.198227   1.973504   0.144418   0.193616
   25  C   1 YZ  -0.078116   0.461746   0.188215  -0.320711   0.045446
   26  C   2  S  -0.043097  -0.003430   0.000161  -0.035569  -0.001179
   27  C   2  S  -0.076545  -0.006364   0.000266  -0.055781  -0.001698
   28  C   2  S   0.261717   0.054275  -0.006352   0.641169   0.030443
   29  C   2  S  -9.797860  -0.396400  -0.106911 -10.476171  -0.413994
   30  C   2  X   0.162032   0.013477   0.022832  -0.036431  -0.066280
   31  C   2  Y   0.235778   0.006536  -0.013527   0.244310   0.047250
   32  C   2  Z  -0.007518   0.013435   0.053463   0.088896  -0.143223
   33  C   2  X  -1.570984   0.136685   0.366952  -2.761874   3.099921
   34  C   2  Y  -4.919774  -0.344475  -0.231891  -7.395309  -2.160093
   35  C   2  Z  -0.728508   0.383318   0.821813  -1.099912   7.055204
   36  C   2  X   1.654235   0.519173   0.780410   1.560016   0.366616
   37  C   2  Y   1.557797  -0.222250  -0.412956   0.562305  -0.156809
   38  C   2  Z  -0.391557   0.983808   1.680946  -0.613115   0.664103
   39  C   2 XX  -0.092624  -0.054215  -0.107353  -0.064890   0.057650
   40  C   2 YY   0.046075   0.011293  -0.064861   0.321372  -0.098960
   41  C   2 ZZ   0.046549   0.042922   0.172215  -0.256482   0.041309
   42  C   2 XY  -0.181598   0.005246   0.098649   0.157640   0.095622
   43  C   2 XZ   0.020835  -0.054826  -0.090537  -0.093941   0.086445
   44  C   2 YZ   0.085696  -0.021098   0.115458   0.113440   0.239310
   45  C   2 XX  -0.563765   0.395332   0.674913   1.077209  -2.045821
   46  C   2 YY  -0.462859  -0.263697   0.241908  -1.375432   1.615668
   47  C   2 ZZ   1.026624  -0.131635  -0.916821   0.298223   0.430154
   48  C   2 XY   1.520570   0.120143  -0.448318   0.415953  -0.935846
   49  C   2 XZ   1.777349   0.545280   0.600884  -0.147785  -2.547727
   50  C   2 YZ  -1.455583   0.464026  -0.358759  -0.528543  -3.743294
   51  C   3  S  -0.028550   0.035015  -0.058624   0.030297  -0.014482
   52  C   3  S  -0.055606   0.094790  -0.102240   0.054214  -0.013289
   53  C   3  S  -1.467303  -2.359371   2.441831  -1.527713   6.318263
   54  C   3  S   4.392087  -1.493164   3.395437   4.456304   1.921813
   55  C   3  X   0.093227  -0.003672   0.191515   0.015773   0.137091
   56  C   3  Y  -0.097316  -0.220097  -0.013514  -0.057102  -0.045640
   57  C   3  Z  -0.055146   0.121805  -0.050499   0.091240   0.065622
   58  C   3  X  -4.059277   1.378937  -2.656287  -2.190903   4.045352
   59  C   3  Y   2.237690   5.044010   0.031932   2.244580   0.303103
   60  C   3  Z  -0.404293  -2.591623   2.098661  -3.106392   2.599599
   61  C   3  X   0.086326  -0.207605  -0.364872   0.612263   0.120116
   62  C   3  Y   0.511036   1.644052   0.206816   0.765433   0.510561
   63  C   3  Z   1.003598  -1.563419   1.691197   0.442605   0.765845
   64  C   3 XX  -0.200230   0.073590  -0.155088  -0.000608   0.044547
   65  C   3 YY   0.273180   0.166265   0.093680   0.185273  -0.138297
   66  C   3 ZZ  -0.072950  -0.239855   0.061408  -0.184665   0.093750
   67  C   3 XY   0.133206  -0.020957   0.023045  -0.296359   0.046765
   68  C   3 XZ   0.112856   0.047982   0.071100   0.059017   0.078306
   69  C   3 YZ  -0.063419   0.382789  -0.149636   0.059083  -0.012447
   70  C   3 XX   0.935512  -0.550449   1.626829   0.219470   0.011813
   71  C   3 YY  -1.387970  -1.352427  -0.779940  -0.279084   0.241621
   72  C   3 ZZ   0.452459   1.902875  -0.846888   0.059615  -0.253434
   73  C   3 XY  -0.839551   0.527644  -0.246354   1.392178  -0.380045
   74  C   3 XZ  -1.281164  -0.075602  -0.907253  -1.090255   0.799842
   75  C   3 YZ   0.465081  -2.514735   1.086639  -0.615375   0.333589
   76  H   4  S  -0.605575  -0.058942   0.447787  -0.055905  -0.106960
   77  H   4  S  -5.005229  -3.871194   7.868685  -1.822929  -2.638578
   78  H   4  S  -0.165726   0.261315   1.116537   0.237577   0.618404
   79  H   4  X  -0.017835  -0.053467   0.051718   0.112617   0.048591
   80  H   4  Y   0.027020  -0.085847  -0.100817   0.088240  -0.046095
   81  H   4  Z  -0.013900  -0.036585   0.034376   0.079822   0.009953
   82  H   4  X  -0.955151  -0.995351   1.676068  -0.456041  -0.719803
   83  H   4  Y   0.370187  -0.123900  -0.318534   0.573885   0.579531
   84  H   4  Z   0.527542   0.507443  -1.312169   0.472300   0.758400
   85  H   5  S   0.087752   0.790017  -0.332287  -0.460208  -0.151680
   86  H   5  S  -2.008299   8.641922  -4.037484  -3.356716   0.174441
   87  H   5  S  -0.059035   0.954152  -1.052979  -0.507559  -0.151003
   88  H   5  X  -0.052509   0.003828   0.056794   0.017747   0.010859
   89  H   5  Y   0.062492  -0.050639  -0.016730   0.207125  -0.006732
   90  H   5  Z   0.049569   0.028597  -0.083206  -0.091951  -0.025205
   91  H   5  X   0.522285  -1.728608   0.989987   0.189176  -0.282070
   92  H   5  Y   0.368145  -0.607788   0.114432  -0.166462   0.581316
   93  H   5  Z   0.556720  -1.079695   0.214357   0.852050  -0.197777
   94  H   6  S   0.377911  -0.445734  -0.175246   0.271436   0.069722
   95  H   6  S   4.490104  -8.516371  -0.220444   2.407446   0.294172
   96  H   6  S   0.466957  -0.659028  -0.701022   0.473902  -0.854956
   97  H   6  X  -0.072115  -0.061222   0.094648   0.082960   0.039858
   98  H   6  Y  -0.012491  -0.006652  -0.000382   0.009989   0.069641
   99  H   6  Z   0.049674  -0.114263  -0.060754   0.047368  -0.204916
  100  H   6  X  -0.414876  -0.278522   0.173385   0.296059   0.005976
  101  H   6  Y   1.094292  -2.170699   0.009278   0.721114  -0.025581
  102  H   6  Z  -0.025309  -0.234449   0.112739  -0.646478   0.003445
  103  H   7  S   0.142391   0.011360  -0.000482   0.579592   0.022186
  104  H   7  S   8.904242   0.389420   0.001676  10.000905   0.404338
  105  H   7  S  -0.848547  -0.019055  -0.022551  -0.281688  -0.010742
  106  H   7  X  -0.003174   0.061082   0.040948   0.028050  -0.001637
  107  H   7  Y  -0.037945  -0.036353  -0.025137  -0.042213  -0.000266
  108  H   7  Z  -0.015456   0.132035   0.093252  -0.024860  -0.005539
  109  H   7  X  -1.136254  -0.549098  -0.030648  -0.402098   0.620917
  110  H   7  Y  -2.797354   0.188181   0.016063  -2.482020  -0.471028
  111  H   7  Z  -0.182979  -1.150439  -0.065446  -0.544964   1.379344
  112  H   8  S  -0.611924   0.007276  -0.441559  -0.057713   0.101572
  113  H   8  S  -5.292805   3.494290  -7.852425  -1.972524   2.461493
  114  H   8  S  -0.167568  -0.290056  -1.100746   0.293746  -0.596083
  115  H   8  X   0.002521   0.025422   0.007859   0.037060  -0.014083
  116  H   8  Y   0.007004   0.105188   0.065153   0.130653   0.036172
  117  H   8  Z   0.036444  -0.020677   0.096688  -0.091490   0.054326
  118  H   8  X  -1.037945   0.995495  -2.010033  -0.603724   0.865528
  119  H   8  Y   0.352278   0.117717   0.506896   0.667061  -0.646931
  120  H   8  Z   0.554685  -0.334163   0.586518   0.319915  -0.291829
  121  H   9  S   0.145462  -0.779613   0.322801  -0.472577   0.123811
  122  H   9  S  -1.402080  -8.816076   3.979407  -3.393526  -0.372010
  123  H   9  S   0.004638  -0.971099   1.056691  -0.535432   0.113469
  124  H   9  X  -0.061720   0.020178  -0.092200   0.117866  -0.014171
  125  H   9  Y   0.061981   0.037962   0.040087   0.146326   0.024424
  126  H   9  Z   0.033676   0.041942   0.001316   0.126333   0.006382
  127  H   9  X  -0.004898   0.511537  -0.536135  -0.497491  -0.092700
  128  H   9  Y   0.566277   1.381753  -0.383286   0.271963  -0.368927
  129  H   9  Z  -0.422230  -1.630762   0.766716  -0.656615  -0.597495
  130  H  10  S   0.342079   0.472675   0.176310   0.269579  -0.052888
  131  H  10  S   3.844737   8.749981   0.247861   2.423112  -0.114966
  132  H  10  S   0.440833   0.701046   0.697259   0.398719   0.887452
  133  H  10  X  -0.084400  -0.046082  -0.105945   0.039007  -0.185131
  134  H  10  Y  -0.009124   0.065067   0.007378   0.043403   0.019484
  135  H  10  Z   0.027462  -0.104549   0.031967  -0.072788  -0.123726
  136  H  10  X  -0.090865   0.428829  -0.029998   0.797010   0.060610
  137  H  10  Y   0.724210   2.114362  -0.080699   0.435395   0.057481
  138  H  10  Z   0.713492   0.634271   0.187638   0.457282   0.052674
  139  F  11  S  -0.010819  -0.000424   0.000049  -0.003017  -0.000120
  140  F  11  S  -0.002567  -0.001006   0.000067  -0.025815  -0.000822
  141  F  11  S   0.528364   0.010112  -0.002502  -0.294348  -0.008029
  142  F  11  S   1.476783   0.037592   0.002729  -0.013327   0.005179
  143  F  11  X   0.053332  -0.063557  -0.058824  -0.134530  -0.094348
  144  F  11  Y  -0.088650   0.036861   0.034358   0.186664   0.060748
  145  F  11  Z  -0.040170  -0.146694  -0.126570   0.121079  -0.196130
  146  F  11  X  -0.074109   0.033857   0.056736   0.280627   0.117857
  147  F  11  Y   0.133137  -0.014433  -0.033180  -0.199646  -0.073204
  148  F  11  Z   0.066586   0.070555   0.122179  -0.190676   0.236184
  149  F  11  X  -0.134687  -0.312825  -0.349599  -0.084363  -0.068390
  150  F  11  Y  -0.786690   0.161485   0.200610   0.059576   0.042320
  151  F  11  Z  -0.119764  -0.702273  -0.765752   0.070985  -0.149509
  152  F  11 XX   0.009625  -0.002148   0.007839   0.000720  -0.004640
  153  F  11 YY  -0.009695  -0.001072   0.000396   0.000104   0.000838
  154  F  11 ZZ   0.000070   0.003221  -0.008235  -0.000824   0.003802
  155  F  11 XY   0.008230   0.001838  -0.002923   0.004858   0.000891
  156  F  11 XZ  -0.002011  -0.002432   0.007873   0.001285  -0.004949
  157  F  11 YZ  -0.007074   0.000682   0.000586  -0.002175  -0.002577
  158  F  11 XX   0.116274   0.147977   0.407818   0.034467   0.310028
  159  F  11 YY   0.011050   0.025080   0.183300   0.199319  -0.368718
  160  F  11 ZZ  -0.127324  -0.173057  -0.591118  -0.233786   0.058690
  161  F  11 XY   0.581023  -0.053999  -0.316710  -0.114834   0.264359
  162  F  11 XZ   0.059226   0.147829   0.361336  -0.274105   0.403409
  163  F  11 YZ  -0.241534  -0.037041  -0.301010   0.198078   0.819727

                    106        107        108        109        110
                    1.4970     1.5150     1.5597     1.5646     1.6044
                     A          A          A          A          A   
    1  C   1  S  -0.111023  -0.262160  -0.033236   0.216127  -0.484090
    2  C   1  S  -0.226401  -0.491853  -0.060604   0.430294  -0.947626
    3  C   1  S   4.588400   2.888957  -0.287446  -1.418832   4.655367
    4  C   1  S   0.969911   4.476880   0.627695  -6.907571   3.160575
    5  C   1  X   0.025837   0.005180   0.066636   0.049917  -0.057094
    6  C   1  Y   0.028706   0.038939  -0.049713   0.014091  -0.087096
    7  C   1  Z  -0.009807  -0.123969  -0.055840  -0.071929   0.015929
    8  C   1  X   1.995828  -0.314177  -1.993188  -3.401641   2.348384
    9  C   1  Y   2.618786  -1.286539   1.415675   0.978973  -0.092983
   10  C   1  Z   0.241577   2.005637   2.132452  -1.597425   2.773991
   11  C   1  X  -0.131164   0.065330  -0.409262  -0.570685   0.450893
   12  C   1  Y  -0.216648   0.248617   0.351360  -0.177260   0.390954
   13  C   1  Z  -0.214814  -0.259575   0.129719   1.449162   0.271415
   14  C   1 XX  -0.218090   0.040269   0.380003   0.155086   0.219430
   15  C   1 YY   0.261357   0.065352   0.023911  -0.035878   0.007721
   16  C   1 ZZ  -0.043267  -0.105621  -0.403914  -0.119207  -0.227151
   17  C   1 XY  -0.154863  -0.502306  -0.337348  -0.044552   0.288381
   18  C   1 XZ  -0.232681   0.152781   0.096241   0.145691  -0.053407
   19  C   1 YZ   0.051804  -0.108734  -0.312685  -0.136312  -0.180001
   20  C   1 XX   1.305329   0.297914  -1.343114  -0.704478  -0.406438
   21  C   1 YY   0.376986  -0.561018   0.256909  -0.825436  -0.039268
   22  C   1 ZZ  -1.682315   0.263105   1.086206   1.529914   0.445706
   23  C   1 XY   1.542276   1.871851   1.218073  -0.762251  -0.790078
   24  C   1 XZ  -0.164240  -0.529848  -0.295749  -0.064607   0.108896
   25  C   1 YZ  -1.215768   0.785894   1.316682   0.607920   1.078835
   26  C   2  S  -0.003913  -0.288790   0.001797   0.116925  -0.312649
   27  C   2  S  -0.024774  -0.565518   0.003414   0.230249  -0.654724
   28  C   2  S  -0.656487   4.298988  -0.091599  -3.671471   2.155814
   29  C   2  S   1.642211  -6.172380   0.336646  14.248451  -2.295167
   30  C   2  X  -0.098214   0.321758  -0.021780  -0.400965   0.090434
   31  C   2  Y   0.171544   0.023864   0.005701  -0.103392   0.192038
   32  C   2  Z   0.089544  -0.140368  -0.023015   0.154891   0.008652
   33  C   2  X   0.586401  -2.790680   0.545082   4.605310  -1.725641
   34  C   2  Y  -0.565192  -0.287319  -0.196645   1.725323  -1.361083
   35  C   2  Z  -0.419204   1.183414   0.894443  -1.615142   0.454038
   36  C   2  X   0.909846   1.037701  -0.266816  -0.857446   0.166235
   37  C   2  Y   1.571788   1.632761   0.073989  -3.406919  -0.356852
   38  C   2  Z   0.016677  -0.037371  -0.552585  -0.525104  -0.152133
   39  C   2 XX   0.107522   0.309749  -0.107044   0.297361  -0.059433
   40  C   2 YY  -0.365287  -0.095781  -0.139911  -0.179899  -0.009160
   41  C   2 ZZ   0.257765  -0.213968   0.246955  -0.117462   0.068593
   42  C   2 XY  -0.252563   0.158549   0.169625   0.079360   0.026308
   43  C   2 XZ   0.029096  -0.296192  -0.076370  -0.234617   0.096314
   44  C   2 YZ  -0.087039   0.004878   0.259517  -0.035603  -0.050480
   45  C   2 XX   0.159743   0.033789   0.036539   0.407673   0.620456
   46  C   2 YY   4.457133  -0.430432   0.769075  -1.934452  -0.614738
   47  C   2 ZZ  -4.616876   0.396643  -0.805614   1.526779  -0.005719
   48  C   2 XY   2.531798  -0.386967  -0.798645  -2.168564   1.292644
   49  C   2 XZ  -2.648233   0.126535  -0.174987   0.021254   0.146105
   50  C   2 YZ   2.110734  -0.110739  -1.542956  -0.061448  -0.884627
   51  C   3  S  -0.109825  -0.262716   0.036479   0.214215  -0.485683
   52  C   3  S  -0.223895  -0.493337   0.066828   0.426599  -0.950160
   53  C   3  S   4.589751   2.913301   0.332819  -1.389805   4.720678
   54  C   3  S   0.985066   4.527292  -0.927277  -6.897165   3.199425
   55  C   3  X   0.029919   0.099297  -0.075312   0.090395  -0.064050
   56  C   3  Y   0.025754  -0.015005   0.054190  -0.007582  -0.082751
   57  C   3  Z   0.000010   0.083298   0.037247   0.009733  -0.003109
   58  C   3  X   1.683238  -1.883278   2.623197  -1.058855  -0.367430
   59  C   3  Y   2.847081  -0.394218  -1.751114  -0.420471   1.550833
   60  C   3  Z  -0.470960  -1.456987  -0.663877   3.784546  -3.264569
   61  C   3  X   0.025265   0.277300   0.245643  -1.464992   0.193993
   62  C   3  Y  -0.293825   0.114575  -0.278148   0.312913   0.562084
   63  C   3  Z   0.125510   0.224321  -0.394292  -0.470282  -0.310129
   64  C   3 XX   0.038689  -0.242473   0.113215  -0.097879   0.138792
   65  C   3 YY   0.142068  -0.160713   0.326333  -0.130170  -0.062427
   66  C   3 ZZ  -0.180757   0.403186  -0.439548   0.228049  -0.076365
   67  C   3 XY  -0.123820  -0.185820  -0.166937   0.125784   0.399336
   68  C   3 XZ   0.049458  -0.076123   0.308116  -0.084364  -0.120525
   69  C   3 YZ   0.322874   0.291607  -0.314062   0.012991  -0.050536
   70  C   3 XX   0.496211   0.913900  -0.167890   0.199900  -0.471693
   71  C   3 YY  -0.272279   0.590866  -1.533485  -0.230966   0.489293
   72  C   3 ZZ  -0.223932  -1.504766   1.701376   0.031066  -0.017600
   73  C   3 XY   2.453736   0.532016   0.472911  -1.599616  -1.362653
   74  C   3 XZ  -0.754715  -0.213070  -0.864002   0.664150  -0.085579
   75  C   3 YZ   0.013931  -1.398961   0.977210  -0.428889  -0.039790
   76  H   4  S   0.051028  -0.106088   0.064187  -0.193748  -0.039408
   77  H   4  S  -0.624178  -2.365177  -3.848692  -2.559695  -1.541840
   78  H   4  S   0.136137  -0.015950  -0.557383  -0.444570  -0.102282
   79  H   4  X  -0.041797   0.070747  -0.142839   0.022234   0.037870
   80  H   4  Y  -0.029431   0.140685  -0.103221   0.107812   0.022059
   81  H   4  Z   0.001084   0.105873  -0.232777  -0.018185   0.158469
   82  H   4  X   0.075631  -0.854582  -1.568539  -0.879383  -0.839575
   83  H   4  Y   0.536183   0.942478   0.503990  -0.380800  -0.684946
   84  H   4  Z   0.591867  -0.216447   0.417100   0.237932  -0.146097
   85  H   5  S  -0.442803  -0.209623   0.026547   0.320576  -0.343233
   86  H   5  S   0.609014  -1.927706   0.432318   2.698387  -5.435669
   87  H   5  S   0.212037  -0.484570   0.251517   0.114607  -0.918264
   88  H   5  X  -0.049738   0.121260  -0.013829   0.016447   0.188861
   89  H   5  Y  -0.022566  -0.181059   0.004319  -0.103531   0.086318
   90  H   5  Z   0.150548  -0.037544   0.017488  -0.111622  -0.150000
   91  H   5  X  -0.958554   0.367592   0.656969  -0.211472   1.427041
   92  H   5  Y  -0.247139  -0.597878  -1.072069  -0.144388   0.292326
   93  H   5  Z  -0.177730   0.361590  -0.669994  -0.640362   0.959895
   94  H   6  S   0.237014  -0.091772  -0.166195   0.112485  -0.156858
   95  H   6  S  -1.477902  -1.124086   1.890473   2.998376  -1.009229
   96  H   6  S  -0.250596   0.128558   0.365166   0.017611   0.130423
   97  H   6  X   0.074087   0.097041   0.266267  -0.176240  -0.161989
   98  H   6  Y   0.054758  -0.062757  -0.042423   0.026358  -0.095082
   99  H   6  Z  -0.101459   0.115663   0.103047  -0.002536   0.242094
  100  H   6  X   0.215249   0.796783   0.286436   0.076253  -0.450815
  101  H   6  Y  -0.950937  -0.490598   0.853205   0.932678  -0.185775
  102  H   6  Z  -0.286766  -0.080131   0.642377   0.917512   0.186232
  103  H   7  S  -0.444663  -0.149726   0.002168   0.352426   0.201084
  104  H   7  S  -6.107788   0.985953  -0.035342   2.389854   1.945702
  105  H   7  S  -1.356539  -0.726198   0.026403   1.352475   0.381477
  106  H   7  X   0.099164   0.018282   0.002597   0.266619   0.128507
  107  H   7  Y  -0.005226   0.039106   0.000816   0.032663   0.068870
  108  H   7  Z  -0.046259   0.001077  -0.003597  -0.112383  -0.037267
  109  H   7  X  -0.919602   0.263097   0.358881   0.083276  -0.713199
  110  H   7  Y   0.528155  -0.262966  -0.213541  -0.967868  -0.607373
  111  H   7  Z   0.559096  -0.179264   0.806464  -0.308117   0.164460
  112  H   8  S   0.050972  -0.108032  -0.070221  -0.192200  -0.041228
  113  H   8  S  -0.603327  -2.386108   3.784311  -2.712621  -1.527347
  114  H   8  S   0.131737  -0.020819   0.543719  -0.458252  -0.098887
  115  H   8  X  -0.034234  -0.003049  -0.052109   0.048161  -0.083698
  116  H   8  Y  -0.037686   0.185475   0.215528   0.086236   0.085039
  117  H   8  Z   0.018295  -0.054957  -0.190962   0.044608  -0.104869
  118  H   8  X  -0.264171  -0.252965   1.235218  -0.879631  -0.588927
  119  H   8  Y   0.728615   0.579047  -0.336149  -0.380634  -0.853100
  120  H   8  Z  -0.157496   1.115655  -1.093440   0.358123   0.396179
  121  H   9  S  -0.444054  -0.208213  -0.015555   0.324651  -0.344073
  122  H   9  S   0.537910  -1.918130  -0.317152   2.749946  -5.474614
  123  H   9  S   0.210231  -0.472383  -0.249396   0.140936  -0.922724
  124  H   9  X  -0.143849   0.075132   0.024025   0.068218   0.249870
  125  H   9  Y   0.034697  -0.152488  -0.007169  -0.135105   0.056615
  126  H   9  Z  -0.057373  -0.141342   0.001254   0.006156  -0.010376
  127  H   9  X  -0.556589  -0.133356  -0.719813   0.287252   0.360739
  128  H   9  Y  -0.473843  -0.292937   1.098404  -0.470481   0.945214
  129  H   9  Z   0.652647  -0.706078   0.567501   0.444640  -1.442087
  130  H  10  S   0.234468  -0.089762   0.171164   0.108372  -0.156552
  131  H  10  S  -1.413162  -1.165118  -1.842071   3.038288  -0.959099
  132  H  10  S  -0.238761   0.120419  -0.372274  -0.003941   0.138311
  133  H  10  X   0.131587  -0.029183  -0.101066  -0.107347  -0.299580
  134  H  10  Y   0.021456   0.010202  -0.057776  -0.009778  -0.015654
  135  H  10  Z   0.025088  -0.155498   0.268883   0.130672  -0.065591
  136  H  10  X   0.164154   0.501124   0.078376  -0.422132  -0.489714
  137  H  10  Y  -0.894731  -0.326686  -1.065844   1.250047  -0.161573
  138  H  10  Z  -0.384723  -0.717470   0.217914  -0.187757   0.153278
  139  F  11  S  -0.002291  -0.011515  -0.000331  -0.021550   0.012783
  140  F  11  S  -0.024290  -0.053130  -0.002095  -0.132728   0.058197
  141  F  11  S  -0.229660   0.067814  -0.015845  -0.814204   0.147940
  142  F  11  S  -1.269947   0.625792  -0.104749  -5.471945   0.943536
  143  F  11  X  -0.148060   0.111009   0.040503  -0.298755   0.072313
  144  F  11  Y  -0.072938  -0.162456  -0.024492   0.181105   0.271781
  145  F  11  Z   0.045008  -0.092054   0.109004   0.181983   0.040389
  146  F  11  X   0.375991   0.103160  -0.116823   1.141808  -0.381189
  147  F  11  Y   0.130113   0.241532   0.074050  -0.391337  -0.606592
  148  F  11  Z  -0.129616   0.014598  -0.316489  -0.617104   0.009203
  149  F  11  X  -0.278132   0.001348   0.085653   0.752376  -0.373846
  150  F  11  Y  -0.466558  -0.327945  -0.038375   0.298415   0.208259
  151  F  11  Z   0.000462  -0.083783   0.168310  -0.265706   0.227536
  152  F  11 XX   0.003506   0.007209  -0.001710   0.007981  -0.005417
  153  F  11 YY   0.002122  -0.005438   0.001076  -0.009870   0.003615
  154  F  11 ZZ  -0.005628  -0.001771   0.000633   0.001889   0.001802
  155  F  11 XY   0.006889  -0.005731  -0.000512  -0.003521  -0.000958
  156  F  11 XZ  -0.003789  -0.008222  -0.002143  -0.004800   0.004459
  157  F  11 YZ  -0.000266   0.002582  -0.002617  -0.001498   0.000456
  158  F  11 XX   0.315237  -0.084532  -0.095736   0.402191   0.111270
  159  F  11 YY  -0.715324   0.175907  -0.094377  -0.226111  -0.229682
  160  F  11 ZZ   0.400087  -0.091375   0.190112  -0.176080   0.118411
  161  F  11 XY  -0.214647   0.362391   0.118584   0.064332  -0.098474
  162  F  11 XZ   0.024096   0.128620  -0.089315  -0.350117  -0.019643
  163  F  11 YZ  -0.261724  -0.103743   0.163127  -0.007913  -0.064039

                    111        112        113        114        115
                    1.6222     1.6375     1.6596     1.6690     1.7017
                     A          A          A          A          A   
    1  C   1  S   0.017594   0.295999   0.017427   0.156957  -0.352515
    2  C   1  S   0.061903   0.559174   0.027816   0.308160  -0.655492
    3  C   1  S   1.135254  -3.680764  -0.238083  -3.052330   3.186967
    4  C   1  S   2.547919   3.544305  -1.058725   3.231748  -2.114432
    5  C   1  X  -0.070663   0.030570  -0.006687   0.004191  -0.072441
    6  C   1  Y   0.057622   0.010774  -0.027289   0.013179   0.110937
    7  C   1  Z  -0.168638   0.034116   0.038648  -0.085191  -0.080693
    8  C   1  X   1.439349   1.588313   0.337490   0.808262  -1.001800
    9  C   1  Y   1.272652   0.867203   0.191362   0.277420  -0.863196
   10  C   1  Z   0.506839   1.265030  -0.782863   3.314197   0.875769
   11  C   1  X   0.983185   0.119136   0.121055  -0.163582  -0.193826
   12  C   1  Y   0.919394   0.407796  -0.215667   0.771200  -0.662488
   13  C   1  Z  -0.082753  -1.216384   0.098575  -0.266165   0.907862
   14  C   1 XX   0.286245  -0.102958  -0.140985   0.172618  -0.029613
   15  C   1 YY   0.066337   0.160413  -0.011640   0.156060   0.024088
   16  C   1 ZZ  -0.352582  -0.057455   0.152625  -0.328678   0.005525
   17  C   1 XY   0.653204  -0.109338   0.102511  -0.209376   0.079539
   18  C   1 XZ  -0.108030  -0.104747  -0.053887   0.075632   0.128218
   19  C   1 YZ  -0.175032  -0.006749   0.081346  -0.213798   0.201971
   20  C   1 XX  -1.117204   0.566157   0.786035  -0.176827   0.258846
   21  C   1 YY  -0.503006   0.066518  -0.504558  -0.433547   0.597676
   22  C   1 ZZ   1.620210  -0.632675  -0.281477   0.610374  -0.856521
   23  C   1 XY  -2.613551   1.132683  -0.524564   0.884347  -0.930263
   24  C   1 XZ   0.942327  -0.607089  -0.132227  -0.927089  -0.477950
   25  C   1 YZ   0.532856  -0.295499  -0.639046   1.133518  -0.282804
   26  C   2  S  -0.009751   0.331529  -0.000122   0.151114  -0.508538
   27  C   2  S  -0.019935   0.657200   0.000074   0.319251  -0.940374
   28  C   2  S   0.085000  -2.539200   0.006976  -0.242918   7.585148
   29  C   2  S   0.123871 -11.824596  -0.119340  -9.443840   9.591611
   30  C   2  X   0.044032   0.059052  -0.005111   0.099503  -0.055530
   31  C   2  Y  -0.025475   0.100565   0.008523   0.091510  -0.109537
   32  C   2  Z   0.099727   0.001578  -0.019656  -0.021030  -0.003931
   33  C   2  X  -0.042979  -3.226525  -0.314833  -3.201757   2.638079
   34  C   2  Y   0.108898  -4.171165   0.044853  -4.893136   0.798541
   35  C   2  Z  -0.177803   0.344241  -0.535972   0.155127  -0.998370
   36  C   2  X  -1.074197   0.702681   0.440408   1.156838  -0.431958
   37  C   2  Y   0.617065   2.098995  -0.251203   0.355046  -1.441214
   38  C   2  Z  -2.351207   0.175825   0.919164  -0.469736  -0.191867
   39  C   2 XX   0.170268  -0.270301   0.088129  -0.036873   0.112646
   40  C   2 YY  -0.057636   0.079961   0.120524  -0.028426  -0.064238
   41  C   2 ZZ  -0.112632   0.190340  -0.208653   0.065299  -0.048408
   42  C   2 XY   0.004578  -0.263096  -0.157158  -0.409913  -0.602215
   43  C   2 XZ   0.187699   0.208172   0.053570  -0.108202  -0.353895
   44  C   2 YZ   0.141150   0.069415  -0.229702   0.194471   0.330051
   45  C   2 XX   0.904923   0.984703  -0.310978   1.545098  -0.645713
   46  C   2 YY  -0.298688   0.547660  -0.640491  -1.575552   0.917917
   47  C   2 ZZ  -0.606235  -1.532363   0.951469   0.030454  -0.272204
   48  C   2 XY  -0.014591   2.097495   0.766700   1.962651   1.296566
   49  C   2 XZ   1.008358  -0.887560  -0.192820  -0.051259   0.712837
   50  C   2 YZ   0.789648  -0.214542   1.150897  -1.528190  -0.301227
   51  C   3  S  -0.039848   0.294433  -0.014977   0.157181  -0.351490
   52  C   3  S  -0.104936   0.555249  -0.022836   0.307980  -0.653435
   53  C   3  S  -0.844928  -3.706371   0.164093  -3.083852   3.155961
   54  C   3  S  -2.536746   3.439544   1.142180   3.167786  -2.136814
   55  C   3  X  -0.085104  -0.004836   0.038495   0.063910   0.030236
   56  C   3  Y   0.032024   0.031001   0.007262  -0.022747   0.049849
   57  C   3  Z  -0.169115  -0.041216   0.029828   0.047601   0.143504
   58  C   3  X  -0.817581   0.330119  -0.889141  -1.736954  -1.481982
   59  C   3  Y  -1.661528   1.531221   0.179465   1.741916  -0.579311
   60  C   3  Z   0.746303  -1.478871  -0.398188  -2.327772  -0.164252
   61  C   3  X  -0.906387   0.983614   0.029232   0.206951  -0.903573
   62  C   3  Y  -0.971656  -0.155121   0.156624   0.529055  -0.249121
   63  C   3  Z   0.242196   0.782764   0.240056   0.591515  -0.661431
   64  C   3 XX  -0.223896  -0.011713  -0.065013  -0.139936  -0.146455
   65  C   3 YY  -0.070288   0.058820  -0.093316  -0.112791   0.188397
   66  C   3 ZZ   0.294184  -0.047107   0.158330   0.252726  -0.041942
   67  C   3 XY  -0.669476  -0.069092   0.076220   0.157564  -0.045738
   68  C   3 XZ   0.159755   0.024644  -0.132743  -0.167031  -0.033568
   69  C   3 YZ   0.175036   0.208446   0.095991   0.277039  -0.145871
   70  C   3 XX   1.141605   0.801499  -0.302266   0.957134  -0.052303
   71  C   3 YY   0.486172   0.047909   1.029947   0.575982  -0.169239
   72  C   3 ZZ  -1.627777  -0.849408  -0.727681  -1.533116   0.221542
   73  C   3 XY   2.631557   1.194374  -0.152907  -0.502828  -0.043170
   74  C   3 XZ  -0.826886  -0.413001   0.455170  -0.107303  -0.574927
   75  C   3 YZ  -0.388012  -0.185314  -0.311627  -0.798003   1.246072
   76  H   4  S  -0.079740   0.134243   0.023990  -0.067835  -0.485338
   77  H   4  S   1.539474   0.657460  -0.805438  -1.639589  -1.269331
   78  H   4  S   0.455913   0.333188   0.110168  -0.114229  -0.158844
   79  H   4  X  -0.047496   0.115840  -0.218885  -0.190723   0.009586
   80  H   4  Y  -0.141812   0.384192  -0.231709  -0.048065  -0.026602
   81  H   4  Z  -0.046384  -0.031923  -0.224798  -0.283568   0.118484
   82  H   4  X  -0.063164   0.099033   0.404418  -0.686387  -0.016283
   83  H   4  Y  -1.183493   0.081725   0.338968   0.449046   0.146562
   84  H   4  Z  -0.722457  -0.205899   0.853159  -0.309670  -0.019383
   85  H   5  S  -0.050715  -0.043751   0.016502  -0.037485   0.095324
   86  H   5  S  -3.356285   0.680600   0.307345  -1.569545  -0.098905
   87  H   5  S  -0.445738   0.434160  -0.257280  -0.203240  -0.286557
   88  H   5  X   0.048481   0.129959  -0.274932  -0.116663   0.009744
   89  H   5  Y   0.133455  -0.290483   0.399981   0.164012  -0.159015
   90  H   5  Z  -0.144609  -0.088777   0.250235   0.044990  -0.020952
   91  H   5  X   1.424282  -0.574991  -0.180724   0.809753   0.065230
   92  H   5  Y   0.979989   0.027702   0.069515  -0.630068   0.456960
   93  H   5  Z  -0.103219  -0.015811  -0.076728   0.030736   0.384007
   94  H   6  S  -0.048750   0.161782   0.056564   0.010199  -0.304046
   95  H   6  S   2.418381   1.790007   1.889113   2.745114  -2.499804
   96  H   6  S   0.663141   0.162510  -0.058181   0.445676  -0.539497
   97  H   6  X  -0.105187  -0.365759   0.363771   0.237060  -0.044186
   98  H   6  Y  -0.012522   0.072902  -0.024509   0.023417   0.037979
   99  H   6  Z   0.081445  -0.016354   0.101678   0.113679  -0.125093
  100  H   6  X  -1.315513   0.758518  -0.875472   0.230631  -0.307906
  101  H   6  Y   0.769155   0.452587   0.619071   0.919477  -0.634686
  102  H   6  Z   0.355757  -0.303984  -0.440497   0.264731  -0.372146
  103  H   7  S  -0.007699   0.216892   0.011428   0.558695  -0.169829
  104  H   7  S  -0.153012   5.439808   0.174159   9.553105  -6.256692
  105  H   7  S  -0.001005  -0.795032   0.009390   0.332678   0.530212
  106  H   7  X  -0.044305  -0.092449  -0.017889  -0.114846  -0.436245
  107  H   7  Y   0.028691  -0.048858   0.010586  -0.003014   0.013182
  108  H   7  Z  -0.105202   0.025632  -0.036084   0.050217   0.199531
  109  H   7  X   0.088702  -0.732851  -0.261907  -1.052146  -0.692376
  110  H   7  Y  -0.003378  -1.632841   0.089831  -2.559971   2.038344
  111  H   7  Z   0.184107  -0.093275  -0.525988  -0.189327   0.847008
  112  H   8  S   0.078877   0.134865  -0.025882  -0.065654  -0.483024
  113  H   8  S  -1.538690   0.651002   0.721889  -1.686922  -1.241950
  114  H   8  S  -0.462258   0.310065  -0.113444  -0.124470  -0.159480
  115  H   8  X   0.017843   0.174078   0.031242   0.066949  -0.081794
  116  H   8  Y   0.145037   0.360048   0.333435  -0.207897   0.025996
  117  H   8  Z  -0.002889   0.097279  -0.174254   0.283816  -0.083622
  118  H   8  X  -0.257122   0.238781   0.255818  -0.174448   0.034453
  119  H   8  Y   1.353438   0.039897  -0.734502   0.171137   0.114621
  120  H   8  Z   0.034065   0.081280   0.669728   0.838233   0.079813
  121  H   9  S   0.042454  -0.044409  -0.021869  -0.037624   0.095168
  122  H   9  S   3.252222   0.770099  -0.381951  -1.509993  -0.123972
  123  H   9  S   0.422903   0.446029   0.235160  -0.203080  -0.289489
  124  H   9  X  -0.162305   0.096223   0.289968  -0.090852  -0.007997
  125  H   9  Y  -0.057911  -0.272361  -0.397037   0.158907  -0.148182
  126  H   9  Z  -0.100519  -0.168147  -0.217035   0.135453  -0.062161
  127  H   9  X  -1.206945  -0.414474   0.076669   0.404657  -0.143819
  128  H   9  Y  -1.091612  -0.125604  -0.012551  -0.398644   0.575933
  129  H   9  Z   0.512930   0.440334  -0.238168  -0.838159  -0.083697
  130  H  10  S   0.036787   0.163802  -0.055949   0.014012  -0.308972
  131  H  10  S  -2.593263   1.677331  -1.799230   2.790294  -2.510778
  132  H  10  S  -0.671715   0.142206   0.079912   0.441612  -0.538928
  133  H  10  X   0.133968  -0.222193  -0.166709   0.086099   0.067718
  134  H  10  Y  -0.000561  -0.014895  -0.087542   0.118731  -0.026899
  135  H  10  Z  -0.034914   0.300116   0.314969  -0.237765   0.117603
  136  H  10  X   0.979392   0.845000   0.162877   0.141280  -0.050588
  137  H  10  Y  -0.630728   0.396782  -0.167428   0.967346  -0.774890
  138  H  10  Z  -1.060929  -0.219490  -1.128141   0.112913   0.155845
  139  F  11  S   0.000128   0.023498   0.000256   0.012360  -0.051261
  140  F  11  S   0.000402   0.092453   0.000220   0.014373  -0.189602
  141  F  11  S  -0.003934   0.263400  -0.000535  -0.019928  -0.220777
  142  F  11  S  -0.011532   2.161026   0.003494   0.650973  -2.479287
  143  F  11  X   0.044678   0.158746  -0.062882   0.182049  -0.056950
  144  F  11  Y  -0.029140   0.122394   0.046474   0.335533   0.028875
  145  F  11  Z   0.103751  -0.037221  -0.145517   0.012686   0.031282
  146  F  11  X  -0.112618  -0.636391   0.174714  -0.220724   0.839964
  147  F  11  Y   0.070243  -0.179569  -0.122173  -0.778797  -0.304922
  148  F  11  Z  -0.255186   0.235043   0.387756  -0.123252  -0.455997
  149  F  11  X   0.018666   0.083121  -0.156187   0.062399   0.272966
  150  F  11  Y  -0.012602  -0.153551   0.087609  -0.214929   0.172033
  151  F  11  Z   0.059357  -0.074938  -0.343781  -0.074763  -0.079021
  152  F  11 XX   0.000755   0.000261   0.001008   0.013371   0.016408
  153  F  11 YY  -0.001492  -0.000805  -0.001588  -0.011215  -0.009517
  154  F  11 ZZ   0.000737   0.000544   0.000580  -0.002156  -0.006891
  155  F  11 XY   0.001233   0.008744   0.001111   0.004134  -0.005749
  156  F  11 XZ   0.001536   0.003941   0.000911  -0.008269  -0.017993
  157  F  11 YZ   0.003668  -0.005181   0.002685  -0.004099   0.004301
  158  F  11 XX   0.088599  -0.143839   0.079301  -0.106901  -0.189146
  159  F  11 YY   0.000867  -0.018121   0.019083   0.060849   0.147613
  160  F  11 ZZ  -0.089466   0.161959  -0.098385   0.046052   0.041533
  161  F  11 XY  -0.033356  -0.231958  -0.049391  -0.104994  -0.290719
  162  F  11 XZ   0.083697   0.117898   0.077572   0.049726   0.029437
  163  F  11 YZ   0.001442   0.037534  -0.028202   0.048003   0.172863

                    116        117        118        119        120
                    1.7572     1.7693     1.7867     1.8000     1.8539
                     A          A          A          A          A   
    1  C   1  S   0.089272   0.384166   0.093409   0.095915   0.558016
    2  C   1  S   0.172483   0.742522   0.148629   0.195414   1.097805
    3  C   1  S  -1.648922  -3.707788  -2.877964  -1.685453  -7.548210
    4  C   1  S  -1.897721  -2.450373  -1.518680   0.511157  -5.078124
    5  C   1  X   0.027484  -0.020667   0.039079   0.079644   0.070870
    6  C   1  Y  -0.005893   0.117965  -0.238884  -0.154903   0.035113
    7  C   1  Z  -0.066508  -0.047494   0.338001  -0.092159   0.051831
    8  C   1  X  -0.772472  -0.344555   0.413848   0.278912   0.310350
    9  C   1  Y  -0.330448   0.553731   2.337552   1.649893   0.950555
   10  C   1  Z   0.488691   0.662095  -2.215121   0.769459  -2.720258
   11  C   1  X  -0.552369   0.142634   0.275197   0.019985   0.436726
   12  C   1  Y   0.158634   0.001615   0.499249   0.011083  -0.552857
   13  C   1  Z   0.645539   0.324024   0.355846  -0.216806   0.583032
   14  C   1 XX   0.242311  -0.005161  -0.049429   0.137573  -0.105696
   15  C   1 YY  -0.186473   0.142655   0.091304  -0.313449  -0.031556
   16  C   1 ZZ  -0.055838  -0.137494  -0.041874   0.175876   0.137252
   17  C   1 XY  -0.170491   0.154683   0.026279  -0.071408   0.080792
   18  C   1 XZ  -0.024300   0.130492  -0.231160  -0.162390  -0.235619
   19  C   1 YZ  -0.042383  -0.095349  -0.413122  -0.004986  -0.129043
   20  C   1 XX   0.066370   0.100815  -0.194301   0.154429  -0.821538
   21  C   1 YY  -1.457237  -0.248175  -1.682980   0.894809   0.990691
   22  C   1 ZZ   1.390867   0.147360   1.877281  -1.049238  -0.169154
   23  C   1 XY   0.908151  -1.000464  -0.170569  -0.041896  -0.317976
   24  C   1 XZ  -1.401011   0.674952  -0.005977  -0.130361   0.940559
   25  C   1 YZ   0.807714   0.015111   0.447885  -0.706029  -0.757048
   26  C   2  S  -0.002755   0.323047   0.002826   0.144091   0.000395
   27  C   2  S  -0.005891   0.677234   0.005827   0.292916   0.001403
   28  C   2  S  -0.006424  -1.788569  -0.057534  -0.108445   0.044281
   29  C   2  S  -0.263388   3.221764   0.124551  -2.862928  -0.083258
   30  C   2  X   0.044855   0.231512  -0.203562   0.187445  -0.078983
   31  C   2  Y  -0.030660   0.023247   0.116065   0.134083   0.045311
   32  C   2  Z   0.114191  -0.086726  -0.443280  -0.061002  -0.175848
   33  C   2  X   0.301815   1.736545  -0.038535   0.077989  -0.881374
   34  C   2  Y  -0.203442  -3.173951   0.039516  -1.822205   0.492683
   35  C   2  Z   0.860160  -1.619760  -0.212062  -0.535869  -1.929526
   36  C   2  X   0.694547  -0.252262   0.102210   0.481369   0.615618
   37  C   2  Y  -0.367048  -0.632031  -0.092047   0.623102  -0.337103
   38  C   2  Z   1.485760  -0.042092   0.276165  -0.046027   1.330112
   39  C   2 XX   0.291794   0.399819  -0.164354   0.329490  -0.180160
   40  C   2 YY   0.193421  -0.273681   0.217394  -0.426342  -0.149292
   41  C   2 ZZ  -0.485215  -0.126138  -0.053041   0.096852   0.329452
   42  C   2 XY  -0.281094   0.032354  -0.141137  -0.360851   0.202777
   43  C   2 XZ   0.270014  -0.313307  -0.218865  -0.268104  -0.148723
   44  C   2 YZ  -0.315426  -0.020235  -0.454173   0.010119   0.272523
   45  C   2 XX  -1.490879  -0.880795  -0.675417  -0.092129   0.805870
   46  C   2 YY  -1.016282   0.258957  -1.132654   0.872685   0.799730
   47  C   2 ZZ   2.507161   0.621838   1.808071  -0.780555  -1.605600
   48  C   2 XY   1.477815  -0.777626   1.243438   2.182722  -1.027399
   49  C   2 XZ  -1.278626   0.697264  -0.364328   0.218002   0.613841
   50  C   2 YZ   1.729312   0.139033   2.175216  -0.376782  -1.472188
   51  C   3  S  -0.103007   0.381373  -0.084156   0.096432  -0.559085
   52  C   3  S  -0.199395   0.735774  -0.131531   0.197913  -1.099584
   53  C   3  S   1.765445  -3.721591   2.844044  -1.606787   7.555465
   54  C   3  S   2.142800  -2.439964   1.408162   0.575424   5.157173
   55  C   3  X  -0.066471   0.030022   0.256077   0.105247  -0.013531
   56  C   3  Y   0.029094   0.080451   0.073825  -0.151974  -0.070686
   57  C   3  Z  -0.016467   0.078832   0.324034  -0.055719   0.066792
   58  C   3  X   0.909715  -0.497963  -2.311737  -0.177458  -2.352846
   59  C   3  Y   0.204063   0.735015  -1.283939   1.694399   0.297402
   60  C   3  Z  -0.210213   0.151558  -1.908856  -0.011804  -1.761174
   61  C   3  X   0.834355  -0.110809  -0.032117   0.173207   0.233945
   62  C   3  Y  -0.294522   0.166816  -0.633080  -0.140278   0.160634
   63  C   3  Z  -0.063537  -0.292995   0.171879   0.127659   0.881224
   64  C   3 XX  -0.072989  -0.118471  -0.265786   0.253206  -0.261732
   65  C   3 YY   0.233889   0.093052   0.239054  -0.240926   0.094995
   66  C   3 ZZ  -0.160900   0.025419   0.026732  -0.012280   0.166737
   67  C   3 XY   0.064874   0.251323  -0.219186  -0.183757  -0.026056
   68  C   3 XZ   0.184324   0.041593  -0.156084  -0.052779  -0.159144
   69  C   3 YZ  -0.004950   0.005651  -0.268866  -0.106121  -0.060591
   70  C   3 XX  -1.832658  -0.691452  -0.688987  -0.262656   1.099039
   71  C   3 YY   0.326072  -0.378061   0.754330   0.123090  -0.271604
   72  C   3 ZZ   1.506586   1.069513  -0.065343   0.139566  -0.827435
   73  C   3 XY   0.808869  -0.646770   1.273898   1.017212  -0.453692
   74  C   3 XZ  -0.109141  -0.077862  -0.607174  -0.270632  -0.852964
   75  C   3 YZ   1.164378   0.093501   1.206871   1.058929  -0.639414
   76  H   4  S  -0.248154   0.081144   0.100117  -0.216815   0.385931
   77  H   4  S  -3.830842   1.447487  -0.290947   0.371601   6.507520
   78  H   4  S  -0.753619   0.283608   0.045420   0.131544   0.474648
   79  H   4  X   0.093560   0.087809  -0.084799   0.217400   0.045915
   80  H   4  Y   0.385128  -0.150260  -0.177999  -0.194394   0.038697
   81  H   4  Z  -0.261575   0.232374   0.008263   0.214003   0.081174
   82  H   4  X  -1.371640   0.455223  -0.249827  -0.010110   1.586362
   83  H   4  Y   0.480540  -0.429605  -0.125143   0.144336  -0.711674
   84  H   4  Z   0.121096  -0.392807  -0.072826   0.060962  -1.007796
   85  H   5  S  -0.003824   0.058835   0.280286   0.060340   0.380368
   86  H   5  S   2.058321  -0.173073  -0.333098   0.382681   3.589329
   87  H   5  S  -0.222672  -0.059401  -0.352190  -0.028456  -0.296956
   88  H   5  X   0.034485   0.195416   0.119322   0.004032  -0.054005
   89  H   5  Y   0.012903   0.150908  -0.162135  -0.019390   0.148536
   90  H   5  Z  -0.055832  -0.339668   0.029039   0.006943   0.165371
   91  H   5  X  -0.293882   0.089016   0.130862  -0.251539  -0.940066
   92  H   5  Y  -0.509644   0.146445   0.020183  -0.037333  -0.052817
   93  H   5  Z  -0.719896  -0.039558  -0.298978   0.223900  -1.055543
   94  H   6  S   0.199840   0.278772   0.358327   0.300738   0.087603
   95  H   6  S   2.924678   1.348859   5.989956   1.196500   0.375184
   96  H   6  S   0.602178   0.072151   0.554150   0.125156   0.116185
   97  H   6  X  -0.079239   0.111916  -0.151786   0.020342  -0.149226
   98  H   6  Y  -0.145828   0.105607  -0.117173  -0.061660  -0.020596
   99  H   6  Z   0.349424   0.045062   0.016409  -0.305334   0.268322
  100  H   6  X   0.368308  -0.438268  -0.036786  -0.065616   0.000600
  101  H   6  Y   0.923258   0.179663   1.794326   0.640906   0.206860
  102  H   6  Z   0.355546   0.256069   1.254478  -0.278466  -0.430447
  103  H   7  S  -0.007496   0.399908  -0.004690   0.412033   0.000452
  104  H   7  S   0.080254   4.557602   0.116702  -1.014329  -0.016633
  105  H   7  S  -0.003264   0.103212  -0.003638  -0.035075  -0.006731
  106  H   7  X   0.080924  -0.311526  -0.130675   0.177990   0.284563
  107  H   7  Y  -0.046267   0.016786   0.067722   0.118169  -0.165846
  108  H   7  Z   0.164702   0.158073  -0.258431  -0.062271   0.617912
  109  H   7  X  -0.475711   0.384282  -0.429954  -1.179433   0.212214
  110  H   7  Y   0.267037  -1.873126   0.227007   0.322661  -0.122882
  111  H   7  Z  -1.037840  -0.665518  -1.069044   0.567624   0.503363
  112  H   8  S   0.249483   0.092465  -0.088852  -0.214122  -0.392415
  113  H   8  S   3.753773   1.528223   0.284562   0.520834  -6.506129
  114  H   8  S   0.745110   0.311524  -0.041319   0.138238  -0.470253
  115  H   8  X  -0.312507  -0.149179   0.095204  -0.040622   0.019609
  116  H   8  Y  -0.250136  -0.035800   0.174167  -0.037629  -0.084350
  117  H   8  Z  -0.224119  -0.265108   0.028207  -0.358007   0.059824
  118  H   8  X   0.903642   0.528225   0.141710   0.015161  -1.659316
  119  H   8  Y  -0.190103  -0.455338   0.163642   0.161718   0.746654
  120  H   8  Z  -1.081736  -0.309936  -0.173966  -0.015308   0.858542
  121  H   9  S  -0.002792   0.067387  -0.280056   0.061723  -0.387711
  122  H   9  S  -2.119863  -0.257292   0.335056   0.495540  -3.694478
  123  H   9  S   0.221879  -0.063675   0.353181   0.011779   0.296875
  124  H   9  X  -0.077146   0.401360  -0.014360  -0.014517   0.124290
  125  H   9  Y   0.005807   0.028410   0.112860  -0.005763  -0.194670
  126  H   9  Z  -0.016390   0.109767   0.174978  -0.008811  -0.007231
  127  H   9  X  -0.209267   0.111238  -0.279523  -0.367577  -0.106896
  128  H   9  Y   0.811602   0.149410   0.074949  -0.000727   0.694766
  129  H   9  Z  -0.416081   0.005378  -0.076971   0.061909  -1.269114
  130  H  10  S  -0.215808   0.280179  -0.357294   0.270615  -0.082221
  131  H  10  S  -2.955649   1.447674  -5.976335   0.684175  -0.310513
  132  H  10  S  -0.595838   0.058014  -0.553859   0.071031  -0.116527
  133  H  10  X   0.323640   0.071451   0.123559   0.229118   0.300136
  134  H  10  Y   0.001650   0.130751   0.141110  -0.168486  -0.069454
  135  H  10  Z   0.199847  -0.051745  -0.061491   0.136064   0.061271
  136  H  10  X  -0.147443  -0.471000   0.555350   0.313510  -0.334963
  137  H  10  Y  -1.048576   0.216971  -2.118196   0.269168   0.021569
  138  H  10  Z   0.055583   0.242823  -0.085660   0.449786  -0.318852
  139  F  11  S   0.001569  -0.053884  -0.001394   0.024262   0.000431
  140  F  11  S   0.005502  -0.192339  -0.003659   0.030212   0.000774
  141  F  11  S   0.006057  -0.183810  -0.001710  -0.114765  -0.002058
  142  F  11  S   0.059807  -1.627287  -0.080423   1.916808   0.028569
  143  F  11  X  -0.081402  -0.082070  -0.098827   0.296085   0.008925
  144  F  11  Y   0.050670  -0.261516   0.037818   0.325625  -0.000159
  145  F  11  Z  -0.182575  -0.028850  -0.197019  -0.058326   0.012012
  146  F  11  X   0.242579   0.781583   0.283016  -0.348006  -0.048926
  147  F  11  Y  -0.156288   0.531173  -0.119176  -0.795859   0.018702
  148  F  11  Z   0.587116  -0.219722   0.573118  -0.021861  -0.098398
  149  F  11  X  -0.102404   0.393889   0.010948  -0.515042  -0.109183
  150  F  11  Y   0.055218  -0.215028   0.003098  -0.011642   0.060900
  151  F  11  Z  -0.204217  -0.238828  -0.040018   0.231644  -0.222291
  152  F  11 XX   0.000422   0.012255   0.005366   0.011770   0.008105
  153  F  11 YY  -0.003266  -0.014337  -0.001345  -0.007125  -0.001605
  154  F  11 ZZ   0.002845   0.002082  -0.004021  -0.004645  -0.006500
  155  F  11 XY   0.003547  -0.012719  -0.001028   0.004970  -0.001114
  156  F  11 XZ   0.001948  -0.011238   0.006080  -0.008821   0.008398
  157  F  11 YZ   0.007141   0.002337   0.003715  -0.001848   0.004088
  158  F  11 XX   0.259378  -0.304352  -0.067970  -0.084518  -0.134884
  159  F  11 YY  -0.043532   0.000440  -0.065221   0.047910  -0.084599
  160  F  11 ZZ  -0.215846   0.303912   0.133191   0.036608   0.219483
  161  F  11 XY  -0.045261  -0.062617   0.073382   0.316973   0.130950
  162  F  11 XZ   0.261376   0.413639  -0.048487   0.214726  -0.110564
  163  F  11 YZ   0.135750  -0.125118   0.118662  -0.172454   0.149089

                    121        122        123        124        125
                    1.8716     1.8885     1.8906     1.9078     1.9561
                     A          A          A          A          A   
    1  C   1  S  -0.126023  -0.502321  -0.006288   0.192373   0.043962
    2  C   1  S  -0.250544  -1.040276   0.002188   0.403495   0.080228
    3  C   1  S   1.102277   2.570802   1.630712  -0.575232  -2.915550
    4  C   1  S   3.068874   6.939582   2.413258  -4.412808  -0.907813
    5  C   1  X   0.097081   0.132873  -0.030611   0.124315  -0.381533
    6  C   1  Y   0.084861  -0.132865   0.178785   0.178229  -0.224933
    7  C   1  Z  -0.122625   0.324163  -0.249385  -0.025852   0.026066
    8  C   1  X  -0.536900  -2.223393   1.451831  -3.325926   4.223055
    9  C   1  Y  -0.376305  -3.793674  -2.188616  -1.574253   1.440393
   10  C   1  Z   3.874642   3.933102   0.658341  -5.667823   2.433451
   11  C   1  X  -0.062387  -0.363291   0.439583  -0.311761   0.579509
   12  C   1  Y   0.601801   0.465250  -0.131528  -0.727986   0.162315
   13  C   1  Z  -0.008092  -1.279838  -0.540499   0.331083   0.506812
   14  C   1 XX   0.076796   0.034409   0.262390  -0.153453  -0.009490
   15  C   1 YY   0.285191  -0.053876  -0.117132   0.097990  -0.249120
   16  C   1 ZZ  -0.361987   0.019467  -0.145258   0.055463   0.258610
   17  C   1 XY  -0.022011  -0.023825   0.003277  -0.038946   0.047153
   18  C   1 XZ  -0.054623  -0.125556  -0.097368  -0.022735   0.370476
   19  C   1 YZ   0.181770   0.140025   0.347662   0.017610  -0.213757
   20  C   1 XX   0.359514   0.297258  -0.032090  -1.080653   0.484544
   21  C   1 YY  -0.949752   0.447878   0.033340   0.349260  -0.440872
   22  C   1 ZZ   0.590238  -0.745136  -0.001250   0.731393  -0.043672
   23  C   1 XY  -0.212687  -0.945773  -0.417211  -0.632287   0.600642
   24  C   1 XZ   0.412250   0.948191   1.144034  -0.410289   1.228655
   25  C   1 YZ   0.726280   1.048681  -0.087159  -0.283238   0.075444
   26  C   2  S   0.020610   0.015775   0.199768  -0.019488  -0.000793
   27  C   2  S   0.116749   0.037358   0.471914  -0.076884  -0.001818
   28  C   2  S   3.339132   0.055381   0.524322  -1.265120  -0.004044
   29  C   2  S  -6.778480  -0.614548  -7.214467   8.097727  -0.080141
   30  C   2  X  -0.005115  -0.099056  -0.423061  -0.106002  -0.101762
   31  C   2  Y  -0.372248   0.026045  -0.112257  -0.297364   0.058700
   32  C   2  Z  -0.094508  -0.129721   0.175352  -0.031603  -0.225946
   33  C   2  X  -1.882135   3.571074   0.017874   3.537900   0.947185
   34  C   2  Y  -1.787037  -2.075616   0.609932   8.155351  -0.605934
   35  C   2  Z   0.261009   7.826133  -0.577190   0.547589   2.175855
   36  C   2  X   0.810192  -0.735154   0.364308  -0.679927   0.057798
   37  C   2  Y  -0.389202   0.593349   1.960739  -0.532059  -0.030581
   38  C   2  Z  -0.472025  -1.670301   0.520481   0.188305   0.113100
   39  C   2 XX  -0.186532  -0.374538   0.374955  -0.207964  -0.042512
   40  C   2 YY   0.413021   0.096122  -0.173072   0.262674  -0.034613
   41  C   2 ZZ  -0.226489   0.278417  -0.201883  -0.054709   0.077125
   42  C   2 XY   0.055231   0.035224   0.071037  -0.287740   0.052303
   43  C   2 XZ  -0.028772  -0.453649  -0.292162  -0.032567  -0.023366
   44  C   2 YZ   0.189981  -0.265063   0.033854   0.251451   0.072474
   45  C   2 XX   0.009752  -0.074243  -1.318547  -0.325920  -0.509682
   46  C   2 YY  -1.413430   0.992038   0.590326   0.330495   0.704981
   47  C   2 ZZ   1.403677  -0.917795   0.728221  -0.004575  -0.195299
   48  C   2 XY  -0.772810  -0.987865  -0.555648  -0.607336  -0.556582
   49  C   2 XZ   0.758800  -0.119393   1.089566  -0.038079  -0.714054
   50  C   2 YZ  -0.613278  -1.895604   0.288232   0.398489  -1.567901
   51  C   3  S  -0.126691   0.494069  -0.079849   0.186698  -0.048141
   52  C   3  S  -0.253138   1.025789  -0.150183   0.392318  -0.088731
   53  C   3  S   0.996548  -2.270714   1.987635  -0.523829   2.927929
   54  C   3  S   3.105220  -6.444825   3.413203  -4.331991   0.980029
   55  C   3  X   0.162452   0.201894   0.164452   0.134437   0.313028
   56  C   3  Y   0.045435  -0.034557   0.059616   0.171535   0.270833
   57  C   3  Z   0.031075   0.361798   0.183022  -0.000508  -0.163378
   58  C   3  X  -3.260805   4.835925  -0.616783   1.468695  -1.426582
   59  C   3  Y   1.107150   1.985303  -1.741611  -4.402321  -3.166929
   60  C   3  Z  -2.035359   1.911887  -2.600706   4.895925   3.759366
   61  C   3  X   0.079030  -0.653504   0.757111  -0.573255  -0.051400
   62  C   3  Y   0.518008   0.166135  -0.277438  -0.561015  -0.466497
   63  C   3  Z   0.304054  -1.158606   0.120326  -0.257545   0.642229
   64  C   3 XX  -0.140746  -0.080441   0.058892  -0.034742   0.126706
   65  C   3 YY   0.267639  -0.011062   0.106545   0.077809   0.228766
   66  C   3 ZZ  -0.126893   0.091503  -0.165437  -0.043067  -0.355472
   67  C   3 XY   0.065328   0.099131  -0.155142  -0.059370  -0.061905
   68  C   3 XZ  -0.268134   0.026686  -0.384765   0.100640  -0.240310
   69  C   3 YZ   0.179311   0.003018  -0.124193   0.076917   0.289419
   70  C   3 XX  -0.163717   1.299628  -1.237466   0.159062   0.737397
   71  C   3 YY  -0.157523  -0.762050   0.120663  -0.074881  -0.056822
   72  C   3 ZZ   0.321240  -0.537578   1.116803  -0.084181  -0.680575
   73  C   3 XY  -0.824094   0.622320  -0.162025  -0.671038  -0.534322
   74  C   3 XZ  -0.284245   0.917091   0.004646   0.939672   0.109728
   75  C   3 YZ  -0.924921  -0.171806  -0.164958   0.724197   1.095507
   76  H   4  S  -0.256661  -0.346615   0.023096   0.054108   0.523257
   77  H   4  S  -3.223727  -3.291549   3.870477   0.693701   4.165217
   78  H   4  S  -0.136486  -0.362884   0.286526  -0.027423   0.121673
   79  H   4  X  -0.048326   0.055922   0.008437   0.219815  -0.216837
   80  H   4  Y  -0.354386   0.155386   0.112563   0.026471   0.131332
   81  H   4  Z  -0.163665  -0.048789  -0.062747   0.260250   0.075000
   82  H   4  X  -1.065438  -0.720997   0.983250   0.049589   1.243093
   83  H   4  Y   0.532265  -0.302809  -0.236728  -0.160901  -0.299550
   84  H   4  Z   0.373328   0.736788  -0.543993  -0.151278  -0.642303
   85  H   5  S  -0.224532   0.060698  -0.266926   0.895391  -0.807825
   86  H   5  S  -4.102754  -2.484423  -3.185943   7.701930  -7.121963
   87  H   5  S  -0.265262   0.520022  -0.175367   0.376619  -0.567045
   88  H   5  X   0.158936   0.183079  -0.227738   0.134833  -0.215748
   89  H   5  Y  -0.223182   0.474755   0.232826   0.128150   0.110222
   90  H   5  Z  -0.167154  -0.242739  -0.009214   0.012248  -0.277589
   91  H   5  X   1.143872   0.510210   1.029187  -1.859971   1.829155
   92  H   5  Y   0.581097   0.130147   0.474470  -0.241221   0.291883
   93  H   5  Z   0.536823   0.423665   0.378486  -1.390915   1.481906
   94  H   6  S  -0.051984  -0.372674  -0.229927  -0.509921   0.447305
   95  H   6  S   2.700329  -5.954652  -2.376764  -2.740018   3.200179
   96  H   6  S   0.108210  -0.217530   0.116346  -0.191413   0.261239
   97  H   6  X  -0.034146  -0.046386  -0.259455   0.206366  -0.061370
   98  H   6  Y   0.099990  -0.021014   0.047559   0.025845  -0.188360
   99  H   6  Z  -0.268355   0.082554   0.153216   0.297061  -0.040500
  100  H   6  X   0.092875  -0.153800  -0.009715  -0.176500   0.204437
  101  H   6  Y   0.805910  -1.728757  -0.891329  -0.876501   1.082576
  102  H   6  Z   0.406576  -0.282539  -0.572520  -0.091323   0.299330
  103  H   7  S  -0.089382  -0.036848  -0.452886  -0.964840   0.005768
  104  H   7  S   4.908113   0.117900   0.870039  -8.907488   0.082601
  105  H   7  S   0.544306  -0.029848  -0.520935   0.193294   0.001714
  106  H   7  X   0.423849   0.031079   0.070387   0.259329   0.030283
  107  H   7  Y  -0.259377  -0.014439   0.032988  -0.168730  -0.017431
  108  H   7  Z  -0.268230   0.043959  -0.029719  -0.160869   0.060467
  109  H   7  X  -0.029320   0.138607  -0.041046  -0.164298   0.344712
  110  H   7  Y  -0.746768  -0.150483  -0.664464   2.695938  -0.216814
  111  H   7  Z  -0.191077   0.322667  -0.181876   0.797233   0.742768
  112  H   8  S  -0.252958   0.323822  -0.030410   0.053038  -0.521861
  113  H   8  S  -3.146357   3.641851   3.363996   0.610734  -4.243743
  114  H   8  S  -0.137618   0.387438   0.221519  -0.038249  -0.120093
  115  H   8  X   0.019108  -0.082986   0.086423  -0.031889   0.173403
  116  H   8  Y  -0.384398  -0.123669   0.094489   0.176515  -0.108267
  117  H   8  Z  -0.022084  -0.042884   0.084843  -0.291686  -0.162431
  118  H   8  X  -0.862878   1.151313   0.850984   0.085764  -1.264561
  119  H   8  Y   0.396934   0.086879  -0.260150  -0.193318   0.295442
  120  H   8  Z   0.765519  -0.014025  -0.488832  -0.006413   0.661858
  121  H   9  S  -0.227136  -0.091326  -0.246654   0.892519   0.812957
  122  H   9  S  -4.131001   1.972348  -3.442511   7.678217   7.125589
  123  H   9  S  -0.268397  -0.542811  -0.093606   0.380951   0.570188
  124  H   9  X   0.198071  -0.389759  -0.044462   0.112668  -0.069084
  125  H   9  Y  -0.227519  -0.331002   0.211631   0.147253   0.057014
  126  H   9  Z  -0.104192  -0.169563   0.289456  -0.046609  -0.362435
  127  H   9  X   0.507824   0.016582   0.517612  -0.296816  -0.233120
  128  H   9  Y   0.964965  -0.266377   0.810911  -1.153831  -1.237875
  129  H   9  Z  -0.871075   0.429440  -0.795911   1.999212   2.013550
  130  H  10  S  -0.055632   0.338966  -0.289646  -0.515203  -0.458127
  131  H  10  S   2.572779   5.645809  -3.287555  -2.710980  -3.211439
  132  H  10  S   0.106798   0.242848   0.092751  -0.179631  -0.266962
  133  H  10  X   0.179793   0.054245  -0.290468  -0.067283   0.053375
  134  H  10  Y  -0.027295   0.001056   0.058227   0.187257   0.201397
  135  H  10  Z   0.211210   0.039551   0.113787  -0.306512   0.016024
  136  H  10  X  -0.079561   0.248303   0.199041  -0.218306  -0.127172
  137  H  10  Y   0.861034   1.546103  -1.286157  -0.842082  -1.126217
  138  H  10  Z   0.035262   0.457684  -0.125027  -0.180049  -0.149183
  139  F  11  S   0.011440   0.006726   0.072770   0.024949   0.000447
  140  F  11  S   0.033367   0.015155   0.160811   0.060713   0.001541
  141  F  11  S  -0.015313  -0.021624  -0.233835  -0.104934   0.001270
  142  F  11  S   1.584945   0.303327   3.678915  -0.529187   0.010603
  143  F  11  X  -0.035035   0.156495   0.378763   0.046697   0.024117
  144  F  11  Y  -0.008105  -0.087927  -0.149884   0.162914  -0.016318
  145  F  11  Z   0.011815   0.262963  -0.236278   0.022874   0.057075
  146  F  11  X  -0.012106  -0.422892  -0.664569  -0.145684  -0.073926
  147  F  11  Y   0.169107   0.246326   0.303997  -0.415402   0.046925
  148  F  11  Z   0.058184  -0.782023   0.454516  -0.046972  -0.156639
  149  F  11  X  -0.347752  -0.061969  -0.596225  -0.061397   0.106794
  150  F  11  Y   0.200624  -0.000725  -0.144950   0.071043  -0.062650
  151  F  11  Z   0.212929  -0.004903   0.233194   0.044506   0.237451
  152  F  11 XX   0.000320   0.010830   0.007182   0.005134  -0.000093
  153  F  11 YY  -0.006497  -0.001612  -0.007458  -0.010909  -0.001540
  154  F  11 ZZ   0.006176  -0.009218   0.000277   0.005775   0.001633
  155  F  11 XY   0.015215  -0.003215  -0.009932   0.011226   0.001755
  156  F  11 XZ   0.010947   0.010077  -0.010207   0.005930   0.000670
  157  F  11 YZ  -0.013163   0.003505   0.003504  -0.011857   0.003393
  158  F  11 XX  -0.216847   0.112392   0.104970   0.097192   0.059257
  159  F  11 YY   0.092195  -0.066592  -0.180074  -0.113364  -0.071607
  160  F  11 ZZ   0.124652  -0.045800   0.075104   0.016172   0.012349
  161  F  11 XY  -0.071166   0.012103   0.032624   0.048224   0.050356
  162  F  11 XZ   0.200482   0.122152  -0.008019  -0.028351   0.078156
  163  F  11 YZ  -0.006383   0.112377  -0.110491  -0.064106   0.161834

                    126        127        128        129        130
                    1.9657     1.9889     2.0115     2.0266     2.0850
                     A          A          A          A          A   
    1  C   1  S  -0.205623  -0.228691   0.239186  -0.063413  -0.150847
    2  C   1  S  -0.421386  -0.433515   0.487232  -0.118728  -0.328001
    3  C   1  S   1.439217   4.788653  -1.350720   1.857760   4.246427
    4  C   1  S   0.310975   0.277340  -0.456325  -0.041759  -1.468535
    5  C   1  X   0.323410  -0.230654   0.081198   0.170591  -0.056919
    6  C   1  Y  -0.036959   0.122434  -0.179386  -0.400660  -0.185897
    7  C   1  Z   0.085064   0.084606  -0.236107  -0.289523  -0.168366
    8  C   1  X  -5.816927   2.525438  -0.615506  -1.512328  -0.558934
    9  C   1  Y  -0.743826  -1.493968   5.761805   4.278754   1.578089
   10  C   1  Z   1.729468  -2.822078   0.280875   1.918779   0.224763
   11  C   1  X  -0.395887   0.055609  -0.019732   0.106173  -0.046485
   12  C   1  Y   0.271337  -0.080347   0.382335   0.034194  -0.392040
   13  C   1  Z   0.290855  -0.163223  -0.082754   0.008318   0.380709
   14  C   1 XX   0.219510  -0.105228   0.011873   0.050135   0.280018
   15  C   1 YY  -0.057922   0.112746  -0.214319  -0.274974  -0.146089
   16  C   1 ZZ  -0.161587  -0.007518   0.202446   0.224839  -0.133928
   17  C   1 XY   0.039010   0.026522  -0.015750   0.063707   0.027739
   18  C   1 XZ  -0.273899  -0.137905  -0.119591  -0.226081   0.255983
   19  C   1 YZ   0.019719  -0.047948  -0.110041   0.104971   0.408073
   20  C   1 XX   0.188935  -0.633872   0.647181   0.985190   0.422266
   21  C   1 YY  -0.451032   0.577046  -0.724897   0.568628   0.036240
   22  C   1 ZZ   0.262097   0.056825   0.077716  -1.553818  -0.458506
   23  C   1 XY  -1.202116   0.895177  -0.263800  -0.649243   0.913618
   24  C   1 XZ  -0.286097  -1.011620  -0.064549   0.002743  -0.729934
   25  C   1 YZ   0.493832   0.251493  -0.932353  -1.253601  -0.586114
   26  C   2  S   0.107631   0.004720  -0.182143   0.000317   0.341900
   27  C   2  S   0.236400   0.010675  -0.465713   0.003312   0.775259
   28  C   2  S  -1.965531   0.011176  -2.385476   0.105293  -0.181056
   29  C   2  S  -0.552037   0.011945  -0.677025   0.060213   5.200856
   30  C   2  X  -0.279448   0.000729  -0.248686   0.021891  -0.147145
   31  C   2  Y   0.125008   0.002721   0.036379  -0.003901  -0.238024
   32  C   2  Z   0.162815  -0.011385   0.126168   0.029500   0.007364
   33  C   2  X   0.249805  -1.445706   2.250435  -1.015988   0.730058
   34  C   2  Y  -4.014263   0.858325   2.107925   0.454661   2.471648
   35  C   2  Z  -1.282014  -3.139875  -0.658057  -2.027319   0.293200
   36  C   2  X  -0.143157   0.021955   0.064410  -0.112857  -0.386518
   37  C   2  Y  -0.989593  -0.005693   0.468723   0.043512   0.226181
   38  C   2  Z  -0.187675   0.043951   0.090928  -0.244585   0.240649
   39  C   2 XX  -0.023340  -0.046945  -0.108900  -0.095049  -0.316355
   40  C   2 YY  -0.121509  -0.042233   0.293337  -0.102256  -0.143288
   41  C   2 ZZ   0.144848   0.089178  -0.184437   0.197305   0.459643
   42  C   2 XY   0.056985   0.049403   0.016996   0.122246   0.138243
   43  C   2 XZ   0.154187  -0.041466  -0.073250  -0.072002   0.605412
   44  C   2 YZ  -0.130075   0.059999   0.171229   0.166716  -0.348298
   45  C   2 XX  -0.803684   0.252666  -0.594231   1.220668   0.709382
   46  C   2 YY  -1.228198  -0.487008   1.814238   0.731892   2.278889
   47  C   2 ZZ   2.031882   0.234343  -1.220007  -1.952560  -2.988271
   48  C   2 XY  -1.426266   0.385631   0.504638  -1.189219   0.786975
   49  C   2 XZ   1.483125   0.356682  -0.256710   1.031138  -2.436700
   50  C   2 YZ  -0.554454   0.974628   0.749474  -1.440512   1.695742
   51  C   3  S  -0.212354   0.223872   0.244565   0.041527  -0.150229
   52  C   3  S  -0.435583   0.424002   0.496441   0.075351  -0.326296
   53  C   3  S   1.448368  -4.764901  -1.578746  -1.719487   4.239246
   54  C   3  S   0.388420  -0.266568  -0.414690   0.062427  -1.438625
   55  C   3  X   0.151482   0.186756   0.183134  -0.259368   0.047767
   56  C   3  Y   0.058928  -0.096502  -0.215112   0.453500  -0.239389
   57  C   3  Z  -0.303063  -0.165471  -0.007308   0.120817   0.056211
   58  C   3  X  -5.434223  -3.358511   0.363534   1.499615  -0.299780
   59  C   3  Y  -1.006077   1.881144   4.876979  -4.601155   1.345429
   60  C   3  Z   2.821995   0.743263   2.614396  -1.924689   0.962621
   61  C   3  X  -0.421689  -0.134880   0.111188  -0.089815  -0.375024
   62  C   3  Y   0.294099   0.111952   0.295682  -0.070544  -0.205945
   63  C   3  Z   0.243761  -0.025556   0.234574   0.055245  -0.330711
   64  C   3 XX   0.253435  -0.090463   0.205806  -0.311405  -0.244021
   65  C   3 YY  -0.085124  -0.035472  -0.219611   0.127230   0.174750
   66  C   3 ZZ  -0.168311   0.125935   0.013805   0.184175   0.069271
   67  C   3 XY   0.050190  -0.035445  -0.065113   0.173767  -0.110003
   68  C   3 XZ  -0.238853  -0.071329   0.095462   0.011505  -0.353920
   69  C   3 YZ   0.064181  -0.128851  -0.046112   0.168862  -0.320166
   70  C   3 XX   0.056479  -0.749708   0.495897   0.156461   0.907236
   71  C   3 YY  -0.405124  -0.701833  -1.183625   0.847523  -0.220254
   72  C   3 ZZ   0.348645   1.451541   0.687728  -1.003984  -0.686982
   73  C   3 XY  -1.229731  -0.260473   0.198037  -1.101455   1.026307
   74  C   3 XZ  -0.481504  -0.329782  -0.043254   0.788989  -0.167358
   75  C   3 YZ   0.315233  -0.171245  -0.031569  -1.261525   0.065376
   76  H   4  S  -0.892565   0.292124  -0.305703  -0.546937  -0.189902
   77  H   4  S  -7.024076   3.073119  -2.057894  -3.305334  -3.447292
   78  H   4  S  -0.480564   0.032740   0.011019   0.057884  -0.086571
   79  H   4  X   0.234823  -0.295117   0.048695   0.215227   0.213461
   80  H   4  Y   0.162692   0.296515  -0.248037  -0.172055   0.190043
   81  H   4  Z  -0.193004  -0.322754  -0.125764  -0.258604   0.002284
   82  H   4  X  -2.076968   0.822108  -0.483452  -0.572168  -1.123480
   83  H   4  Y   0.196174  -0.205822   0.251455   0.118822   0.470268
   84  H   4  Z   1.198745  -0.599460   0.540322   1.327440   0.616655
   85  H   5  S   0.536714   0.041011  -0.045256  -0.048023  -0.398328
   86  H   5  S   2.772115  -0.170430  -0.349577  -1.037369   2.902189
   87  H   5  S   0.029419  -0.011695   0.129655   0.008832  -0.100483
   88  H   5  X   0.237214  -0.247616   0.016369  -0.135844  -0.110944
   89  H   5  Y   0.096561  -0.192654  -0.205448  -0.140022  -0.082426
   90  H   5  Z   0.078790   0.387115  -0.061486   0.151232  -0.234768
   91  H   5  X  -0.567481   0.239988  -0.032724  -0.032291  -0.834878
   92  H   5  Y  -0.146570  -0.473613   0.197512   0.380354  -0.103577
   93  H   5  Z  -0.660145   0.289880   0.123969   0.762820  -0.623809
   94  H   6  S   0.019331  -0.418576   0.897847   0.598799   0.050496
   95  H   6  S  -0.124911  -4.810793   7.203574   3.776369   0.170355
   96  H   6  S   0.080573  -0.060289   0.379521   0.021425  -0.047592
   97  H   6  X   0.202161  -0.342984  -0.028781  -0.059744   0.344315
   98  H   6  Y   0.039808   0.109490  -0.329082  -0.319330  -0.175856
   99  H   6  Z  -0.016373  -0.004375   0.242642  -0.268968   0.034249
  100  H   6  X  -0.313709   0.401248  -0.073593  -0.182891   0.062723
  101  H   6  Y  -0.134438  -1.717920   2.337398   1.366939   0.020265
  102  H   6  Z   0.166392   0.139589   0.551101  -0.291953  -0.262386
  103  H   7  S   0.620269   0.005491  -0.523382   0.019022  -0.623887
  104  H   7  S   7.798125  -0.009056  -4.248816   0.139394  -5.330039
  105  H   7  S   0.730831  -0.001153  -0.553855   0.016185  -0.236474
  106  H   7  X   0.033646  -0.078571  -0.275856   0.050263  -0.247332
  107  H   7  Y   0.151741   0.052729  -0.275086  -0.012481  -0.097744
  108  H   7  Z   0.023805  -0.176983   0.052055   0.092919   0.086881
  109  H   7  X   0.100850  -0.087587  -0.300090   0.385234   0.074525
  110  H   7  Y  -2.513801   0.055262   1.187689  -0.266510   0.842177
  111  H   7  Z  -0.716991  -0.196414   0.477832   0.834516   0.191060
  112  H   8  S  -0.909034  -0.277462  -0.287700   0.548362  -0.194123
  113  H   8  S  -7.185666  -2.895270  -2.029526   3.301906  -3.527621
  114  H   8  S  -0.494386  -0.024871   0.003013  -0.067325  -0.088576
  115  H   8  X   0.331723  -0.090289   0.062588  -0.296453   0.177953
  116  H   8  Y   0.106852  -0.063971  -0.253260   0.236937   0.213335
  117  H   8  Z   0.007693  -0.516401  -0.078170   0.089300  -0.068515
  118  H   8  X  -2.273968  -0.886088  -0.643627   1.314465  -1.135958
  119  H   8  Y   0.278254   0.255207   0.333962  -0.554620   0.454119
  120  H   8  Z   0.886820   0.312391   0.166802   0.292636   0.657619
  121  H   9  S   0.531957  -0.048744  -0.036214   0.057150  -0.389989
  122  H   9  S   2.666513   0.161175  -0.278171   1.066975   2.980461
  123  H   9  S   0.029544   0.010972   0.134717  -0.014073  -0.088625
  124  H   9  X   0.131987   0.474030   0.047838   0.228245   0.078707
  125  H   9  Y   0.168538   0.063102  -0.190010   0.103498  -0.191991
  126  H   9  Z  -0.169091   0.126773  -0.060557   0.050674   0.170475
  127  H   9  X   0.056838   0.130050  -0.046702   0.486533  -0.144979
  128  H   9  Y  -0.492807   0.252734   0.190278  -0.666123  -0.536834
  129  H   9  Z   0.689788   0.528428   0.070237   0.241659   0.918457
  130  H  10  S   0.032212   0.398768   0.867370  -0.649016   0.048923
  131  H  10  S  -0.039552   4.615984   7.046454  -4.218270   0.104985
  132  H  10  S   0.088746   0.046868   0.374341  -0.045726  -0.051162
  133  H  10  X   0.158482   0.213671  -0.251270  -0.073086   0.179460
  134  H  10  Y   0.060767  -0.026924  -0.173626   0.413795  -0.069192
  135  H  10  Z  -0.117874  -0.284370  -0.262640  -0.044501  -0.336762
  136  H  10  X  -0.356900   0.151776  -0.032933  -0.341101   0.226459
  137  H  10  Y  -0.081726   1.326766   2.248024  -1.193357  -0.094487
  138  H  10  Z   0.085071   1.069504   0.698574  -0.917258   0.096517
  139  F  11  S   0.040306  -0.001915   0.073334  -0.001703  -0.037786
  140  F  11  S   0.101102  -0.004691   0.176822  -0.003981  -0.064428
  141  F  11  S  -0.171078   0.007271  -0.302127   0.009527   0.091222
  142  F  11  S   0.312501  -0.016367   0.552704  -0.007655  -2.458540
  143  F  11  X  -0.030926   0.104030   0.122077   0.111301  -0.179651
  144  F  11  Y  -0.296784  -0.056605  -0.112018  -0.065367   0.179463
  145  F  11  Z  -0.067473   0.233567  -0.072092   0.254204   0.127410
  146  F  11  X   0.029889  -0.157564  -0.307088  -0.296521   0.075544
  147  F  11  Y   0.807571   0.080404   0.274014   0.173021  -0.375047
  148  F  11  Z   0.208952  -0.360475   0.184014  -0.674652  -0.126872
  149  F  11  X   0.026947  -0.027514  -0.028083  -0.038385   0.637957
  150  F  11  Y   0.066022   0.014024   0.147655   0.015472  -0.200649
  151  F  11  Z   0.001781  -0.065834   0.049408  -0.074602  -0.343582
  152  F  11 XX  -0.011950   0.021778   0.001480   0.013362  -0.011574
  153  F  11 YY   0.009031  -0.002341  -0.006739   0.002245   0.001631
  154  F  11 ZZ   0.002920  -0.019437   0.005259  -0.015608   0.009943
  155  F  11 XY  -0.009786  -0.004920  -0.006779  -0.006438   0.009658
  156  F  11 XZ   0.005476   0.022460   0.002091   0.013116   0.019128
  157  F  11 YZ   0.006107   0.008154  -0.001119  -0.001785  -0.009918
  158  F  11 XX  -0.031110   0.200719   0.277718   0.045342   0.117616
  159  F  11 YY   0.101571  -0.020897  -0.367304   0.026732  -0.264343
  160  F  11 ZZ  -0.070461  -0.179822   0.089585  -0.072075   0.146727
  161  F  11 XY  -0.259412  -0.034652  -0.292642  -0.026760   0.140855
  162  F  11 XZ  -0.145637   0.216720  -0.211402   0.052715   0.096217
  163  F  11 YZ   0.201948   0.082181   0.016968  -0.022321  -0.215874

                    131        132        133        134        135
                    2.1214     2.1994     2.2226     2.2383     2.2646
                     A          A          A          A          A   
    1  C   1  S   0.118923   0.204539  -0.007326   0.041035   0.084062
    2  C   1  S   0.282173   0.306821  -0.010532   0.078602   0.097515
    3  C   1  S  -2.121114  -6.126534   2.077288  -2.635430  -8.080197
    4  C   1  S   1.580149   1.909541  -0.272795  -2.197265  -0.123356
    5  C   1  X   0.105227   0.119154  -0.118452   0.301869  -0.097145
    6  C   1  Y   0.110300   0.058818   0.085524  -0.060118  -0.106984
    7  C   1  Z   0.000378   0.168761  -0.023319   0.054248   0.313347
    8  C   1  X  -3.793812   1.674926  -0.852130   1.077688  -2.466186
    9  C   1  Y  -0.667594   0.398953   3.577449  -0.404966   0.383846
   10  C   1  Z   1.410798   0.968921   2.986893   1.480983   2.370461
   11  C   1  X  -0.405039   0.169502   0.059757   0.101050   0.077206
   12  C   1  Y   0.016008   0.433350  -0.108756  -0.443029  -0.123955
   13  C   1  Z  -0.720841  -0.367767   0.153992   0.543950  -0.059430
   14  C   1 XX  -0.385275   0.368480  -0.318701   0.096476   0.087417
   15  C   1 YY  -0.033277   0.058833   0.121663  -0.092253  -0.040125
   16  C   1 ZZ   0.418552  -0.427313   0.197038  -0.004224  -0.047292
   17  C   1 XY   0.233007   0.028866  -0.059319  -0.070473   0.236056
   18  C   1 XZ   0.040448   0.080312  -0.062826  -0.042756   0.030327
   19  C   1 YZ  -0.574893   0.415587   0.203273   0.005748   0.469701
   20  C   1 XX   0.469240  -0.338044  -0.052382   0.606055  -0.128911
   21  C   1 YY   0.818446   0.313585   0.998114  -0.489541   0.084199
   22  C   1 ZZ  -1.287686   0.024459  -0.945732  -0.116514   0.044712
   23  C   1 XY  -0.259921   0.428058  -0.266820  -0.901540  -0.147519
   24  C   1 XZ  -0.183446  -0.510366   0.253512  -0.472580   1.127148
   25  C   1 YZ   0.551082  -0.228417  -0.243628   0.026759  -0.309078
   26  C   2  S   0.001281  -0.032034  -0.002011  -0.137196   0.002965
   27  C   2  S   0.002928   0.001358  -0.002029  -0.150798   0.003013
   28  C   2  S  -0.002157   0.259108   0.112586   6.460006  -0.151373
   29  C   2  S   0.059144  -7.946809   0.165066   6.798101  -0.176840
   30  C   2  X  -0.236850  -0.072206   0.067180   0.714343  -0.095742
   31  C   2  Y   0.137340   0.026167  -0.035266  -0.255032   0.049546
   32  C   2  Z  -0.519100   0.039597   0.126021  -0.398356  -0.171367
   33  C   2  X   1.643224  -2.819594  -0.610677  -0.774041   2.931713
   34  C   2  Y  -0.946982  -3.777779   0.364771   0.751641  -1.760473
   35  C   2  Z   3.614326   0.210795  -1.307117   0.754772   6.443928
   36  C   2  X  -0.207426   0.754047   0.135910  -0.317857  -0.122504
   37  C   2  Y   0.115510   0.648511  -0.091819  -0.392564   0.088696
   38  C   2  Z  -0.439303  -0.172670   0.322989   0.030713  -0.299498
   39  C   2 XX   0.464247  -0.060850  -0.023424   0.448951  -0.094826
   40  C   2 YY  -0.191187  -0.101327   0.131943  -0.290742   0.023658
   41  C   2 ZZ  -0.273060   0.162177  -0.108519  -0.158209   0.071168
   42  C   2 XY   0.030057   0.239363  -0.126049  -0.058791   0.011390
   43  C   2 XZ   0.525677   0.260598  -0.073746  -0.424192  -0.076980
   44  C   2 YZ   0.454617  -0.235519  -0.275608   0.045607  -0.051685
   45  C   2 XX  -0.048632   0.969909   1.393475  -1.586981  -0.338924
   46  C   2 YY   1.119653  -1.055779   0.825777   1.477271   1.461190
   47  C   2 ZZ  -1.071021   0.085870  -2.219252   0.109710  -1.122266
   48  C   2 XY  -1.058458   1.118128  -1.235690   1.743124  -1.366554
   49  C   2 XZ  -0.357580  -0.011645   1.236294   1.763811  -0.819930
   50  C   2 YZ  -2.219315  -0.949804  -1.382146  -0.702756  -3.037237
   51  C   3  S  -0.121080   0.208520   0.007881   0.034977  -0.086209
   52  C   3  S  -0.286493   0.313696   0.012468   0.069237  -0.101797
   53  C   3  S   2.190796  -6.239009  -2.060765  -2.222087   8.209215
   54  C   3  S  -1.618737   1.891882   0.163408  -2.162827   0.236758
   55  C   3  X  -0.089667  -0.034768   0.053369   0.166826   0.298212
   56  C   3  Y  -0.122299   0.151881  -0.045690   0.032604  -0.017436
   57  C   3  Z   0.028583  -0.152989  -0.136514  -0.265168   0.165482
   58  C   3  X   3.674330   0.552736   2.001366  -0.289331   3.302504
   59  C   3  Y   0.770269   0.962366  -4.251830   0.484039  -0.874398
   60  C   3  Z  -1.590841  -1.632719  -0.467702  -1.789911  -0.508090
   61  C   3  X  -0.250387   0.446807   0.067259  -0.400590  -0.055804
   62  C   3  Y   0.358809   0.272681   0.010493  -0.149771   0.128038
   63  C   3  Z  -0.709930   0.271584   0.152435  -0.554682   0.101936
   64  C   3 XX  -0.184311  -0.205283   0.053707   0.061079   0.061352
   65  C   3 YY   0.262423   0.269554  -0.222020  -0.100933  -0.337055
   66  C   3 ZZ  -0.078112  -0.064271   0.168313   0.039855   0.275703
   67  C   3 XY  -0.269350   0.015758   0.249438  -0.056210   0.089283
   68  C   3 XZ  -0.679643  -0.559056  -0.176104  -0.069167   0.220980
   69  C   3 YZ   0.018298  -0.100784  -0.044161   0.012660   0.319408
   70  C   3 XX   0.454368   0.447793   0.695023   0.420341   0.921665
   71  C   3 YY  -0.697662   0.169523  -0.438513  -0.677701   0.057266
   72  C   3 ZZ   0.243294  -0.617316  -0.256510   0.257360  -0.978931
   73  C   3 XY  -0.158402   0.304037  -0.516447  -0.615710  -0.178226
   74  C   3 XZ   1.065392   0.341116   0.203485  -0.657046  -0.306908
   75  C   3 YZ  -0.657221   0.192600  -0.800682   0.442513   0.216240
   76  H   4  S  -0.112143   0.257794  -0.200406  -0.097272   0.024999
   77  H   4  S  -4.430093   2.127829  -2.829891   1.040280  -0.987207
   78  H   4  S   0.106354   0.240358   0.048418   0.084327   0.182005
   79  H   4  X  -0.000778   0.230572  -0.495854   0.208755  -0.035712
   80  H   4  Y   0.346307  -0.357785  -0.298574  -0.048261  -0.093764
   81  H   4  Z  -0.088809   0.212456  -0.403269  -0.283844   0.260931
   82  H   4  X  -0.798018   0.349713  -0.577832   0.484226  -0.257951
   83  H   4  Y  -0.162780   0.153734   0.039454   0.004138   0.133967
   84  H   4  Z   1.262630  -0.738389   0.968021  -0.433263   0.395171
   85  H   5  S   0.342517  -0.054541  -0.081184  -0.052831   0.113275
   86  H   5  S   3.610089   0.347256  -2.336685  -1.790335   1.223697
   87  H   5  S   0.480992  -0.144349  -0.119913  -0.133884   0.158957
   88  H   5  X   0.280562  -0.117256   0.316718   0.081470  -0.009860
   89  H   5  Y  -0.024938  -0.355379  -0.288572   0.295752  -0.502688
   90  H   5  Z  -0.042138   0.480326  -0.374277   0.278548   0.000037
   91  H   5  X  -1.219481   0.038438   0.585183   0.408463  -0.233018
   92  H   5  Y  -0.421369   0.012946   0.055339   0.308610   0.318653
   93  H   5  Z  -0.477884  -0.287625   0.715041   0.459234  -0.735386
   94  H   6  S   0.088891   0.185614   0.124283   0.108951   0.131891
   95  H   6  S  -2.355635   2.274035   3.406064   0.688918   2.568902
   96  H   6  S  -0.181280   0.301215  -0.173246  -0.188755  -0.183165
   97  H   6  X   0.448879  -0.050978  -0.031057  -0.377865   0.411640
   98  H   6  Y   0.068302   0.207623   0.153952  -0.115377  -0.104731
   99  H   6  Z  -0.249107   0.385436  -0.036844   0.122863   0.607008
  100  H   6  X  -0.146485   0.069270  -0.170215  -0.394588  -0.085579
  101  H   6  Y  -0.615857   0.803522   1.320832   0.252640   1.017703
  102  H   6  Z   0.157467  -0.357687  -0.317495   0.069584  -0.399168
  103  H   7  S  -0.004975   0.682748  -0.013172  -0.640954   0.017896
  104  H   7  S  -0.035635   4.565395  -0.075513  -2.926633   0.081552
  105  H   7  S   0.000083   0.062671  -0.003751  -0.107117   0.004648
  106  H   7  X  -0.018893  -0.170204   0.292951  -0.240142  -0.035064
  107  H   7  Y   0.009762   0.054797  -0.170503  -0.178326   0.022421
  108  H   7  Z  -0.038204   0.097682   0.645737   0.050147  -0.092180
  109  H   7  X   0.306484  -0.087985   0.206940  -0.806270   0.354716
  110  H   7  Y  -0.177369  -0.646511  -0.121312   0.239356  -0.206028
  111  H   7  Z   0.686917  -0.120390   0.491494   0.446211   0.733171
  112  H   8  S   0.107902   0.266072   0.189010  -0.101752  -0.018128
  113  H   8  S   4.350157   2.259087   2.810630   1.053448   0.942274
  114  H   8  S  -0.109005   0.229324  -0.047635   0.078760  -0.187947
  115  H   8  X  -0.122924  -0.068129   0.113209   0.344488   0.208178
  116  H   8  Y  -0.268837  -0.174578   0.529932  -0.131762  -0.010181
  117  H   8  Z  -0.194617  -0.439915  -0.445357   0.008006   0.158996
  118  H   8  X   1.442799   0.841401   1.074307   0.643848   0.402867
  119  H   8  Y  -0.208385  -0.125147  -0.320903  -0.094646  -0.223959
  120  H   8  Z   0.222193   0.242977   0.119105  -0.101637  -0.006657
  121  H   9  S  -0.345043  -0.052242   0.083299  -0.054827  -0.110909
  122  H   9  S  -3.565739   0.377255   2.308146  -1.860502  -1.118888
  123  H   9  S  -0.481123  -0.144919   0.118236  -0.135245  -0.154369
  124  H   9  X  -0.213351  -0.493047  -0.422981  -0.077529   0.096443
  125  H   9  Y  -0.018227  -0.135733   0.355679   0.406925   0.433459
  126  H   9  Z   0.187655  -0.334065   0.137060  -0.089774   0.210552
  127  H   9  X   0.554488   0.248213   0.097504  -0.018842  -0.423449
  128  H   9  Y   0.809485  -0.118292  -0.448199   0.549151   0.034899
  129  H   9  Z  -0.943551   0.146999   0.787771  -0.463160  -0.692529
  130  H  10  S  -0.088815   0.180744  -0.123306   0.099568  -0.141698
  131  H  10  S   2.371193   2.146989  -3.441187   0.569010  -2.632883
  132  H  10  S   0.178740   0.312092   0.164705  -0.189952   0.194341
  133  H  10  X  -0.491455  -0.273900  -0.036774  -0.353194   0.192855
  134  H  10  Y  -0.048257   0.340142  -0.122582  -0.129866  -0.235901
  135  H  10  Z   0.146188  -0.093618  -0.104936   0.182641   0.677366
  136  H  10  X   0.325860   0.445696  -0.360423  -0.277709  -0.394991
  137  H  10  Y   0.514074   0.543714  -1.022661   0.143948  -0.741464
  138  H  10  Z   0.250773   0.451180  -0.856163   0.325788  -0.734123
  139  F  11  S  -0.000116  -0.036808  -0.001853  -0.152409   0.003722
  140  F  11  S  -0.000119  -0.063921  -0.004547  -0.346377   0.008592
  141  F  11  S   0.000006   0.329517   0.013624   1.449169  -0.032601
  142  F  11  S  -0.019236   0.957074  -0.018151  -1.434529   0.031251
  143  F  11  X   0.091995  -0.012813   0.033976  -0.390477   0.129568
  144  F  11  Y  -0.053850   0.053532  -0.020374   0.144459  -0.074911
  145  F  11  Z   0.205637   0.021529   0.084208   0.222290   0.265580
  146  F  11  X  -0.341259  -0.201547  -0.188453   1.264367  -0.453613
  147  F  11  Y   0.199210  -0.175073   0.113430  -0.585953   0.265063
  148  F  11  Z  -0.754219   0.038779  -0.457624  -0.751336  -0.926460
  149  F  11  X  -0.008639   0.018441  -0.055599   0.230427  -0.057896
  150  F  11  Y   0.009171  -0.146545   0.031681   0.044274   0.028043
  151  F  11  Z  -0.033709  -0.050267  -0.123473  -0.092841  -0.114823
  152  F  11 XX  -0.010701  -0.006170  -0.009308  -0.004336   0.011446
  153  F  11 YY   0.000524   0.013031   0.000177   0.002585  -0.003082
  154  F  11 ZZ   0.010176  -0.006861   0.009130   0.001751  -0.008364
  155  F  11 XY   0.003156  -0.003926   0.002847  -0.011976  -0.000368
  156  F  11 XZ  -0.010809  -0.003183  -0.009618  -0.000363   0.012442
  157  F  11 YZ  -0.002770   0.008911  -0.002053   0.006415   0.007888
  158  F  11 XX   0.228964   0.064910   0.012698  -0.563106   0.297973
  159  F  11 YY   0.025901   0.061462  -0.007650   0.350870  -0.063682
  160  F  11 ZZ  -0.254864  -0.126372  -0.005048   0.212236  -0.234291
  161  F  11 XY  -0.105120   0.055044   0.007887   0.363286  -0.049707
  162  F  11 XZ   0.223114  -0.116742   0.032714   0.682027   0.290178
  163  F  11 YZ  -0.023256   0.050553   0.021191  -0.217918   0.164400

                    136        137        138        139        140
                    2.3584     2.4020     2.4025     2.4686     2.4708
                     A          A          A          A          A   
    1  C   1  S  -0.020738  -0.055634   0.002707   0.073388   0.240292
    2  C   1  S   0.012673  -0.163196  -0.036077   0.139920   0.487380
    3  C   1  S   2.699577  -0.079935  -1.546413  -2.978302  -2.736720
    4  C   1  S   1.102525   1.071192  -0.276976   0.560523   1.409483
    5  C   1  X   0.309301  -0.303990   0.129173  -0.193246  -0.073396
    6  C   1  Y   0.205435  -0.078539  -0.000442   0.194408   0.161582
    7  C   1  Z   0.184811   0.053824   0.044710   0.247791   0.111259
    8  C   1  X   0.367672  -0.647673  -0.794834  -2.283830   1.559577
    9  C   1  Y   0.051292   0.214303  -1.484667   1.603602  -0.337019
   10  C   1  Z  -0.567004   2.096008   1.567499   2.557729   2.624016
   11  C   1  X   0.127012  -0.064191   0.029521  -0.330027   0.296992
   12  C   1  Y   0.174842   0.313009  -0.216419   0.243051   0.201811
   13  C   1  Z  -0.064313   0.038547   0.090369  -0.040653  -0.075020
   14  C   1 XX   0.184898   0.559261  -0.220477   0.436624   0.200556
   15  C   1 YY  -0.094387   0.052423   0.092495  -0.189113  -0.302257
   16  C   1 ZZ  -0.090511  -0.611685   0.127982  -0.247511   0.101701
   17  C   1 XY   0.182279   0.295575   0.222411  -0.500666   0.686055
   18  C   1 XZ   0.136275  -0.236720  -0.022201  -0.031303  -0.255043
   19  C   1 YZ  -0.140463  -0.197376   0.299393  -0.239356   0.131570
   20  C   1 XX  -0.380465   0.747643  -0.406440   0.058426   0.410841
   21  C   1 YY   0.768149   0.399053   0.002865   1.072099  -0.153061
   22  C   1 ZZ  -0.387684  -1.146697   0.403575  -1.130526  -0.257780
   23  C   1 XY  -0.052881   0.576871  -0.222072  -0.684605   0.918227
   24  C   1 XZ  -0.076543   0.230517  -0.077029   0.747093  -0.305031
   25  C   1 YZ  -0.093304  -0.411137   0.980063  -0.458378   0.421125
   26  C   2  S  -0.225867   0.039469  -0.087327  -0.011699  -0.183490
   27  C   2  S  -0.527939   0.034023  -0.082232  -0.021142  -0.297292
   28  C   2  S   1.041178  -1.607305   3.378462   0.199052   5.662717
   29  C   2  S  -1.383716  -1.071811   2.243652   0.015676  -2.663443
   30  C   2  X  -0.319509   0.102833  -0.059303  -0.060955   0.298617
   31  C   2  Y  -0.404066  -0.238495   0.398066   0.038060  -0.105891
   32  C   2  Z   0.039593   0.045835   0.208840  -0.130406  -0.165105
   33  C   2  X   1.570589   0.858669   0.108496   1.415939  -3.693955
   34  C   2  Y   2.138079  -1.577480   1.990086  -0.958327  -1.999830
   35  C   2  Z  -0.246718   1.290317   1.687381   3.331204   1.159751
   36  C   2  X   0.142756   0.015351  -0.322799  -0.111441   0.287128
   37  C   2  Y   0.130136  -0.073930   0.296209   0.056859   0.479825
   38  C   2  Z  -0.031598  -0.351426   0.067248  -0.243286  -0.006909
   39  C   2 XX   0.199319  -0.331370  -0.268558   0.367102   0.542682
   40  C   2 YY  -0.155679   0.166576   0.369867   0.140134  -0.296421
   41  C   2 ZZ  -0.043640   0.164794  -0.101309  -0.507236  -0.246261
   42  C   2 XY   0.644520  -0.288054   0.199900  -0.252736  -0.111539
   43  C   2 XZ   0.104145  -0.477097  -0.180984   0.334204  -0.578875
   44  C   2 YZ  -0.365142  -0.614772  -0.328648  -0.224420   0.120239
   45  C   2 XX   0.511255  -0.585626   0.830510   0.901249   0.188343
   46  C   2 YY   0.789305   1.470110  -1.882526   1.353594   0.203656
   47  C   2 ZZ  -1.300560  -0.884484   1.052015  -2.254843  -0.391999
   48  C   2 XY   0.757861  -0.286026  -0.339162  -1.618445   0.939582
   49  C   2 XZ  -0.998369  -0.371186   0.159261   0.541218  -0.066002
   50  C   2 YZ   0.483251  -0.338925  -1.515001  -2.620213  -0.231594
   51  C   3  S  -0.016492   0.034753   0.044761  -0.067341   0.241686
   52  C   3  S   0.020048   0.131627   0.108213  -0.131264   0.490046
   53  C   3  S   2.553858   1.116560  -0.711515   2.820986  -2.705745
   54  C   3  S   1.096424  -0.463497  -1.022581  -0.575268   1.408948
   55  C   3  X   0.111817   0.107341   0.238700   0.278880  -0.101949
   56  C   3  Y   0.321688   0.033945   0.109195  -0.235357   0.175511
   57  C   3  Z  -0.235862   0.001132  -0.184499  -0.083782   0.062931
   58  C   3  X   0.598509   2.608868   0.408578   2.985078  -0.908541
   59  C   3  Y  -0.138355   0.097272  -1.221325  -2.047232   1.125757
   60  C   3  Z   0.040875   1.072480  -0.015683  -0.984615  -2.713847
   61  C   3  X   0.159195   0.064528  -0.041846   0.143779   0.286138
   62  C   3  Y   0.151702  -0.044067  -0.315357  -0.128349   0.202858
   63  C   3  Z   0.019360   0.028004  -0.215234  -0.369273  -0.076080
   64  C   3 XX  -0.007333  -0.120607  -0.216587  -0.041847   0.467048
   65  C   3 YY  -0.103011  -0.207688   0.291384   0.488795   0.039130
   66  C   3 ZZ   0.110343   0.328296  -0.074797  -0.446947  -0.506178
   67  C   3 XY   0.250629  -0.270322  -0.512459   0.084301   0.265545
   68  C   3 XZ  -0.052157   0.211839   0.458465   0.359867  -0.072775
   69  C   3 YZ  -0.154895   0.073282  -0.170901  -0.286349  -0.499211
   70  C   3 XX  -0.290473   0.273960   0.063374   1.178854   0.401077
   71  C   3 YY   0.441325  -0.533635   0.284008  -0.228066   0.365510
   72  C   3 ZZ  -0.150853   0.259675  -0.347382  -0.950787  -0.766587
   73  C   3 XY   0.229505  -0.020027  -1.499034  -0.515783   0.438694
   74  C   3 XZ   0.103772   0.381359   0.490987   0.249743  -0.433441
   75  C   3 YZ   0.583734   0.099628  -0.179079  -0.987548  -0.558995
   76  H   4  S  -0.017835  -0.292137   0.111051  -0.660465   0.007713
   77  H   4  S   0.427680  -1.131872  -1.736223  -0.836115  -0.272085
   78  H   4  S   0.003175  -0.183007  -0.052616  -0.275192   0.185305
   79  H   4  X   0.015631   0.080319  -0.068652  -0.240050  -0.245069
   80  H   4  Y   0.106320   0.496391  -0.047066  -0.247102   0.481767
   81  H   4  Z   0.024075   0.353352  -0.370767   0.584069  -0.131177
   82  H   4  X   0.026926  -0.084327  -0.629063   0.069084  -0.188052
   83  H   4  Y  -0.190350   0.210032  -0.046969  -0.335442   0.202468
   84  H   4  Z  -0.162237   0.365074   0.248719   0.240154  -0.170068
   85  H   5  S  -0.369216  -0.070047   0.159747   0.112150  -0.426829
   86  H   5  S   0.988631   0.000450  -0.764397   0.177533  -1.381127
   87  H   5  S  -0.163518  -0.056699   0.023410   0.234927  -0.275286
   88  H   5  X   0.394822  -0.511799   0.257725  -0.120983   0.153446
   89  H   5  Y   0.123510  -0.154411  -0.254110   0.207059  -0.429789
   90  H   5  Z   0.311818   0.183057  -0.179074   0.171509   0.218952
   91  H   5  X  -0.356252  -0.143615   0.324909   0.010587   0.092959
   92  H   5  Y  -0.080396  -0.030757   0.083860  -0.011231  -0.108598
   93  H   5  Z  -0.413101  -0.085964   0.142745  -0.091848   0.040254
   94  H   6  S  -0.020548   0.303300  -0.304415   0.591273   0.285475
   95  H   6  S  -2.113071  -0.921709   0.762415   0.292885   0.846231
   96  H   6  S   0.071767   0.153985  -0.051977   0.166245   0.136215
   97  H   6  X   0.077733   0.377643   0.172584  -0.216536   0.466563
   98  H   6  Y   0.268486   0.180694   0.093711   0.378508   0.077582
   99  H   6  Z  -0.309495  -0.431318   0.055090  -0.126343   0.176467
  100  H   6  X  -0.207964   0.215979   0.036574   0.050696   0.131612
  101  H   6  Y  -0.680425  -0.457462   0.586529   0.093523   0.335320
  102  H   6  Z  -0.255081  -0.294251   0.111488  -0.454732  -0.073410
  103  H   7  S   0.170619   0.225988  -0.461032  -0.001251  -0.031985
  104  H   7  S  -4.551553   0.057688  -0.102527   0.026761   0.807638
  105  H   7  S  -0.067657   0.125957  -0.245977   0.004587  -0.256978
  106  H   7  X  -0.689492   0.300399  -0.036780   0.149924   0.276356
  107  H   7  Y  -0.701210  -0.517681   0.710629  -0.085856  -0.097934
  108  H   7  Z   0.128663   0.356554   0.517799   0.337651  -0.158017
  109  H   7  X  -0.037837  -0.007880   0.001571   0.246130  -0.222130
  110  H   7  Y   1.691482  -0.052459   0.101388  -0.149579  -0.249771
  111  H   7  Z   0.463764  -0.021459   0.023928   0.548565   0.031705
  112  H   8  S  -0.021528   0.086464   0.292679   0.675805  -0.001098
  113  H   8  S   0.444128   2.043450  -0.144466   0.819005  -0.300992
  114  H   8  S   0.000940   0.149365   0.112707   0.273852   0.182010
  115  H   8  X   0.006467  -0.102958   0.205732   0.639791   0.010822
  116  H   8  Y   0.107646  -0.191927  -0.609799   0.028309   0.324257
  117  H   8  Z   0.015248  -0.162002   0.187104   0.260570   0.453848
  118  H   8  X   0.106593   0.653870  -0.145576   0.183321   0.023336
  119  H   8  Y  -0.234890  -0.139082  -0.293967   0.188510   0.074237
  120  H   8  Z  -0.016553  -0.187329   0.217701   0.332670   0.313156
  121  H   9  S  -0.367574  -0.084833   0.155169  -0.118474  -0.419949
  122  H   9  S   0.984764   0.583846  -0.445229  -0.211321  -1.374417
  123  H   9  S  -0.160612   0.011355   0.064017  -0.241373  -0.270647
  124  H   9  X   0.065678   0.095809   0.557273   0.161579  -0.132845
  125  H   9  Y   0.318587   0.294152  -0.019911  -0.234852  -0.261580
  126  H   9  Z  -0.399994   0.033063  -0.265254  -0.081443  -0.409684
  127  H   9  X   0.042115  -0.079581   0.105064  -0.078247   0.009678
  128  H   9  Y  -0.311609  -0.101655   0.189472   0.043238  -0.063144
  129  H   9  Z   0.456090   0.132655  -0.277973  -0.046370  -0.139618
  130  H  10  S  -0.011800   0.068424  -0.424664  -0.588569   0.287758
  131  H  10  S  -2.145029  -0.021419   1.186445  -0.317692   0.842700
  132  H  10  S   0.068454  -0.049786  -0.152884  -0.163205   0.135040
  133  H  10  X   0.320469  -0.435327  -0.419094  -0.002745   0.208409
  134  H  10  Y   0.128155  -0.136809   0.034225  -0.234151   0.235274
  135  H  10  Z   0.234731   0.056210  -0.102170  -0.384624  -0.391789
  136  H  10  X  -0.081430  -0.209255  -0.183751  -0.372415   0.208456
  137  H  10  Y  -0.761871  -0.153617   0.727741   0.090448   0.292676
  138  H  10  Z  -0.001388  -0.016318   0.237344  -0.259128   0.091907
  139  F  11  S   0.017300   0.027307  -0.055592  -0.000762  -0.022567
  140  F  11  S   0.032212   0.063261  -0.128307  -0.001792  -0.073098
  141  F  11  S  -0.468931  -0.018970   0.056688   0.000563   0.248764
  142  F  11  S   0.332293   0.258095  -0.512667   0.012399   0.493052
  143  F  11  X   0.228962  -0.077877   0.098886   0.152938  -0.012203
  144  F  11  Y   0.226291  -0.097187   0.223415  -0.087379   0.027396
  145  F  11  Z  -0.046036  -0.048958  -0.014679   0.332762   0.012229
  146  F  11  X  -0.657038   0.236987  -0.325391  -0.582162   0.425435
  147  F  11  Y  -0.748957   0.373876  -0.822992   0.335217  -0.166595
  148  F  11  Z   0.108155   0.144774   0.002308  -1.276480  -0.232583
  149  F  11  X  -0.187448  -0.041446   0.107681  -0.047247  -0.066659
  150  F  11  Y  -0.060106   0.089861  -0.195028   0.023952   0.014067
  151  F  11  Z   0.067978   0.075344  -0.082854  -0.090678   0.036039
  152  F  11 XX   0.007703  -0.002147   0.001841   0.003531   0.006536
  153  F  11 YY  -0.009644   0.005442   0.001682   0.002262   0.002909
  154  F  11 ZZ   0.001941  -0.003295  -0.003523  -0.005793  -0.009445
  155  F  11 XY   0.002138  -0.005369  -0.000261  -0.003408   0.000261
  156  F  11 XZ  -0.002378  -0.001156  -0.002959   0.002944  -0.010876
  157  F  11 YZ  -0.004476  -0.009425  -0.005442  -0.003994   0.005436
  158  F  11 XX   0.502868  -0.245628   0.177265   0.412727  -0.304548
  159  F  11 YY  -0.453452   0.042634  -0.147034   0.026700   0.215048
  160  F  11 ZZ  -0.049416   0.202994  -0.030230  -0.439428   0.089500
  161  F  11 XY   0.308947  -0.091549   0.355568  -0.165726   0.158217
  162  F  11 XZ  -0.229172  -0.066688  -0.153800   0.406005   0.322287
  163  F  11 YZ  -0.252335   0.113660  -0.134516   0.002761  -0.076632

                    141        142        143        144        145
                    2.5173     2.5340     2.5357     2.6313     2.7222
                     A          A          A          A          A   
    1  C   1  S   0.226064  -0.215686   0.163714   0.438197   0.571571
    2  C   1  S   0.624804  -0.443276   0.530426   0.768497   1.003061
    3  C   1  S   2.469207   1.983934   5.394786 -11.159356  -9.455787
    4  C   1  S   3.674968  -0.470085   6.444826   1.859672   1.321637
    5  C   1  X  -0.107726  -0.301942  -0.048334  -0.589047  -0.164981
    6  C   1  Y  -0.233984   0.419653  -0.275388  -0.299701   0.292502
    7  C   1  Z   0.372628   0.303140   0.275965  -0.287740   0.240027
    8  C   1  X  -0.613269  -1.068046  -0.166355  -3.570875  -0.310281
    9  C   1  Y  -0.286787   1.551858  -1.158693  -6.580882  -4.018863
   10  C   1  Z   0.459886  -1.264012   0.489710   6.444694   9.238154
   11  C   1  X  -0.024142  -0.408969  -0.425345  -1.204343  -0.291422
   12  C   1  Y   0.313028   0.277217   0.366049  -0.518945   0.596802
   13  C   1  Z  -0.419685   0.138026  -1.249321  -0.585088   0.628534
   14  C   1 XX   0.295486   0.273054   0.239578  -0.384904   0.703540
   15  C   1 YY  -0.022307  -0.779350   0.119233   0.592249  -0.475469
   16  C   1 ZZ  -0.273180   0.506295  -0.358810  -0.207345  -0.228071
   17  C   1 XY  -0.239674  -0.398734   0.019309  -0.395035  -0.199906
   18  C   1 XZ   0.020756  -0.290391  -0.026283  -0.811034  -0.191624
   19  C   1 YZ   0.579215   0.128686   0.483507   0.160373  -0.066947
   20  C   1 XX  -0.232592  -0.704064   0.021949   1.137886   1.185952
   21  C   1 YY  -0.097468   0.365281   0.024071  -0.439826   0.048307
   22  C   1 ZZ   0.330060   0.338783  -0.046020  -0.698060  -1.234260
   23  C   1 XY  -0.008704  -0.047840   0.033440  -0.227653   0.099074
   24  C   1 XZ   0.040266   0.018098  -0.381196   1.252610   0.246281
   25  C   1 YZ  -0.201636  -0.135383   0.063451   1.727527   1.956870
   26  C   2  S   0.317931   0.089989  -0.003745  -0.001785  -1.303135
   27  C   2  S   0.640948   0.109322  -0.005337  -0.002656  -2.209294
   28  C   2  S  -2.909322  -3.089653   0.101552   0.049433  25.497620
   29  C   2  S  -5.418822   0.754018   0.009148  -0.011645  -1.584815
   30  C   2  X  -0.214451   0.068239   0.139964  -0.067424  -0.037190
   31  C   2  Y  -0.110143  -0.425958  -0.069851   0.040404   0.528690
   32  C   2  Z   0.069002  -0.133780   0.313713  -0.147928   0.159010
   33  C   2  X   0.216552   1.842110  -0.587632   6.725583  -7.579601
   34  C   2  Y  -0.162138   1.851892   0.280230  -3.962201  -6.789702
   35  C   2  Z  -0.149487  -0.475230  -1.167204  14.839265   1.348958
   36  C   2  X   0.383997   0.128556  -0.691986  -0.009080   0.566183
   37  C   2  Y   0.395368  -0.244854   0.405159   0.005094  -0.392136
   38  C   2  Z  -0.081775  -0.172151  -1.511194  -0.022380  -0.378760
   39  C   2 XX  -0.149775   0.254080  -0.136344   0.008128  -0.618848
   40  C   2 YY  -0.097736  -0.733074   0.086279  -0.009646   0.772609
   41  C   2 ZZ   0.247511   0.478993   0.050065   0.001517  -0.153762
   42  C   2 XY  -0.036541  -0.206289  -0.014868   0.006404   0.196058
   43  C   2 XZ   0.274472   0.130870  -0.153238   0.011064   0.344823
   44  C   2 YZ  -0.136841  -0.325989  -0.142697   0.016442   0.177848
   45  C   2 XX   0.125431   0.053699   0.246934  -1.829906  -0.279780
   46  C   2 YY  -0.239991   0.240244  -0.445353   1.243220  -1.241524
   47  C   2 ZZ   0.114560  -0.293943   0.198419   0.586686   1.521304
   48  C   2 XY  -0.469715  -0.092799   0.342582  -0.613516   0.717026
   49  C   2 XZ  -0.148509  -0.248426   0.372014  -2.190731   1.661913
   50  C   2 YZ   0.104926   0.283191   0.895871  -2.819551  -1.384977
   51  C   3  S   0.225705  -0.219615  -0.154877  -0.436514   0.584355
   52  C   3  S   0.622060  -0.462510  -0.513386  -0.765534   1.025045
   53  C   3  S   2.421263   1.615045  -5.517588  11.142184  -9.778020
   54  C   3  S   3.605614  -0.775779  -6.449173  -1.845060   1.317214
   55  C   3  X  -0.377817  -0.331291   0.300744   0.241822  -0.230593
   56  C   3  Y  -0.075964   0.437811   0.119073   0.511942   0.319014
   57  C   3  Z  -0.230096   0.237573   0.228545  -0.450961   0.102352
   58  C   3  X  -0.768246   0.436093   0.656318   8.167161  -7.798523
   59  C   3  Y  -0.217250   0.611562   0.818524   3.878823   0.178792
   60  C   3  Z   0.038565   2.090018   0.533122   3.869527  -6.827350
   61  C   3  X   0.331140  -0.363175  -0.659460   0.486791  -0.546562
   62  C   3  Y   0.099710   0.228210   0.268184   0.947610   0.722008
   63  C   3  Z   0.373006   0.279647  -1.181317  -0.964167   0.094015
   64  C   3 XX  -0.205942   0.494845   0.131479  -0.284503   0.311495
   65  C   3 YY   0.250868  -0.606957  -0.323694  -0.293210  -0.505381
   66  C   3 ZZ  -0.044926   0.112112   0.192216   0.577713   0.193886
   67  C   3 XY  -0.336517  -0.641875   0.111976   0.320877  -0.018328
   68  C   3 XZ  -0.552966  -0.110059   0.496391   0.054102  -0.571635
   69  C   3 YZ  -0.050848  -0.214804   0.059212  -0.874613  -0.039110
   70  C   3 XX   0.086029  -0.149264  -0.291519   1.325645  -0.759262
   71  C   3 YY  -0.157253   0.230164  -0.018985  -0.769827   1.210187
   72  C   3 ZZ   0.071224  -0.080900   0.310504  -0.555818  -0.450925
   73  C   3 XY  -0.067439  -0.116633   0.039592   0.590864  -0.375984
   74  C   3 XZ   0.362870   0.617169   0.065806   1.572441  -2.027009
   75  C   3 YZ  -0.062928   0.204372  -0.150854   1.131661  -0.625120
   76  H   4  S  -0.659105  -0.673920  -0.595370  -0.397772  -0.487421
   77  H   4  S  -1.500146  -0.233756  -2.339892  -2.499505  -2.241241
   78  H   4  S  -0.117256  -0.322043  -0.237507  -0.646731  -0.471838
   79  H   4  X  -0.656338  -0.566974  -0.578836  -0.274577  -0.269463
   80  H   4  Y   0.009477  -0.079387   0.214483   0.095276   0.177743
   81  H   4  Z   0.425236   0.139088   0.322831   0.167642   0.240044
   82  H   4  X  -0.192305  -0.084936  -0.307256  -0.057977  -0.377886
   83  H   4  Y   0.192293  -0.202576   0.229047   0.321245   0.185471
   84  H   4  Z  -0.054672  -0.036337   0.020401   0.549547  -0.143977
   85  H   5  S  -0.424656   0.155493  -0.465623   1.299558  -0.073332
   86  H   5  S  -0.620871   1.150996  -1.290783  -0.065445  -3.517876
   87  H   5  S  -0.124043   0.186518   0.598727   1.147829  -0.324132
   88  H   5  X   0.495093   0.085493   0.480517  -0.733614  -0.026401
   89  H   5  Y   0.132863   0.036098   0.078989  -0.027656   0.204386
   90  H   5  Z   0.312454  -0.257007   0.404114  -0.779321  -0.025581
   91  H   5  X   0.110430   0.092668   0.111655   0.187474   0.763139
   92  H   5  Y   0.157138  -0.332163   0.077872   0.423729  -0.109497
   93  H   5  Z  -0.281359  -0.280901   0.093862  -0.417817   0.276913
   94  H   6  S  -0.515968   0.611952  -0.717109  -0.561339   0.710769
   95  H   6  S  -0.660964   0.238899  -2.777350  -2.969807   0.036829
   96  H   6  S  -0.039575   0.220622  -0.387920  -0.694837   0.529922
   97  H   6  X  -0.105557  -0.116866   0.025553   0.004596  -0.022238
   98  H   6  Y  -0.660258   0.636506  -0.770996  -0.431004   0.546116
   99  H   6  Z  -0.022639   0.414063  -0.231362  -0.131679  -0.164922
  100  H   6  X   0.128069   0.169998  -0.002802   0.483740   0.205822
  101  H   6  Y   0.155972  -0.090502  -0.418453  -0.546789   0.223567
  102  H   6  Z  -0.219188  -0.013956  -0.210428   0.113254  -0.230388
  103  H   7  S   0.184858   0.712503  -0.021505   0.000387  -1.286745
  104  H   7  S   1.755621  -2.338078   0.053234   0.013813   2.764073
  105  H   7  S   0.007253  -0.011043   0.002509   0.001835   0.174662
  106  H   7  X   0.062600  -0.001631   0.013443  -0.117034   0.105324
  107  H   7  Y  -0.005424  -0.667265   0.012197   0.071342   0.975085
  108  H   7  Z  -0.025212  -0.171822   0.034433  -0.257374   0.208894
  109  H   7  X   0.250268   0.018198  -0.182741   0.124836  -0.011814
  110  H   7  Y  -0.527116   0.880393   0.086166  -0.073787  -0.475560
  111  H   7  Z  -0.249572   0.214620  -0.403868   0.270359  -0.133723
  112  H   8  S  -0.644689  -0.642308   0.634186   0.387465  -0.486830
  113  H   8  S  -1.482916  -0.124702   2.356749   2.429998  -2.328082
  114  H   8  S  -0.118534  -0.319620   0.250994   0.635922  -0.476055
  115  H   8  X  -0.733080  -0.465837   0.611946   0.275987  -0.319189
  116  H   8  Y   0.054265  -0.130435  -0.206230  -0.101060   0.202924
  117  H   8  Z   0.232319   0.279938  -0.334252  -0.133705   0.126483
  118  H   8  X  -0.052864  -0.057299   0.183731   0.348638  -0.141248
  119  H   8  Y   0.113913  -0.213625  -0.141878  -0.499856   0.040878
  120  H   8  Z   0.254664  -0.019725  -0.304938   0.137775   0.425231
  121  H   9  S  -0.420206   0.190322   0.462822  -1.298303  -0.064507
  122  H   9  S  -0.607284   1.198293   1.227065   0.060725  -3.550383
  123  H   9  S  -0.130178   0.167416  -0.608495  -1.150451  -0.326430
  124  H   9  X   0.137381   0.246969  -0.062326  -0.051263   0.036687
  125  H   9  Y   0.338705  -0.083011  -0.333115   0.491361   0.164110
  126  H   9  Z  -0.467299   0.137242   0.534626  -0.951744   0.125297
  127  H   9  X   0.305995   0.207145  -0.033420  -0.496035   0.301549
  128  H   9  Y   0.040970  -0.396627  -0.107765  -0.243107   0.182279
  129  H   9  Z   0.147853  -0.044873   0.097580  -0.284739  -0.737938
  130  H  10  S  -0.519189   0.637163   0.688751   0.569153   0.705305
  131  H  10  S  -0.635098   0.320995   2.778638   3.008979  -0.025595
  132  H  10  S  -0.035631   0.234723   0.380032   0.704287   0.514218
  133  H  10  X  -0.178829  -0.257148  -0.027631  -0.016900   0.209156
  134  H  10  Y  -0.612931   0.745587   0.745824   0.450596   0.403198
  135  H  10  Z  -0.194470   0.123105   0.207502   0.113587   0.340126
  136  H  10  X   0.264889   0.101169  -0.081229  -0.139498   0.349436
  137  H  10  Y   0.080455  -0.037305   0.464157   0.358476   0.129363
  138  H  10  Z   0.093571  -0.168916   0.063715   0.647764   0.082308
  139  F  11  S  -0.053410   0.095874  -0.002050   0.000980  -0.033336
  140  F  11  S  -0.105786   0.210388  -0.004520   0.002001  -0.057018
  141  F  11  S   0.228415  -0.433738   0.009680  -0.008410   0.132319
  142  F  11  S   0.086326   0.017149   0.001973  -0.001766   2.564365
  143  F  11  X  -0.017004  -0.031529  -0.012980   0.018810  -0.008071
  144  F  11  Y  -0.042794   0.034481   0.007683  -0.008982   0.033877
  145  F  11  Z  -0.001859   0.024359  -0.031046   0.040005   0.009282
  146  F  11  X  -0.167140   0.083800   0.064935  -0.166219  -0.043736
  147  F  11  Y   0.181497  -0.158753  -0.037538   0.091524   0.018493
  148  F  11  Z   0.116132  -0.082182   0.149129  -0.366323   0.043310
  149  F  11  X   0.094287  -0.039764  -0.061786   0.030884  -0.825840
  150  F  11  Y   0.064628  -0.015245   0.036348  -0.018894   0.080672
  151  F  11  Z  -0.027587   0.005404  -0.135336   0.063350   0.401249
  152  F  11 XX  -0.006264  -0.011285   0.001141  -0.004392  -0.038715
  153  F  11 YY   0.001088   0.000972   0.002164   0.000227   0.025836
  154  F  11 ZZ   0.005176   0.010312  -0.003305   0.004165   0.012880
  155  F  11 XY  -0.006562  -0.005067  -0.002452   0.001507   0.028551
  156  F  11 XZ   0.005040   0.012904   0.000039  -0.004516   0.046174
  157  F  11 YZ   0.001122  -0.002606  -0.004322  -0.001147  -0.015606
  158  F  11 XX   0.029038  -0.047672  -0.062207   0.096013   0.010680
  159  F  11 YY  -0.009119   0.044305   0.014151   0.011094  -0.055303
  160  F  11 ZZ  -0.019919   0.003367   0.048056  -0.107107   0.044623
  161  F  11 XY  -0.086901   0.107985   0.004319  -0.041375  -0.067814
  162  F  11 XZ  -0.065308   0.079676  -0.069849   0.092873  -0.009789
  163  F  11 YZ   0.053134  -0.052029  -0.039846  -0.010923   0.001363

                    146        147        148        149        150
                    2.7722     2.7895     2.8608     2.8640     3.3502
                     A          A          A          A          A   
    1  C   1  S  -0.307737   0.504044  -1.350272   0.473376   0.173393
    2  C   1  S  -0.514508   0.901320  -2.342653   0.781146   0.317684
    3  C   1  S   6.568794  -7.953313  28.419326  -9.146218  -0.487142
    4  C   1  S  -3.369005   0.682293  -0.614753   4.387052   1.053371
    5  C   1  X  -0.491127  -0.216996  -0.268990  -0.318677   0.145767
    6  C   1  Y   0.027690   0.467722   0.197135  -0.410863   0.003405
    7  C   1  Z  -0.133825   0.224442  -0.080354  -0.077173  -0.019129
    8  C   1  X  -1.098625  -1.981952   3.298607   0.446486  -1.580052
    9  C   1  Y   3.976433  -3.724995  16.033273  -5.557763  -1.985872
   10  C   1  Z  -6.694485   8.435374 -22.793263   8.410040   1.941261
   11  C   1  X  -0.507444  -0.466669   0.197365  -0.116856   0.242335
   12  C   1  Y  -0.414849   0.205183   1.336059   0.357277  -0.080503
   13  C   1  Z   0.115526   0.617099  -0.871314  -0.333605   0.052924
   14  C   1 XX  -0.057799   0.745159  -0.101487  -0.281447  -0.043714
   15  C   1 YY   0.238177  -1.100521  -0.319248   0.666517   0.070884
   16  C   1 ZZ  -0.180378   0.355362   0.420734  -0.385069  -0.027170
   17  C   1 XY  -0.113238  -0.088048  -0.023933  -0.120737   0.058254
   18  C   1 XZ  -1.032787  -0.472581  -0.678421  -0.655727   0.359361
   19  C   1 YZ  -0.225802   0.175039  -0.524323   0.437686   0.105800
   20  C   1 XX  -1.204994   0.896677  -2.621367   1.512134   0.050650
   21  C   1 YY   0.276385   0.126188  -0.772748  -0.197981   0.348953
   22  C   1 ZZ   0.928609  -1.022866   3.394115  -1.314153  -0.399603
   23  C   1 XY  -0.017424  -0.235059   0.768657   0.320225  -0.514220
   24  C   1 XZ   0.005218   0.277297  -0.879172  -0.060197   0.987851
   25  C   1 YZ  -1.352216   1.635128  -4.538481   1.687778   0.661665
   26  C   2  S   0.935001  -0.011911   0.168909  -1.571694  -0.459915
   27  C   2  S   1.722056  -0.022515   0.302826  -2.823154  -0.642420
   28  C   2  S -14.473080   0.154587  -2.808958  25.957229  10.170314
   29  C   2  S   7.625117  -0.099764   1.097367 -10.315481  -0.307281
   30  C   2  X   0.141500   0.035598   0.030692   0.063086   0.393482
   31  C   2  Y   0.153483  -0.027572   0.006325  -0.291120  -0.087557
   32  C   2  Z  -0.021806   0.081182   0.090790  -0.095191  -0.201082
   33  C   2  X   6.744265   5.451788 -16.488771 -12.124641   4.484758
   34  C   2  Y   8.114832  -3.383035  11.702713 -11.822495  -3.103917
   35  C   2  Z  -0.786096  12.245100 -38.942912  -2.831865  -2.880300
   36  C   2  X  -0.612480   0.138695  -1.053092   0.904312   0.144822
   37  C   2  Y   0.122583  -0.083230   0.575256  -0.179603  -0.330262
   38  C   2  Z   0.313573   0.293243  -2.036708  -0.740487  -0.151755
   39  C   2 XX   0.092923  -0.399567   0.307949   0.429203   0.460919
   40  C   2 YY   0.512943  -0.112459  -0.236047  -0.890913  -0.342460
   41  C   2 ZZ  -0.605866   0.512026  -0.071901   0.461710  -0.118459
   42  C   2 XY   0.579431   0.223157   0.175421   0.219082  -0.190560
   43  C   2 XZ  -0.298124  -0.375449   0.411896   0.243858  -0.456613
   44  C   2 YZ   0.135028   0.129338   0.756799  -0.486309   0.077403
   45  C   2 XX   0.603755  -1.746301   4.407872   0.278531   0.641913
   46  C   2 YY   1.090498   0.596771  -3.596824  -1.879707  -1.623221
   47  C   2 ZZ  -1.694253   1.149530  -0.811048   1.601176   0.981308
   48  C   2 XY   0.158951   0.006854   2.007618   2.007216  -1.889862
   49  C   2 XZ  -1.634038  -1.904123   5.190234   2.687212  -0.417654
   50  C   2 YZ   1.038806  -1.486501   8.465186  -1.300258   0.119647
   51  C   3  S  -0.317093  -0.498002   1.217855   0.743052   0.173231
   52  C   3  S  -0.531581  -0.892067   2.120734   1.249882   0.317412
   53  C   3  S   6.684209   7.804832 -25.838506 -14.843656  -0.505404
   54  C   3  S  -3.369625  -0.602169  -0.331215   4.403480   1.061635
   55  C   3  X  -0.225560   0.227189   0.137591  -0.213439   0.112386
   56  C   3  Y  -0.143688  -0.465192   0.005740  -0.466052   0.022584
   57  C   3  Z   0.428379  -0.239740  -0.334525   0.028997  -0.091234
   58  C   3  X   4.909943   7.939333 -19.521954 -11.015585  -2.854756
   59  C   3  Y   0.473683   0.193925  -5.014303  -2.393243  -1.248118
   60  C   3  Z   6.302066   4.742347 -15.337286 -10.819230  -0.810237
   61  C   3  X  -0.486103   0.735178  -1.028134   0.011956   0.108895
   62  C   3  Y  -0.440841  -0.336297  -0.877575  -0.015777  -0.005886
   63  C   3  Z   0.122958  -0.080162  -0.984211   0.217059  -0.235254
   64  C   3 XX   0.752506  -0.844705  -0.851167  -0.052286  -0.341697
   65  C   3 YY  -0.141403   0.769403   0.491355   0.711344   0.184805
   66  C   3 ZZ  -0.611104   0.075301   0.359812  -0.659057   0.156892
   67  C   3 XY   0.019077   0.434268   0.079612  -0.187730   0.044564
   68  C   3 XZ  -0.072976   0.492955  -0.281646  -0.307903   0.028369
   69  C   3 YZ   0.730071   0.486908  -0.349694   0.562521  -0.167447
   70  C   3 XX   0.248822   0.763062  -2.318016  -0.758890  -1.257064
   71  C   3 YY  -0.551583  -0.961248   2.673970   1.432507   0.602949
   72  C   3 ZZ   0.302760   0.198186  -0.355954  -0.673616   0.654115
   73  C   3 XY   0.297302   0.514363  -1.134358  -0.327582  -0.332278
   74  C   3 XZ   1.697733   1.579805  -4.244399  -3.057960  -0.421020
   75  C   3 YZ   0.503705   0.325323  -0.440643  -0.763581  -0.089891
   76  H   4  S  -0.701201  -0.763730  -0.672899  -0.087704   0.175435
   77  H   4  S   0.840686  -5.031364   6.502878  -1.218686  -0.557478
   78  H   4  S  -0.311652  -0.901423   0.417002  -0.025944   0.192009
   79  H   4  X  -0.470092  -0.601527  -0.386134  -0.126095   0.109962
   80  H   4  Y   0.077992   0.313880   0.002216   0.075585  -0.045013
   81  H   4  Z   0.342359   0.070485   0.420010  -0.125269  -0.046544
   82  H   4  X   0.311429  -1.095013   1.411032  -0.033350  -0.110744
   83  H   4  Y  -0.333415   0.006354  -0.364500   0.768479  -0.192004
   84  H   4  Z   0.252220   0.884302  -0.631944  -0.155585   0.238620
   85  H   5  S   0.865790  -0.024640  -0.022184   0.734274  -0.159553
   86  H   5  S   3.516623  -1.869494   4.027790  -3.011873  -0.723308
   87  H   5  S   0.664019  -0.066324   0.396081  -0.174027  -0.360914
   88  H   5  X  -0.535901   0.140336  -0.231130  -0.473447   0.202215
   89  H   5  Y  -0.268876   0.091038  -0.215254  -0.091222   0.058499
   90  H   5  Z  -0.157590  -0.099440   0.056500  -0.486995   0.034044
   91  H   5  X  -0.430479   0.513419  -0.617826   0.583000   0.182579
   92  H   5  Y  -0.170956  -0.011165  -0.697961   0.293904   0.183206
   93  H   5  Z  -0.601488  -0.028914  -0.006674   0.384543  -0.183751
   94  H   6  S  -0.205564   0.930298   0.054835  -0.513633  -0.150300
   95  H   6  S   0.784457  -0.109719   8.798660  -1.361016  -1.739281
   96  H   6  S  -0.115931   0.301439   1.319737  -0.028985  -0.196787
   97  H   6  X  -0.013174   0.057030   0.005180  -0.022359   0.037148
   98  H   6  Y  -0.080971   0.735824  -0.016516  -0.437530  -0.049079
   99  H   6  Z  -0.058295   0.158175   0.348696  -0.125806  -0.085422
  100  H   6  X   0.251410   0.010014   0.175686   0.239670  -0.033741
  101  H   6  Y   0.052636   0.212172   2.041589  -0.020496  -0.340769
  102  H   6  Z   0.242864  -0.379667   0.679234  -0.318218  -0.228720
  103  H   7  S  -0.526370   0.015248  -0.071070   0.747418   0.146137
  104  H   7  S  -8.018264   0.121821  -1.221935  11.645210   2.541063
  105  H   7  S  -0.548327   0.011342  -0.109416   1.079474   0.209462
  106  H   7  X  -0.500202  -0.242087   0.156371  -0.054180  -0.106573
  107  H   7  Y   0.325723   0.133903  -0.028806  -0.603538   0.149138
  108  H   7  Z   0.304816  -0.553531   0.338721  -0.093624   0.088504
  109  H   7  X  -0.074450  -0.231924  -0.020410  -0.639342   0.291188
  110  H   7  Y   1.905672   0.102176   0.330685  -2.639885  -0.186137
  111  H   7  Z   0.537979  -0.510645  -0.153429  -0.445113  -0.184701
  112  H   8  S  -0.671769   0.786762   0.689724   0.051260   0.172432
  113  H   8  S   0.930408   5.015698  -6.089064  -2.536852  -0.604133
  114  H   8  S  -0.293789   0.914710  -0.400662  -0.114580   0.190727
  115  H   8  X  -0.532918   0.416453   0.551435   0.129590   0.098368
  116  H   8  Y   0.114387  -0.194269  -0.098606  -0.032151  -0.035935
  117  H   8  Z   0.160766  -0.526334  -0.076697   0.180287  -0.070754
  118  H   8  X  -0.007680   1.369824  -1.355415  -0.054049  -0.294771
  119  H   8  Y  -0.125512  -0.151345   0.175059   0.663569  -0.079449
  120  H   8  Z  -0.506226  -0.266796   0.697817   0.583917  -0.141204
  121  H   9  S   0.868763  -0.001757  -0.132722   0.719865  -0.162215
  122  H   9  S   3.577206   1.781945  -3.301307  -3.803131  -0.733352
  123  H   9  S   0.674001   0.043538  -0.350865  -0.262960  -0.354394
  124  H   9  X  -0.302480  -0.174645   0.232764   0.060160   0.123257
  125  H   9  Y  -0.413962  -0.056187   0.284518  -0.324463   0.105766
  126  H   9  Z   0.357251  -0.005493  -0.159718   0.549337  -0.135818
  127  H   9  X   0.100882  -0.372965   0.494211   0.276517   0.283891
  128  H   9  Y  -0.490689  -0.063831   0.612473   0.682682   0.128074
  129  H   9  Z   0.590278   0.341203  -0.039978  -0.534226   0.055672
  130  H  10  S  -0.241144  -0.927139   0.043039  -0.507573  -0.146501
  131  H  10  S   0.736498   0.079615  -8.325399  -3.111981  -1.706529
  132  H  10  S  -0.132770  -0.300009  -1.288127  -0.288669  -0.206247
  133  H  10  X   0.017424  -0.063446   0.239950   0.047267   0.077035
  134  H  10  Y  -0.123023  -0.730069  -0.040199  -0.457607  -0.072746
  135  H  10  Z   0.000656  -0.182617   0.218040  -0.051482  -0.000836
  136  H  10  X  -0.005282  -0.315346  -0.094678   0.380277   0.081731
  137  H  10  Y   0.186928  -0.045491  -2.061784  -0.532695  -0.397076
  138  H  10  Z  -0.307464  -0.286148  -0.349891  -0.055352   0.014647
  139  F  11  S   0.135216  -0.001526   0.001561  -0.011956   1.121616
  140  F  11  S   0.300364  -0.003411   0.004394  -0.036897   2.299962
  141  F  11  S  -0.554011   0.006990  -0.009937   0.073968  -5.938936
  142  F  11  S  -2.438007   0.029674  -0.391115   3.650616  -3.509510
  143  F  11  X  -0.075906  -0.036159  -0.137448   0.052241  -0.290633
  144  F  11  Y   0.192996   0.019108   0.074704   0.029393   0.029476
  145  F  11  Z   0.084616  -0.082792  -0.286618  -0.055264   0.139521
  146  F  11  X  -0.010673   0.104308   0.742162   0.247810   2.435791
  147  F  11  Y  -0.833821  -0.049080  -0.439428  -0.119396  -0.288277
  148  F  11  Z  -0.213294   0.230602   1.687114   0.083800  -1.180242
  149  F  11  X   0.522179   0.078481   0.261340  -0.812676   0.809562
  150  F  11  Y  -0.385947  -0.044542  -0.120371   0.146849  -0.006615
  151  F  11  Z  -0.338022   0.189295   0.338482   0.459781  -0.369818
  152  F  11 XX  -0.005811   0.004286   0.005652  -0.022303   0.037302
  153  F  11 YY   0.008347   0.008246  -0.000877  -0.002165  -0.037954
  154  F  11 ZZ  -0.002536  -0.012532  -0.004775   0.024468   0.000651
  155  F  11 XY  -0.002442  -0.009706   0.000687  -0.006955  -0.021152
  156  F  11 XZ   0.000989   0.001968  -0.000141   0.030337  -0.031433
  157  F  11 YZ   0.004134  -0.016374   0.003625  -0.009074   0.001541
  158  F  11 XX   0.137380  -0.199513  -0.412758  -0.116815  -0.419336
  159  F  11 YY  -0.192130   0.035716   0.026053   0.036345   0.294948
  160  F  11 ZZ   0.054750   0.163796   0.386706   0.080469   0.124387
  161  F  11 XY   0.338780   0.030317   0.104073   0.121999   0.155415
  162  F  11 XZ   0.091162  -0.209690  -0.446185   0.075106   0.421222
  163  F  11 YZ  -0.260377  -0.093266  -0.114336  -0.083843  -0.074028

                    151        152        153        154        155
                    4.6045     4.6125     4.6912     4.7225     4.7257
                     A          A          A          A          A   
    1  C   1  S  -0.007584   0.033896   0.010939  -0.076720   0.079623
    2  C   1  S  -0.018251   0.061978   0.024676  -0.116593   0.119925
    3  C   1  S  -1.302166   0.558593   0.830020   2.206106  -4.148682
    4  C   1  S  -0.049080  -0.504860   0.386011  -1.662829  -0.253260
    5  C   1  X   0.003852  -0.007611   0.004191   0.052672  -0.019820
    6  C   1  Y  -0.030705  -0.014721   0.020661   0.010491  -0.039634
    7  C   1  Z   0.015215  -0.033183  -0.034496  -0.050264   0.078795
    8  C   1  X  -0.061256   0.261225   0.442161  -0.423910  -0.702117
    9  C   1  Y   0.042689   0.603047   0.356893   1.381518  -1.811943
   10  C   1  Z   0.572947   0.686157  -0.321506  -2.476501   2.869380
   11  C   1  X  -0.034947   0.040944  -0.120808  -0.107962   0.100163
   12  C   1  Y   0.007915  -0.102002  -0.085117  -0.034096  -0.490703
   13  C   1  Z   0.062910   0.110969  -0.149422   0.185214  -0.060972
   14  C   1 XX  -0.030431   0.010908  -0.006273  -0.101326   0.006110
   15  C   1 YY   0.044990   0.027823  -0.002710   0.031121   0.036247
   16  C   1 ZZ  -0.014559  -0.038731   0.008983   0.070205  -0.042357
   17  C   1 XY   0.021720  -0.004414  -0.004459   0.044251  -0.021557
   18  C   1 XZ   0.033772  -0.025402  -0.046985   0.099133   0.076614
   19  C   1 YZ  -0.002960   0.002928   0.006501  -0.072553   0.040296
   20  C   1 XX   0.133423   0.275765  -0.156395  -0.381486   0.292674
   21  C   1 YY  -0.241238   0.175564   0.216924   0.039370   0.227212
   22  C   1 ZZ   0.107814  -0.451329  -0.060528   0.342116  -0.519886
   23  C   1 XY   0.193186  -0.018821   0.167347  -0.054838  -0.158707
   24  C   1 XZ  -0.231979   0.142050  -0.095158  -0.022039   0.166555
   25  C   1 YZ   0.032668  -0.169982  -0.052357  -0.397372   0.438408
   26  C   2  S  -0.000018  -0.036093   0.022929   0.096580  -0.000039
   27  C   2  S  -0.000063  -0.060180   0.042719   0.159019  -0.000037
   28  C   2  S   0.000626   0.709066   0.041783  -5.924909   0.010050
   29  C   2  S   0.002311   1.743331  -0.267856   3.374820  -0.020290
   30  C   2  X  -0.025609  -0.027867  -0.001021  -0.234460  -0.022388
   31  C   2  Y   0.015019  -0.039822   0.018912   0.012880   0.013494
   32  C   2  Z  -0.056447   0.002129   0.005560   0.109539  -0.050451
   33  C   2  X   0.231589   0.346259   0.556202   2.613847   2.666922
   34  C   2  Y  -0.138223  -0.866437   1.599876   2.321310  -1.570978
   35  C   2  Z   0.510303  -0.367979   0.159423  -0.559496   5.896535
   36  C   2  X  -0.104814  -0.236504   0.471637  -0.157147   0.351950
   37  C   2  Y   0.061964  -0.207802   1.016085  -0.638002  -0.195019
   38  C   2  Z  -0.230299   0.045187   0.057888  -0.095640   0.769598
   39  C   2 XX  -0.010590   0.022902   0.021353   0.125529   0.045568
   40  C   2 YY  -0.003227  -0.068173  -0.001610  -0.064428   0.033922
   41  C   2 ZZ   0.013818   0.045271  -0.019743  -0.061101  -0.079490
   42  C   2 XY   0.006501  -0.039991   0.124285  -0.053269  -0.048320
   43  C   2 XZ  -0.009645   0.004382   0.023019  -0.146877   0.038004
   44  C   2 YZ   0.004716  -0.018965  -0.057213   0.043445  -0.060844
   45  C   2 XX  -0.643464  -0.245842   0.461738   0.234734  -0.397781
   46  C   2 YY   0.264307   1.053360   0.385569   0.160283   0.889858
   47  C   2 ZZ   0.379157  -0.807517  -0.847307  -0.395017  -0.492076
   48  C   2 XY  -0.034947   0.313571   0.841207  -0.402604  -0.734025
   49  C   2 XZ  -0.720408  -0.337464  -0.588423  -0.614247  -0.636686
   50  C   2 YZ  -0.620268   0.500429   0.078681   0.451750  -1.851772
   51  C   3  S   0.007655   0.033107   0.011217  -0.076745  -0.079376
   52  C   3  S   0.018410   0.060483   0.025131  -0.116556  -0.119546
   53  C   3  S   1.309109   0.558540   0.816531   2.216881   4.147494
   54  C   3  S   0.048431  -0.537184   0.396136  -1.659773   0.273787
   55  C   3  X   0.014038   0.015341   0.031068   0.073788   0.076812
   56  C   3  Y   0.020091  -0.028509   0.004674  -0.001180   0.006290
   57  C   3  Z   0.024099   0.018183   0.024955  -0.004568   0.047342
   58  C   3  X   0.440942  -0.176857   0.582719   1.741146   2.851473
   59  C   3  Y  -0.263253   0.872574   0.261999   0.125947   0.554885
   60  C   3  Z   0.263620  -0.309494   0.009801   2.279665   1.876278
   61  C   3  X   0.067586  -0.075948   0.007007  -0.209264  -0.016622
   62  C   3  Y  -0.027112  -0.037626  -0.160927   0.028445   0.438085
   63  C   3  Z   0.005899  -0.138191   0.138788  -0.045019   0.246303
   64  C   3 XX   0.042185   0.006758   0.037729  -0.066252   0.096091
   65  C   3 YY  -0.040959   0.012231  -0.004486   0.013193  -0.052341
   66  C   3 ZZ  -0.001226  -0.018989  -0.033243   0.053058  -0.043751
   67  C   3 XY  -0.028582   0.012102  -0.017280   0.049343   0.003055
   68  C   3 XZ  -0.022830  -0.026672  -0.001931   0.140208   0.029035
   69  C   3 YZ  -0.003747   0.033284   0.016240  -0.031052   0.005742
   70  C   3 XX  -0.336064  -0.170873   0.033438   0.100825   0.394874
   71  C   3 YY   0.121374  -0.026905   0.160253  -0.203580  -0.355154
   72  C   3 ZZ   0.214690   0.197778  -0.193691   0.102755  -0.039719
   73  C   3 XY  -0.005043   0.336315   0.160442   0.014073   0.058379
   74  C   3 XZ   0.056069  -0.257328   0.110272   0.522723   0.562824
   75  C   3 YZ   0.183015   0.156327   0.097405   0.149662  -0.067842
   76  H   4  S   0.072864  -0.040944   0.004690   0.084953   0.034075
   77  H   4  S  -1.086937  -0.120183   0.249861   0.039705  -0.644019
   78  H   4  S  -0.034228  -0.009842   0.035863  -0.052784   0.309521
   79  H   4  X   0.027691  -0.004603  -0.027765   0.041971   0.043625
   80  H   4  Y   0.001156   0.002131  -0.000446  -0.031677  -0.017238
   81  H   4  Z  -0.028520   0.011416   0.005467  -0.005740  -0.021449
   82  H   4  X  -0.356119   0.050848   0.006463  -0.069639  -0.099491
   83  H   4  Y   0.197569  -0.055148  -0.019116  -0.124254   0.022235
   84  H   4  Z   0.163439   0.136902  -0.029535   0.131109   0.095031
   85  H   5  S  -0.019559  -0.025106   0.011087  -0.021191   0.019830
   86  H   5  S   0.368821  -0.578069   0.269371   1.439742  -0.191902
   87  H   5  S   0.081410  -0.004283   0.113461   0.106975  -0.091528
   88  H   5  X  -0.005342  -0.004524   0.005896   0.043674  -0.012619
   89  H   5  Y  -0.014652   0.020528  -0.007355  -0.021571   0.006110
   90  H   5  Z  -0.011137  -0.054542  -0.038126   0.038043   0.037033
   91  H   5  X  -0.119917   0.055013  -0.045356  -0.373087   0.008780
   92  H   5  Y   0.050079   0.091795  -0.080808  -0.131475   0.101063
   93  H   5  Z  -0.083593   0.164826  -0.053704  -0.187991  -0.078839
   94  H   6  S  -0.014337   0.050270  -0.023164  -0.043450   0.011162
   95  H   6  S   0.967166  -0.025841  -0.153676   0.247046  -1.366888
   96  H   6  S  -0.013900  -0.072146   0.031605  -0.009288  -0.574142
   97  H   6  X  -0.001398  -0.008725   0.019557   0.021950  -0.025286
   98  H   6  Y  -0.033591  -0.032880   0.028986  -0.032385  -0.016383
   99  H   6  Z   0.031061  -0.016628  -0.024602   0.011506   0.016424
  100  H   6  X  -0.000035   0.002783   0.012766  -0.089316  -0.049275
  101  H   6  Y   0.320260   0.002245  -0.056222   0.008621  -0.312311
  102  H   6  Z   0.090161  -0.022201  -0.058496   0.212003  -0.150971
  103  H   7  S  -0.000179  -0.068101  -0.232323   0.189739  -0.000839
  104  H   7  S  -0.005486  -0.820772  -2.112301  -2.072082  -0.001266
  105  H   7  S  -0.000102   0.057917  -0.677476   0.162619  -0.005914
  106  H   7  X   0.016222  -0.033754  -0.087844  -0.046067  -0.008006
  107  H   7  Y  -0.009832  -0.086863  -0.016934  -0.074132   0.004837
  108  H   7  Z   0.035844  -0.007896   0.035291   0.001497  -0.017323
  109  H   7  X   0.158745  -0.050099  -0.308021  -0.035327   0.132323
  110  H   7  Y  -0.092937  -0.060775   0.432021   0.526584  -0.078240
  111  H   7  Z   0.353001   0.006743   0.254586   0.157695   0.294901
  112  H   8  S  -0.072603  -0.040839   0.005306   0.085499  -0.034690
  113  H   8  S   1.081735  -0.105374   0.239297   0.030649   0.648421
  114  H   8  S   0.035701  -0.010276   0.030262  -0.051208  -0.307699
  115  H   8  X  -0.039101  -0.010719  -0.022610   0.026992  -0.041873
  116  H   8  Y   0.005525   0.006281  -0.003267  -0.021830   0.016256
  117  H   8  Z   0.002744  -0.002133   0.016136  -0.039865   0.026209
  118  H   8  X   0.317806  -0.067720   0.019270  -0.166909   0.132685
  119  H   8  Y  -0.173706   0.020203  -0.026895  -0.067782  -0.038721
  120  H   8  Z  -0.242991  -0.134522   0.005638  -0.075900  -0.027527
  121  H   9  S   0.018694  -0.025161   0.009727  -0.022780  -0.021277
  122  H   9  S  -0.348650  -0.565342   0.276662   1.420113   0.187034
  123  H   9  S  -0.082655  -0.004576   0.116724   0.104975   0.093751
  124  H   9  X  -0.001749   0.038460   0.029305  -0.000939   0.033031
  125  H   9  Y   0.019140  -0.006487  -0.021025   0.005559  -0.018488
  126  H   9  Z  -0.004125   0.043028   0.013816  -0.061823   0.009139
  127  H   9  X   0.008567  -0.063594  -0.007072  -0.142022  -0.079693
  128  H   9  Y   0.009901   0.157459  -0.105895  -0.262775  -0.057700
  129  H   9  Z  -0.146106  -0.092120   0.031236   0.311514  -0.082111
  130  H  10  S   0.014783   0.050388  -0.022426  -0.042494  -0.009540
  131  H  10  S  -0.985286  -0.009548  -0.167331   0.277125   1.363552
  132  H  10  S   0.013137  -0.072350   0.033243  -0.009118   0.574080
  133  H  10  X   0.029915  -0.000450   0.036605   0.000354   0.032873
  134  H  10  Y   0.016792  -0.037461   0.019179  -0.019540   0.013230
  135  H  10  Z   0.031054   0.000981   0.012376  -0.035837  -0.001293
  136  H  10  X   0.005300   0.020429   0.039257  -0.210113  -0.014982
  137  H  10  Y  -0.329576  -0.002045  -0.075348   0.088358   0.347761
  138  H  10  Z  -0.083840   0.008339  -0.002121  -0.049925   0.011984
  139  F  11  S  -0.000075   0.030568   0.010370   0.054341  -0.000074
  140  F  11  S  -0.000149   0.059225   0.020710   0.102973  -0.000134
  141  F  11  S   0.000355  -0.221746  -0.120418  -0.552347   0.000721
  142  F  11  S   0.000606  -0.250636  -0.035689  -0.680192   0.002545
  143  F  11  X  -0.008694  -0.007906   0.031604   0.066005   0.051989
  144  F  11  Y   0.005088  -0.021916   0.095511  -0.015414  -0.030391
  145  F  11  Z  -0.019299  -0.002023   0.010865  -0.033652   0.114952
  146  F  11  X   0.051847   0.112240  -0.159844  -0.116065  -0.264151
  147  F  11  Y  -0.030260   0.105537  -0.447256   0.010386   0.154329
  148  F  11  Z   0.115069  -0.024340  -0.045510   0.053521  -0.582816
  149  F  11  X   0.083161   0.042819  -0.186820  -0.207437  -0.239856
  150  F  11  Y  -0.049174   0.135702  -0.542686   0.089671   0.139321
  151  F  11  Z   0.184613   0.016279  -0.059249   0.116050  -0.530072
  152  F  11 XX   0.051993   0.024466  -0.493212  -0.815253  -0.785616
  153  F  11 YY   0.471325   0.764811   0.615727   0.534139   0.082465
  154  F  11 ZZ  -0.523318  -0.789277  -0.122515   0.281114   0.703151
  155  F  11 XY  -0.479383   0.697994  -0.805153   0.304116   0.183990
  156  F  11 XZ  -0.070564  -0.335053  -0.121453   0.846205  -0.819911
  157  F  11 YZ  -0.940201   0.218626   0.652698  -0.174424  -0.285271
  158  F  11 XX  -0.045220  -0.035955   0.421132   0.642919   0.688353
  159  F  11 YY  -0.312570  -0.497741  -0.504248  -0.421127  -0.059761
  160  F  11 ZZ   0.357790   0.533696   0.083116  -0.221792  -0.628592
  161  F  11 XY   0.321373  -0.481627   0.661268  -0.234165  -0.173672
  162  F  11 XZ   0.035858   0.235059   0.076134  -0.664647   0.714743
  163  F  11 YZ   0.621799  -0.137880  -0.526675   0.134456   0.224644

 WARNING! THIS VERSION OF FIREFLY IS PROBABLY OUTDATED!
 PLEASE CHECK FIREFLY HOMEPAGE FOR INFORMATION ON UPDATES!

 ...... END OF DFT CALCULATION ......

                         TIMING STATISTICS ON RANK 0:
 CPU        TIME:   STEP =      8.96 ,  TOTAL =        9.3 SECONDS (    0.2 MIN)
 WALL CLOCK TIME:   STEP =     25.48 ,  TOTAL =       26.8 SECONDS (    0.4 MIN)
 CPU UTILIZATION:   STEP =     35.17%,  TOTAL =      34.89%


                       ----------------------------------
                       properties for the R-B3LYP density
                       ----------------------------------

          -----------------
          ENERGY COMPONENTS
          -----------------

         WAVEFUNCTION NORMALIZATION =       1.0000000000

                ONE ELECTRON ENERGY =    -558.6945239697
                TWO ELECTRON ENERGY =     208.5282667871
           NUCLEAR REPULSION ENERGY =     131.7564939132
                                      ------------------
                       TOTAL ENERGY =    -218.4097632694

 ELECTRON-ELECTRON POTENTIAL ENERGY =     208.5282667871
  NUCLEUS-ELECTRON POTENTIAL ENERGY =    -775.6012919874
   NUCLEUS-NUCLEUS POTENTIAL ENERGY =     131.7564939132
                                      ------------------
             TOTAL POTENTIAL ENERGY =    -435.3165312871
               TOTAL KINETIC ENERGY =     216.9067680178
                 VIRIAL RATIO (V/T) =       2.0069292225

          ---------------------------------------
          MULLIKEN AND LOWDIN POPULATION ANALYSES
          ---------------------------------------

     MULLIKEN ATOMIC POPULATION IN EACH MOLECULAR ORBITAL

                      1          2          3          4          5

                  2.000000   2.000000   2.000000   2.000000   2.000000

    1            -0.000055   0.011744   1.541044   0.436522   0.032307
    2             0.003768   1.975177   0.018408   0.006165  -0.066614
    3            -0.000058   0.011772   0.434422   1.543141   0.032356
    4             0.000001   0.000273   0.001563   0.001321   0.006633
    5             0.000023   0.001122   0.002527   0.000953  -0.009137
    6            -0.000033   0.000498   0.001472   0.001737   0.001722
    7             0.000090   0.000803   0.000061   0.001042  -0.000169
    8             0.000000   0.000275   0.000051   0.002815   0.006710
    9             0.000023   0.001127   0.000635   0.002846  -0.009183
   10            -0.000033   0.000491  -0.000149   0.003378   0.001709
   11             1.996273  -0.003282  -0.000035   0.000079   2.003666

                      6          7          8          9         10

                  2.000000   2.000000   2.000000   2.000000   2.000000

    1             0.425824   0.465275   0.155550   0.115166   0.243889
    2             0.559390   0.314189   0.342527   0.443242   0.546106
    3             0.425081   0.465325   0.155472   0.114424   0.245420
    4             0.064896   0.099783   0.082919   0.059146   0.002374
    5             0.033630   0.174873   0.085426   0.002766   0.238340
    6             0.058272   0.099188   0.103690   0.062200   0.004307
    7             0.140803  -0.009058   0.392215   0.377344   0.022024
    8             0.064865   0.099425   0.083342   0.058455   0.002472
    9             0.033591   0.174565   0.085064   0.003397   0.238503
   10             0.057741   0.100363   0.103171   0.062676   0.004533
   11             0.135905   0.016072   0.410623   0.701183   0.452032

                     11         12         13         14         15

                  2.000000   2.000000   2.000000   2.000000   2.000000

    1             0.334651   0.188763   0.356002   0.158071   0.264441
    2             0.203602   0.167738   0.095749   0.038119   0.029924
    3             0.333144   0.189252   0.354718   0.160320   0.263406
    4             0.137479   0.174531   0.155391   0.241286   0.157149
    5             0.007864   0.204265   0.010178   0.001847   0.401111
    6             0.033643   0.030649   0.420924   0.247063   0.005429
    7            -0.013018   0.008297  -0.015967   0.098382   0.000080
    8             0.138075   0.180246   0.148158   0.240450   0.159259
    9             0.007923   0.203940   0.012324   0.002397   0.397581
   10             0.032613   0.027848   0.421176   0.252317   0.003997
   11             0.784025   0.624471   0.041347   0.559749   0.317623

                     16         17

                  2.000000   2.000000

    1             0.331074   0.204673
    2             0.280331   0.072162
    3             0.333898   0.201218
    4             0.029262   0.005549
    5             0.087067   0.017385
    6             0.001371   0.143869
    7             0.002923   0.494765
    8             0.028826   0.005947
    9             0.086947   0.018616
   10             0.001234   0.142680
   11             0.817067   0.693137

               ----- POPULATIONS IN EACH AO -----
                             MULLIKEN      LOWDIN
              1  C   1  S     2.02091     1.82157
              2  C   1  S     0.66716     0.42610
              3  C   1  S     0.14805     0.18311
              4  C   1  S     0.19382     0.05260
              5  C   1  X     0.72558     0.60026
              6  C   1  Y     0.71758     0.59899
              7  C   1  Z     0.71179     0.59733
              8  C   1  X    -0.09086     0.29930
              9  C   1  Y     0.06098     0.29568
             10  C   1  Z     0.16036     0.26915
             11  C   1  X    -0.01953     0.03459
             12  C   1  Y    -0.00370     0.03044
             13  C   1  Z    -0.00216     0.03721
             14  C   1 XX     0.00596     0.10868
             15  C   1 YY     0.01059     0.11770
             16  C   1 ZZ     0.00568     0.10848
             17  C   1 XY     0.00265     0.00546
             18  C   1 XZ     0.01341     0.03251
             19  C   1 YZ     0.00934     0.02151
             20  C   1 XX    -0.01997     0.04470
             21  C   1 YY    -0.01692     0.08357
             22  C   1 ZZ    -0.00228     0.06563
             23  C   1 XY    -0.00824     0.01669
             24  C   1 XZ    -0.01335     0.09725
             25  C   1 YZ    -0.01190     0.05533
             26  C   2  S     2.02206     1.81617
             27  C   2  S     0.67238     0.43059
             28  C   2  S     0.31223     0.16742
             29  C   2  S    -0.33915     0.04931
             30  C   2  X     0.55425     0.46594
             31  C   2  Y     0.75257     0.61916
             32  C   2  Z     0.70398     0.58599
             33  C   2  X     0.07293     0.18390
             34  C   2  Y    -0.05105     0.27281
             35  C   2  Z     0.05348     0.22400
             36  C   2  X    -0.02853     0.03952
             37  C   2  Y    -0.03630     0.03319
             38  C   2  Z    -0.02701     0.04527
             39  C   2 XX     0.02423     0.12995
             40  C   2 YY     0.01900     0.12884
             41  C   2 ZZ     0.01583     0.12252
             42  C   2 XY     0.01757     0.03319
             43  C   2 XZ     0.03583     0.06922
             44  C   2 YZ     0.01952     0.03928
             45  C   2 XX     0.02377     0.12330
             46  C   2 YY     0.00737     0.10975
             47  C   2 ZZ     0.04775     0.13569
             48  C   2 XY     0.03251     0.11875
             49  C   2 XZ     0.07342     0.18317
             50  C   2 YZ     0.05133     0.13267
             51  C   3  S     2.02091     1.82127
             52  C   3  S     0.66717     0.42576
             53  C   3  S     0.14738     0.18283
             54  C   3  S     0.19368     0.05254
             55  C   3  X     0.71203     0.59893
             56  C   3  Y     0.72713     0.60030
             57  C   3  Z     0.71592     0.59728
             58  C   3  X     0.13674     0.28257
             59  C   3  Y    -0.08100     0.30233
             60  C   3  Z     0.07402     0.28164
             61  C   3  X    -0.01175     0.03443
             62  C   3  Y    -0.00882     0.03093
             63  C   3  Z    -0.00506     0.03714
             64  C   3 XX     0.00767     0.11321
             65  C   3 YY     0.00790     0.11252
             66  C   3 ZZ     0.00498     0.10628
             67  C   3 XY     0.00453     0.00944
             68  C   3 XZ     0.01120     0.02675
             69  C   3 YZ     0.01136     0.02628
             70  C   3 XX     0.00693     0.07478
             71  C   3 YY    -0.01800     0.04960
             72  C   3 ZZ    -0.00522     0.06295
             73  C   3 XY    -0.00380     0.04406
             74  C   3 XZ    -0.02223     0.05976
             75  C   3 YZ    -0.03035     0.07563
             76  H   4  S     0.77417     0.52237
             77  H   4  S     0.46116     0.15851
             78  H   4  S     0.00934     0.02201
             79  H   4  X     0.01336     0.02725
             80  H   4  Y     0.00617     0.01370
             81  H   4  Z     0.00818     0.01801
             82  H   4  X    -0.03124     0.07911
             83  H   4  Y    -0.01244     0.05901
             84  H   4  Z    -0.00915     0.05623
             85  H   5  S     0.77833     0.52176
             86  H   5  S     0.48262     0.15765
             87  H   5  S     0.02181     0.02212
             88  H   5  X     0.01249     0.02627
             89  H   5  Y     0.00584     0.01336
             90  H   5  Z     0.00912     0.01993
             91  H   5  X    -0.01605     0.07640
             92  H   5  Y    -0.01512     0.05843
             93  H   5  Z    -0.01881     0.05906
             94  H   6  S     0.77623     0.52845
             95  H   6  S     0.44471     0.15799
             96  H   6  S     0.01202     0.02297
             97  H   6  X     0.00586     0.01325
             98  H   6  Y     0.01597     0.03302
             99  H   6  Z     0.00580     0.01386
            100  H   6  X    -0.01652     0.06034
            101  H   6  Y    -0.02931     0.08159
            102  H   6  Z     0.00124     0.05603
            103  H   7  S     0.79925     0.54013
            104  H   7  S     0.74954     0.15131
            105  H   7  S    -0.00268     0.02210
            106  H   7  X     0.00292     0.00768
            107  H   7  Y     0.01520     0.03501
            108  H   7  Z     0.00490     0.01318
            109  H   7  X    -0.01628     0.03650
            110  H   7  Y    -0.02277     0.07765
            111  H   7  Z    -0.02948     0.04420
            112  H   8  S     0.77430     0.52570
            113  H   8  S     0.46097     0.15980
            114  H   8  S     0.00945     0.02202
            115  H   8  X     0.01389     0.02901
            116  H   8  Y     0.00646     0.01433
            117  H   8  Z     0.00738     0.01583
            118  H   8  X    -0.02945     0.07102
            119  H   8  Y    -0.02068     0.06130
            120  H   8  Z    -0.00295     0.06179
            121  H   9  S     0.77836     0.52259
            122  H   9  S     0.48288     0.15809
            123  H   9  S     0.02179     0.02211
            124  H   9  X     0.00567     0.01320
            125  H   9  Y     0.00911     0.01942
            126  H   9  Z     0.01267     0.02686
            127  H   9  X    -0.00745     0.05713
            128  H   9  Y    -0.01934     0.06673
            129  H   9  Z    -0.02340     0.06996
            130  H  10  S     0.77618     0.52542
            131  H  10  S     0.44431     0.15656
            132  H  10  S     0.01179     0.02292
            133  H  10  X     0.00548     0.01293
            134  H  10  Y     0.01591     0.03270
            135  H  10  Z     0.00624     0.01466
            136  H  10  X    -0.00724     0.05542
            137  H  10  Y    -0.03054     0.08657
            138  H  10  Z    -0.00639     0.05760
            139  F  11  S     2.00840     1.87570
            140  F  11  S     0.88868     0.65686
            141  F  11  S     1.06596     0.40987
            142  F  11  S     0.14373     0.07974
            143  F  11  X     0.99781     0.93740
            144  F  11  Y     1.18427     1.13871
            145  F  11  Z     1.14422     1.09791
            146  F  11  X     0.58065     0.56891
            147  F  11  Y     0.69608     0.62733
            148  F  11  Z     0.67822     0.61388
            149  F  11  X     0.03151     0.08354
            150  F  11  Y     0.05731     0.07658
            151  F  11  Z     0.04988     0.07840
            152  F  11 XX     0.00085     0.19065
            153  F  11 YY     0.00035     0.18704
            154  F  11 ZZ     0.00026     0.18759
            155  F  11 XY     0.00064     0.00056
            156  F  11 XZ     0.00123     0.00107
            157  F  11 YZ     0.00019     0.00019
            158  F  11 XX     0.00394     0.07289
            159  F  11 YY     0.00150     0.05183
            160  F  11 ZZ     0.00206     0.05719
            161  F  11 XY     0.00444     0.01772
            162  F  11 XZ     0.00550     0.02127
            163  F  11 YZ     0.00225     0.00644

          ----- MULLIKEN ATOMIC OVERLAP POPULATIONS -----
          (OFF-DIAGONAL ELEMENTS NEED TO BE MULTIPLIED BY 2)

             1           2           3           4           5

    1    4.4302640
    2    0.2822622   5.0709831
    3   -0.1526018   0.2840733   4.4292891
    4    0.2636182  -0.0902459  -0.0124417   1.5700953
    5    0.1265957   0.3161311  -0.0325399  -0.2542934   1.6038991
    6    0.3268098  -0.2263778   0.0208505  -0.1862948  -0.3732907
    7   -0.0138829  -0.3910209  -0.0162961  -0.1035696  -0.1052674
    8   -0.0133733  -0.0925375   0.2641766   0.0061663   0.0133235
    9   -0.0326877   0.3147355   0.1262348   0.0132849  -0.0097789
   10    0.0216316  -0.2226722   0.3262864  -0.0281761   0.0076764
   11    0.0263059  -0.2153474   0.0262765   0.0414146  -0.0322164

             6           7           8           9          10

    6    1.5574900
    7    0.0964176   2.2296309
    8   -0.0287501  -0.1023673   1.5720212
    9    0.0076656  -0.1062909  -0.2549714   1.6067425
   10    0.0061489   0.0961691  -0.1859269  -0.3730319   1.5530326
   11    0.0153333  -0.0829054   0.0416123  -0.0316059   0.0146060

            11

   11    9.7464636

          TOTAL MULLIKEN AND LOWDIN ATOMIC POPULATIONS
       ATOM         MULL.POP.    CHARGE          LOW.POP.     CHARGE
    1 C             5.264942    0.735058         6.003811   -0.003811
    2 C             5.029984    0.970016         6.259603   -0.259603
    3 C             5.263308    0.736692         6.009207   -0.009207
    4 H             1.219558   -0.219558         0.956215    0.043785
    5 H             1.260239   -0.260239         0.954976    0.045024
    6 H             1.216002   -0.216002         0.967507    0.032493
    7 H             1.500617   -0.500617         0.927753    0.072247
    8 H             1.219373   -0.219373         0.960790    0.039210
    9 H             1.260296   -0.260296         0.956092    0.043908
   10 H             1.215744   -0.215744         0.964782    0.035218
   11 F             9.549937   -0.549937         9.039264   -0.039264

          -------------------------------
          BOND ORDER AND VALENCE ANALYSIS     BOND ORDER THRESHOLD=0.050
          -------------------------------

                   BOND                       BOND                       BOND
  ATOM PAIR DIST  ORDER      ATOM PAIR DIST  ORDER      ATOM PAIR DIST  ORDER
    1   2  1.518  1.240        1   3  2.555 -0.051        1   4  1.100  0.852
    1   5  1.097  0.771        1   6  1.099  0.875        1   7  2.163  0.050
    1  11  2.379  0.081        2   3  1.518  1.240        2   4  2.158  0.051
    2   5  2.161  0.183        2   7  1.101  0.436        2   9  2.162  0.182
    2  11  1.424  0.284        3   8  1.099  0.852        3   9  1.097  0.771
    3  10  1.099  0.875        3  11  2.379  0.081        4   5  1.781 -0.078
    4   6  1.785 -0.076        5   6  1.786 -0.107        8   9  1.781 -0.078
    8  10  1.785 -0.076        9  10  1.786 -0.107

                       TOTAL       BONDED        FREE
      ATOM            VALENCE     VALENCE     VALENCE
    1 C                 3.798       3.798       0.000
    2 C                 3.700       3.700       0.000
    3 C                 3.797       3.797       0.000
    4 H                 0.708       0.708       0.000
    5 H                 0.719       0.719       0.000
    6 H                 0.751       0.751       0.000
    7 H                 0.439       0.439       0.000
    8 H                 0.707       0.707       0.000
    9 H                 0.718       0.718       0.000
   10 H                 0.753       0.753       0.000
   11 F                 0.496       0.496       0.000

          ---------------------
          ELECTROSTATIC MOMENTS
          ---------------------

 POINT   1           X           Y           Z (BOHR)    CHARGE
                 3.591594    7.492574   -3.650408        0.00 (A.U.)
         DX          DY          DZ         /D/  (DEBYE)
    -1.852913    0.288247    0.916386    2.087136
 ...... END OF PROPERTY EVALUATION ......

                         TIMING STATISTICS ON RANK 0:
 CPU        TIME:   STEP =      0.02 ,  TOTAL =        9.4 SECONDS (    0.2 MIN)
 WALL CLOCK TIME:   STEP =      0.12 ,  TOTAL =       26.9 SECONDS (    0.4 MIN)
 CPU UTILIZATION:   STEP =     16.56%,  TOTAL =      34.81%
 ......END OF NBO ANALYSIS......

                         TIMING STATISTICS ON RANK 0:
 CPU        TIME:   STEP =      0.01 ,  TOTAL =        9.4 SECONDS (    0.2 MIN)
 WALL CLOCK TIME:   STEP =      0.01 ,  TOTAL =       26.9 SECONDS (    0.4 MIN)
 CPU UTILIZATION:   STEP =    167.14%,  TOTAL =      34.84%

                         OVERALL  TIMING  STATISTICS:
 GLOBAL CPU TIME ELAPSED      =        65.2 SECONDS (     1.1 MIN)
 RANK 0 WALL CLOCK TIME       =        26.9 SECONDS (     0.4 MIN)
 JOB CPU UTILIZATION:   TOTAL =    242.01%, PER RANK AVERAGE =     24.20%

      912929 WORDS OF    DYNAMIC MEMORY USED
     5585795 BYTES OF    HEAP MEMORY    USED,      133350 BYTES REMAIN IN USE

 WARNING! THIS VERSION OF FIREFLY IS PROBABLY OUTDATED!
 PLEASE CHECK FIREFLY HOMEPAGE FOR INFORMATION ON UPDATES!

 EXECUTION OF FIREFLY TERMINATED NORMALLY  0:11:24  9-JUL-2026    
