              Grand Master is running on host yaroslavhonor
              rank #     1 is running on host yaroslavhonor
              rank #     2 is running on host yaroslavhonor
              rank #     3 is running on host yaroslavhonor
              rank #     4 is running on host yaroslavhonor
              rank #     5 is running on host yaroslavhonor
              rank #     6 is running on host yaroslavhonor
              rank #     7 is running on host yaroslavhonor
              rank #     8 is running on host yaroslavhonor
              rank #     9 is running on host yaroslavhonor

          ******************************************************
          *      Firefly version 8.2.0, build number 10203     *
          *   Compiled on    Monday,    19-09-2016, 15:30:23   *
          *Code development and Intel/AMD specific optimization*
          *  Copyright (c) 1994, 2016 by  Alex A. Granovsky,   *
          *          Firefly Project, Moscow, Russia.          *
          *   Some parts of this program include code due to   *
          * work of Jim Kress, Peter Burger, and Robert Ponec. *
          ******************************************************
          *             Firefly Project homepage:              *
          * http://classic.chem.msu.su/gran/firefly/index.html *
          *                      e-mail:                       *
          *               gran@classic.chem.msu.su             *
          *This program is not a free software and is provided *
          *exclusively to its registered users under the terms *
          *       of Firefly package license agreement         *
          * Unauthorized use of Firefly is strongly prohibited *
          *   This program may not be redistributed without    *
          * the specific, written permission of its developers.*
          ******************************************************

          ******************************************************
          *  PARTIALLY BASED ON  US GAMESS VERSION 6 JUN 1999, *
          *   US GAMESS VERSIONS  6 SEP 2001 AND 12 DEC 2003   *
          *             FROM IOWA STATE UNIVERSITY             *
          * M.W.SCHMIDT, K.K.BALDRIDGE, J.A.BOATZ, S.T.ELBERT, *
          *   M.S.GORDON, J.H.JENSEN, S.KOSEKI, N.MATSUNAGA,   *
          *          K.A.NGUYEN, S.J.SU, T.L.WINDUS,           *
          *       TOGETHER WITH M.DUPUIS, J.A.MONTGOMERY       *
          *         J.COMPUT.CHEM.  14, 1347-1363(1993)        *
          ******************************************************


 Core i7    / Linux  Firefly version running under Linux.
 Running on Intel CPU:  Brand ID  0, Family  6, Model 170, Stepping  4
 CPU Brand String    :  Intel(R) Core(TM) Ultra 5 125H                  
 CPU Features        :  x87 FPU, CMOV, MMX, SSE, SSE2, SSE3, SSSE3, SSE4.1, SSE4.2, AVX, AVX2, FMA3, HTT, MWAIT, EM64T
 Data cache size     :  L1 48 KB, L2 2048 KB, L3 18432 KB
 max    # of   cores/package :  64
 max    # of threads/package : 128
 max     cache sharing level :  64
 actual # of   cores/package :   9
 actual # of threads/package :  18
 actual # of threads/core    :   2
 Operating System successfully passed SSE support test.
 Operating System supports AVX/FMA.


 PARALLEL VERSION (MPICH) RUNNING USING   10 PROCESSES (RANKS)


 WARNING! THIS VERSION OF FIREFLY IS PROBABLY OUTDATED!
 PLEASE CHECK FIREFLY HOMEPAGE FOR INFORMATION ON UPDATES!

 EXECUTION OF FIREFLY BEGUN  0:10:57  9-JUL-2026    

            ECHO OF THE FIRST FEW INPUT CARDS -
 INPUT CARD> $CONTRL SCFTYP=RHF RUNTYP=ENERGY ICHARG=0 MULT=1 DFTTYP=B3LYP EXETYP=RUN       
 INPUT CARD>      INTTYP=HONDO ICUT=13 ITOL=30 D5=.T. MAXIT=100 GENCON=.F. WIDE=1 FSTINT=.T.
 INPUT CARD> $END                                                                           
 INPUT CARD> $SYSTEM TIMLIM=60000 MWORDS=200 MASMEM=200000000 MXBCST=-1 KDIAG=0 NOJAC=1 $END
 INPUT CARD> $MOORTH NOSTF=.T. NOZERO=.T. SYMS=.T. SYMDEN=.T. SYMVEC=.T. SYMVX=.T.          
 INPUT CARD>      TOLE=0.0D0 TOLZ=0.0D0 $END                                                
 INPUT CARD> $GUESS GUESS=HUCKEL $END                                                       
 INPUT CARD> $SCF DIRSCF=.T. FDIFF=.F. DIIS=.T. DAMP=.T. SHIFT=.T. SOSCF=.F. $END           
 INPUT CARD> $DATA                                                                          
 INPUT CARD> C3H7F                                                                          
 INPUT CARD> C1                                                                             
 INPUT CARD>C      6.0            1.6454071060          3.5313558393         -0.4902641422  
 INPUT CARD>S   8                                                                           
 INPUT CARD>  1    6665.0000000       0.0006920                                             
 INPUT CARD>  2    1000.0000000       0.0053290                                             
 INPUT CARD>  3     228.0000000       0.0270770                                             
 INPUT CARD>  4      64.7100000       0.1017180                                             
 INPUT CARD>  5      21.0600000       0.2747400                                             
 INPUT CARD>  6       7.4950000       0.4485640                                             
 INPUT CARD>  7       2.7970000       0.2850740                                             
 INPUT CARD>  8       0.5215000       0.0152040                                             
 INPUT CARD>S   8                                                                           
 INPUT CARD>  1    6665.0000000      -0.0001460                                             
 INPUT CARD>  2    1000.0000000      -0.0011540                                             
 INPUT CARD>  3     228.0000000      -0.0057250                                             
 INPUT CARD>  4      64.7100000      -0.0233120                                             
 INPUT CARD>  5      21.0600000      -0.0639550                                             
 INPUT CARD>  6       7.4950000      -0.1499810                                             
 INPUT CARD>  7       2.7970000      -0.1272620                                             
 INPUT CARD>  8       0.5215000       0.5445290                                             
 INPUT CARD>S   1                                                                           
 INPUT CARD>  1       0.1596000       1.0000000                                             
 INPUT CARD>S   1                                                                           
 INPUT CARD>  1       0.0469000       1.0000000                                             
 INPUT CARD>P   3                                                                           
 INPUT CARD>  1       9.4390000       0.0381090                                             
 INPUT CARD>  2       2.0020000       0.2094800                                             
 INPUT CARD>  3       0.5456000       0.5085570                                             
 INPUT CARD>P   1                                                                           
 INPUT CARD>  1       0.1517000       1.0000000                                             
 INPUT CARD>P   1                                                                           
 INPUT CARD>  1       0.0404100       1.0000000                                             
 INPUT CARD>D   1                                                                           
 INPUT CARD>  1       0.5500000       1.0000000                                             
 INPUT CARD>D   1                                                                           
 INPUT CARD>  1       0.1510000       1.0000000                                             
 INPUT CARD>                                                                                
 INPUT CARD>C      6.0            1.6498433690          4.3708828890         -1.7426947547  
 INPUT CARD>S   8                                                                           
 INPUT CARD>  1    6665.0000000       0.0006920                                             
  200000000 WORDS OF MEMORY AVAILABLE

 This job is executing on     1 unique host(s)
 Minimum number of processes per host is:   10
 Maximum number of processes per host is:   10

 On master's host, detected   18 CPU core(s) in aggregate

 Using processor-specific dynamic link DGEMM library code.


 Warning: HTT is enabled, bitmask of physically unique cores is 0x000000B4

 SMT aware parts of program will use              2 threads.

 Creating thread pool to serve up to            128 threads.


 Loading P2P interface library... loaded successfully (version 2.4).
 Initializing global P2P interface... topology done.



     RUN TITLE
     ---------
  C3H7F                                                                          

 THE POINT GROUP OF THE MOLECULE IS C1      
 THE ORDER OF THE PRINCIPAL AXIS IS     0
 *** WARNING! ATOM   1 SHELL    1 TYPE S HAS NORMALIZATION   0.99939879
 *** WARNING! ATOM   1 SHELL    2 TYPE S HAS NORMALIZATION   2.00869625
 *** WARNING! ATOM   1 SHELL    5 TYPE P HAS NORMALIZATION   1.49516523
 *** WARNING! ATOM   2 SHELL   10 TYPE S HAS NORMALIZATION   0.99939879
 *** WARNING! ATOM   2 SHELL   11 TYPE S HAS NORMALIZATION   2.00869625
 *** WARNING! ATOM   2 SHELL   14 TYPE P HAS NORMALIZATION   1.49516523
 *** WARNING! ATOM   3 SHELL   19 TYPE S HAS NORMALIZATION   0.99939879
 *** WARNING! ATOM   3 SHELL   20 TYPE S HAS NORMALIZATION   2.00869625
 *** WARNING! ATOM   3 SHELL   23 TYPE P HAS NORMALIZATION   1.49516523
 *** WARNING! ATOM   4 SHELL   28 TYPE S HAS NORMALIZATION   1.70173870
 *** WARNING! ATOM   5 SHELL   33 TYPE S HAS NORMALIZATION   1.70173870
 *** WARNING! ATOM   6 SHELL   38 TYPE S HAS NORMALIZATION   1.70173870
 *** WARNING! ATOM   7 SHELL   43 TYPE S HAS NORMALIZATION   1.70173870
 *** WARNING! ATOM   8 SHELL   48 TYPE S HAS NORMALIZATION   1.70173870
 *** WARNING! ATOM   9 SHELL   53 TYPE S HAS NORMALIZATION   1.70173870
 *** WARNING! ATOM  10 SHELL   58 TYPE S HAS NORMALIZATION   1.70173870
 *** WARNING! ATOM  11 SHELL   63 TYPE S HAS NORMALIZATION   0.99954745
 *** WARNING! ATOM  11 SHELL   64 TYPE S HAS NORMALIZATION   1.94662964
 *** WARNING! ATOM  11 SHELL   67 TYPE P HAS NORMALIZATION   1.44467270

 ATOM      ATOMIC                      COORDINATES (BOHR)
           CHARGE         X                   Y                   Z
 C           6.0     3.1093687952        6.6732953878       -0.9264649579
 C           6.0     3.1177521173        8.2597715867       -3.2932158067
 C           6.0     1.2410525761        7.7274982668       -5.2326369667
 H           1.0     1.6820141836        7.3017746607        0.3064919751
 H           1.0     4.8520158252        6.8167851658        0.0422147284
 H           1.0     2.7891287226        4.7166670134       -1.3025008982
 H           1.0     3.4686208688       10.2221279258       -2.9547122663
 H           1.0    -0.3527435973        7.5368019279       -4.6703274451
 H           1.0     1.3836730523        8.9114782621       -6.9095284539
 H           1.0     2.3202871219        5.9055942726       -5.8797426160
 F           9.0     5.8930224606        7.0245371797       -5.1963627784

          INTERNUCLEAR DISTANCES (ANGS.)
          ------------------------------

                    C              C              C              H         

  1  C               0.0000000      1.5077824 *    2.5458356 *    1.0520530 *  
  2  C               1.5077824 *    0.0000000      1.4556385 *    2.1125373 *  
  3  C               2.5458356 *    1.4556385 *    0.0000000      2.9490717 *  
  4  H               1.0520530 *    2.1125373 *    2.9490717 *    0.0000000    
  5  H               1.0577918 *    2.1308815 *    3.4168835      1.7027643 *  
  6  H               1.0678832 *    2.1576242 *    2.7449771 *    1.7145131 *  
  7  H               2.1713722 *    1.0700031 *    2.1413167 *    2.5020559 *  
  8  H               2.7368425 *    2.0125064 *    0.9000281 *    2.8479474 *  
  9  H               3.5015595      2.1501447 *    1.0888860 *    3.9155933    
 10  H               2.6851233 *    1.8982806 *    1.1717216 *    3.3729064    
 11  F               2.7036826 *    1.8969285 *    2.4897377 *    3.6697156    

                    H              H              H              H         

  1  C               1.0577918 *    1.0678832 *    2.1713722 *    2.7368425 *  
  2  C               2.1308815 *    2.1576242 *    1.0700031 *    2.0125064 *  
  3  C               3.4168835      2.7449771 *    2.1413167 *    0.9000281 *  
  4  H               1.7027643 *    1.7145131 *    2.5020559 *    2.8479474 *  
  5  H               0.0000000      1.7126270 *    2.5096456 *    3.7349565    
  6  H               1.7126270 *    0.0000000      3.0629082      2.8578890 *  
  7  H               2.5096456 *    3.0629082      0.0000000      2.6330030 *  
  8  H               3.7349565      2.8578890 *    2.6330030 *    0.0000000    
  9  H               4.2579492      3.7794704      2.4653855 *    1.6666057 *  
 10  H               3.4420729      2.5148170 *    2.8253770 *    1.7763823 *  
 11  F               2.8284782 *    2.9043385 *    2.4323339 *    3.3278777    

                    H              H              F         

  1  C               3.5015595      2.6851233 *    2.7036826 *  
  2  C               2.1501447 *    1.8982806 *    1.8969285 *  
  3  C               1.0888860 *    1.1717216 *    2.4897377 *  
  4  H               3.9155933      3.3729064      3.6697156    
  5  H               4.2579492      3.4420729      2.8284782 *  
  6  H               3.7794704      2.5148170 *    2.9043385 *  
  7  H               2.4653855 *    2.8253770 *    2.4323339 *  
  8  H               1.6666057 *    1.7763823 *    3.3278777    
  9  H               0.0000000      1.7529304 *    2.7410008 *  
 10  H               1.7529304 *    0.0000000      2.0138985 *  
 11  F               2.7410008 *    2.0138985 *    0.0000000    

  * ... LESS THAN  3.000


     ATOMIC BASIS SET
     ----------------
 THE CONTRACTED PRIMITIVE FUNCTIONS HAVE BEEN UNNORMALIZED
 THE CONTRACTED BASIS FUNCTIONS ARE NOW NORMALIZED TO UNITY

 SHELL TYPE PRIM    EXPONENT          CONTRACTION COEFFICIENTS

 C         

   1   S    1    6665.000000    0.363584 (  0.000692) 
   1   S    2    1000.000000    0.674986 (  0.005329) 
   1   S    3     228.000000    1.131620 (  0.027077) 
   1   S    4      64.710000    1.653009 (  0.101718) 
   1   S    5      21.060000    1.923821 (  0.274740) 
   1   S    6       7.495000    1.447278 (  0.448564) 
   1   S    7       2.797000    0.439163 (  0.285074) 
   1   S    8       0.521500    0.006646 (  0.015204) 

   2   S    9    6665.000000   -0.154180 ( -0.000146) 
   2   S   10    1000.000000   -0.293785 ( -0.001154) 
   2   S   11     228.000000   -0.480896 ( -0.005725) 
   2   S   12      64.710000   -0.761434 ( -0.023312) 
   2   S   13      21.060000   -0.900104 ( -0.063955) 
   2   S   14       7.495000   -0.972611 ( -0.149981) 
   2   S   15       2.797000   -0.394042 ( -0.127262) 
   2   S   16       0.521500    0.478394 (  0.544529) 

   3   S   17       0.159600    0.179964 (  1.000000) 

   4   S   18       0.046900    0.071827 (  1.000000) 

   5   P   19       9.439000    1.343737 (  0.038109) 
   5   P   20       2.002000    1.063168 (  0.209480) 
   5   P   21       0.545600    0.508232 (  0.508557) 

   6   P   22       0.151700    0.134950 (  1.000000) 

   7   P   23       0.040410    0.025826 (  1.000000) 

   8   D   24       0.550000    0.578155 (  1.000000) 

   9   D   25       0.151000    0.060203 (  1.000000) 

 C         

  10   S   26    6665.000000    0.363584 (  0.000692) 
  10   S   27    1000.000000    0.674986 (  0.005329) 
  10   S   28     228.000000    1.131620 (  0.027077) 
  10   S   29      64.710000    1.653009 (  0.101718) 
  10   S   30      21.060000    1.923821 (  0.274740) 
  10   S   31       7.495000    1.447278 (  0.448564) 
  10   S   32       2.797000    0.439163 (  0.285074) 
  10   S   33       0.521500    0.006646 (  0.015204) 

  11   S   34    6665.000000   -0.154180 ( -0.000146) 
  11   S   35    1000.000000   -0.293785 ( -0.001154) 
  11   S   36     228.000000   -0.480896 ( -0.005725) 
  11   S   37      64.710000   -0.761434 ( -0.023312) 
  11   S   38      21.060000   -0.900104 ( -0.063955) 
  11   S   39       7.495000   -0.972611 ( -0.149981) 
  11   S   40       2.797000   -0.394042 ( -0.127262) 
  11   S   41       0.521500    0.478394 (  0.544529) 

  12   S   42       0.159600    0.179964 (  1.000000) 

  13   S   43       0.046900    0.071827 (  1.000000) 

  14   P   44       9.439000    1.343737 (  0.038109) 
  14   P   45       2.002000    1.063168 (  0.209480) 
  14   P   46       0.545600    0.508232 (  0.508557) 

  15   P   47       0.151700    0.134950 (  1.000000) 

  16   P   48       0.040410    0.025826 (  1.000000) 

  17   D   49       0.550000    0.578155 (  1.000000) 

  18   D   50       0.151000    0.060203 (  1.000000) 

 C         

  19   S   51    6665.000000    0.363584 (  0.000692) 
  19   S   52    1000.000000    0.674986 (  0.005329) 
  19   S   53     228.000000    1.131620 (  0.027077) 
  19   S   54      64.710000    1.653009 (  0.101718) 
  19   S   55      21.060000    1.923821 (  0.274740) 
  19   S   56       7.495000    1.447278 (  0.448564) 
  19   S   57       2.797000    0.439163 (  0.285074) 
  19   S   58       0.521500    0.006646 (  0.015204) 

  20   S   59    6665.000000   -0.154180 ( -0.000146) 
  20   S   60    1000.000000   -0.293785 ( -0.001154) 
  20   S   61     228.000000   -0.480896 ( -0.005725) 
  20   S   62      64.710000   -0.761434 ( -0.023312) 
  20   S   63      21.060000   -0.900104 ( -0.063955) 
  20   S   64       7.495000   -0.972611 ( -0.149981) 
  20   S   65       2.797000   -0.394042 ( -0.127262) 
  20   S   66       0.521500    0.478394 (  0.544529) 

  21   S   67       0.159600    0.179964 (  1.000000) 

  22   S   68       0.046900    0.071827 (  1.000000) 

  23   P   69       9.439000    1.343737 (  0.038109) 
  23   P   70       2.002000    1.063168 (  0.209480) 
  23   P   71       0.545600    0.508232 (  0.508557) 

  24   P   72       0.151700    0.134950 (  1.000000) 

  25   P   73       0.040410    0.025826 (  1.000000) 

  26   D   74       0.550000    0.578155 (  1.000000) 

  27   D   75       0.151000    0.060203 (  1.000000) 

 H         

  28   S   76      13.010000    0.163548 (  0.019685) 
  28   S   77       1.962000    0.277418 (  0.137977) 
  28   S   78       0.444600    0.315749 (  0.478148) 

  29   S   79       0.122000    0.147123 (  1.000000) 

  30   S   80       0.029740    0.051041 (  1.000000) 

  31   P   81       0.727000    0.956881 (  1.000000) 

  32   P   82       0.141000    0.123158 (  1.000000) 

 H         

  33   S   83      13.010000    0.163548 (  0.019685) 
  33   S   84       1.962000    0.277418 (  0.137977) 
  33   S   85       0.444600    0.315749 (  0.478148) 

  34   S   86       0.122000    0.147123 (  1.000000) 

  35   S   87       0.029740    0.051041 (  1.000000) 

  36   P   88       0.727000    0.956881 (  1.000000) 

  37   P   89       0.141000    0.123158 (  1.000000) 

 H         

  38   S   90      13.010000    0.163548 (  0.019685) 
  38   S   91       1.962000    0.277418 (  0.137977) 
  38   S   92       0.444600    0.315749 (  0.478148) 

  39   S   93       0.122000    0.147123 (  1.000000) 

  40   S   94       0.029740    0.051041 (  1.000000) 

  41   P   95       0.727000    0.956881 (  1.000000) 

  42   P   96       0.141000    0.123158 (  1.000000) 

 H         

  43   S   97      13.010000    0.163548 (  0.019685) 
  43   S   98       1.962000    0.277418 (  0.137977) 
  43   S   99       0.444600    0.315749 (  0.478148) 

  44   S  100       0.122000    0.147123 (  1.000000) 

  45   S  101       0.029740    0.051041 (  1.000000) 

  46   P  102       0.727000    0.956881 (  1.000000) 

  47   P  103       0.141000    0.123158 (  1.000000) 

 H         

  48   S  104      13.010000    0.163548 (  0.019685) 
  48   S  105       1.962000    0.277418 (  0.137977) 
  48   S  106       0.444600    0.315749 (  0.478148) 

  49   S  107       0.122000    0.147123 (  1.000000) 

  50   S  108       0.029740    0.051041 (  1.000000) 

  51   P  109       0.727000    0.956881 (  1.000000) 

  52   P  110       0.141000    0.123158 (  1.000000) 

 H         

  53   S  111      13.010000    0.163548 (  0.019685) 
  53   S  112       1.962000    0.277418 (  0.137977) 
  53   S  113       0.444600    0.315749 (  0.478148) 

  54   S  114       0.122000    0.147123 (  1.000000) 

  55   S  115       0.029740    0.051041 (  1.000000) 

  56   P  116       0.727000    0.956881 (  1.000000) 

  57   P  117       0.141000    0.123158 (  1.000000) 

 H         

  58   S  118      13.010000    0.163548 (  0.019685) 
  58   S  119       1.962000    0.277418 (  0.137977) 
  58   S  120       0.444600    0.315749 (  0.478148) 

  59   S  121       0.122000    0.147123 (  1.000000) 

  60   S  122       0.029740    0.051041 (  1.000000) 

  61   P  123       0.727000    0.956881 (  1.000000) 

  62   P  124       0.141000    0.123158 (  1.000000) 

 F         

  63   S  125   14710.000000    0.686054 (  0.000721) 
  63   S  126    2207.000000    1.273776 (  0.005553) 
  63   S  127     502.800000    2.138157 (  0.028267) 
  63   S  128     142.600000    3.129135 (  0.106444) 
  63   S  129      46.470000    3.636582 (  0.286814) 
  63   S  130      16.700000    2.640279 (  0.448641) 
  63   S  131       6.356000    0.755015 (  0.264761) 
  63   S  132       1.316000    0.013421 (  0.015333) 

  64   S  133   14710.000000   -0.305764 ( -0.000165) 
  64   S  134    2207.000000   -0.584323 ( -0.001308) 
  64   S  135     502.800000   -0.956795 ( -0.006495) 
  64   S  136     142.600000   -1.528086 ( -0.026691) 
  64   S  137      46.470000   -1.819623 ( -0.073690) 
  64   S  138      16.700000   -1.957301 ( -0.170776) 
  64   S  139       6.356000   -0.623829 ( -0.112327) 
  64   S  140       1.316000    0.959401 (  0.562814) 

  65   S  141       0.389700    0.351526 (  1.000000) 

  66   S  142       0.098630    0.125434 (  1.000000) 

  67   P  143      22.670000    4.571487 (  0.044878) 
  67   P  144       4.977000    3.608377 (  0.235718) 
  67   P  145       1.347000    1.519595 (  0.508521) 

  68   P  146       0.347100    0.379759 (  1.000000) 

  69   P  147       0.085020    0.065440 (  1.000000) 

  70   D  148       1.640000    3.911886 (  1.000000) 

  71   D  149       0.464000    0.429354 (  1.000000) 

 TOTAL NUMBER OF SHELLS              =   71
 TOTAL NUMBER OF BASIS FUNCTIONS     =  163
 NUMBER OF ELECTRONS                 =   34
 CHARGE OF MOLECULE                  =    0
 STATE MULTIPLICITY                  =    1
 NUMBER OF OCCUPIED ORBITALS (ALPHA) =   17
 NUMBER OF OCCUPIED ORBITALS (BETA ) =   17
 TOTAL NUMBER OF ATOMS               =   11
 THE NUCLEAR REPULSION ENERGY IS      126.5672939897
 TOTAL NUMBER OF CONTAMINANTS DROPPED=    8


     $CONTRL OPTIONS
     ---------------
     SCFTYP=RHF          RUNTYP=ENERGY       EXETYP=RUN     
     MPLEVL=       0     LOCAL =NONE         UNITS =ANGS    
     MULT  =       1     ICHARG=       0     MAXIT =     100
     NPRINT=       7     IREST =       0     COORD =UNIQUE  
     ECP   =NONE         NORMF =       0     NORMP =       0
     ITOL  =      30     ICUT  =      13     NZVAR =       0
     NOSYM =       0     INTTYP=HONDO        GEOM  =INPUT   
     PLTORB=       F     MOLPLT=       F     RPAC  =       F
     AIMPAC=       0     FRIEND=             CITYP =NONE    
     DFTTYP=B3LYP   

     $SYSTEM OPTIONS
     ---------------
     KDIAG =       0     MEMORY=200000000     TIMLIM=  3600000.0 SEC.
     COREFL=       F     PTIME =        F     XDR   =       F
     BALTYP=NXTVAL       CBASE = E8201000     FBASE = ED7410C0

          ----------------
          PROPERTIES INPUT
          ----------------

     MOMENTS            FIELD           POTENTIAL          DENSITY
 IEMOM =       1   IEFLD =       0   IEPOT =       0   IEDEN =       0
 WHERE =COMASS     WHERE =NUCLEI     WHERE =NUCLEI     WHERE =NUCLEI  
 OUTPUT=BOTH       OUTPUT=BOTH       OUTPUT=BOTH       OUTPUT=BOTH    
 IEMINT=       0   IEFINT=       0                     IEDINT=       0
                                                       MORB  =       0


          ----------------   ------------------------------------
          DFT CODE OPTIONS   PROGRAM WRITTEN BY ALEX A. GRANOVSKY
          ----------------   ------------------------------------
          NRAD   =   63      LMAX   =  29 ( 302 POINTS PER SHELL)
          ANGPRN =    T      RADPRN =   T
          KAP    =   5.000   LMIN   =   7 (  26 POINTS PER SHELL)
          CUTOFF = 1.0E-10   CUTAO  = 1.0E-10
          CUTWGT = 1.0E-20   CUTORB = 1.0E-15
          CUTGG1 = 1.0E-13   CUTGG2 = 1.0E-13
          CUTGG3 = 1.0E-13   CUTGG4 = 1.0E-30
          B3LYP  =  NWCHEM   O3LYP  = DEFAULT 
          HFX    =  2.0000000000000000000E-01
          CPT2   =  0.0000000000000000000E+00
          SCS(S) =  1.0000000000000000000E+00
          SCS(T) =  1.0000000000000000000E+00



          EXTRAPOLATION IN EFFECT
          DAMPING IN EFFECT
          LEVEL SHIFTING IN EFFECT
          DIIS IN EFFECT

          ----------------------
          INTEGRAL INPUT OPTIONS
          ----------------------
 NOPK  =       1 NORDER=       0 SCHWRZ=       T

 ATTENTION! AO INTEGRALS WILL BE PACKED.
 THRESHOLD FOR PACKING PKTHR =  0.10000000D-05

     -------------------------------
     INTEGRAL TRANSFORMATION OPTIONS
     -------------------------------
     NWORD  =       0     CUTTRF = 1.0E-09
     MPTRAN =       0     DIRTRF =       T
     AOINTS =DUP          IREST  =       0

     ------------------------------------------
     THE POINT GROUP IS C1 , NAXIS= 0, ORDER= 1
     ------------------------------------------

     DIMENSIONS OF THE SYMMETRY SUBSPACES ARE
 A   = 163

 ..... DONE SETTING UP THE RUN .....

                         TIMING STATISTICS ON RANK 0:
 CPU        TIME:   STEP =      0.13 ,  TOTAL =        0.6 SECONDS (    0.0 MIN)
 WALL CLOCK TIME:   STEP =      1.13 ,  TOTAL =        1.1 SECONDS (    0.0 MIN)
 CPU UTILIZATION:   STEP =     11.50%,  TOTAL =      56.63%

          ********************
          1 ELECTRON INTEGRALS
          ********************
 ...... END OF ONE-ELECTRON INTEGRALS ......

                         TIMING STATISTICS ON RANK 0:
 CPU        TIME:   STEP =      0.01 ,  TOTAL =        0.7 SECONDS (    0.0 MIN)
 WALL CLOCK TIME:   STEP =      0.03 ,  TOTAL =        1.2 SECONDS (    0.0 MIN)
 CPU UTILIZATION:   STEP =     32.61%,  TOTAL =      55.99%

          -------------
          GUESS OPTIONS
          -------------
          GUESS =HUCKEL            NORB  =       0          NORDER=       0
          MIX   =       F          PRTMO =       F          SYMDEN=       F
          TOLZ  = 0.0E+00          TOLE  = 0.0E+00

 INITIAL GUESS ORBITALS GENERATED BY HUCKEL   ROUTINE.
 HUCKEL GUESS REQUIRES    200083 WORDS.

 LOG10 OF CONDITION NUMBER OF OVERLAP MATRIX IS:  5.42256939E+00

                    * * * WARNING * * *
 ------------------------------------------------------------------------------
 THE OVERLAP MATRIX HAS    2 EIGENVALUES BELOW 1.4E-04.
 THE SMALLEST OF THESE IS 5.16703E-05.
 THIS INDICATES A PARTIAL LINEAR DEPENDENCE IN YOUR ATOMIC BASIS.

 TO OBTAIN SCF CONVERGENCE MAY REQUIRE
 MORE ACCURATE INTEGRAL EVALUATION (INTTYP=HONDO, ICUT=11, ITOL=30 IN $CONTRL),
 MORE ACCURATE DIRECT SCF FOCK MATRIX FORMATION (FDIFF=.FALSE. IN $SCF), OR
 CHANGING CONVERGERS (DIIS=.T. SOSCF=.F. IN $SCF).

 EIGENVALUES BELOW 1.0D-07 PROBABLY WON'T CONVERGE.
 EIGENVALUES BETWEEN 1.0D-07 AND 1.0D-06 MAY REQUIRE
 TIGHTENING OF -NCONV- DENSITY CONVERGENCE IN $SCF.

 THE OVERALL DEGREES OF AOS LINEAR INDEPENDENCE ARE: 
   0.6942       -    F  11 YZ,   SHELL  70,   AO  157
   0.6828       -    F  11 XY,   SHELL  70,   AO  155
   0.6805       -    F  11  Y,   SHELL  67,   AO  144
   0.6687       -    F  11 XZ,   SHELL  70,   AO  156
   0.6560       -    F  11  Z,   SHELL  67,   AO  145
   0.6352       -    F  11  X,   SHELL  67,   AO  143
   0.6070       -    F  11 YY,   SHELL  70,   AO  153
   0.6007       -    F  11 ZZ,   SHELL  70,   AO  154
   0.5911       -    F  11 XX,   SHELL  70,   AO  152
   0.5105       -    F  11  S,   SHELL  63,   AO  139
   0.5021       -    F  11 YZ,   SHELL  71,   AO  163
   0.4891       -    H   7  X,   SHELL  46,   AO  106
   0.4744       -    H   6  X,   SHELL  41,   AO   97
   0.4680       -    H   5  Y,   SHELL  36,   AO   89
   0.4556       -    H   9  X,   SHELL  56,   AO  124
   0.4533       -    H  10  Z,   SHELL  61,   AO  135
   0.4388       -    F  11 XY,   SHELL  71,   AO  161
   0.4351       -    F  11 YY,   SHELL  71,   AO  159
   0.4321       -    H   6  Z,   SHELL  41,   AO   99
   0.4294       -    H   4  Y,   SHELL  31,   AO   80
   0.4284       -    H  10  X,   SHELL  61,   AO  133
   0.4240       -    H   7  Z,   SHELL  46,   AO  108
   0.3862       -    C   2 XY,   SHELL  17,   AO   42
   0.3859       -    F  11 ZZ,   SHELL  71,   AO  160
   0.3837       -    H   8  Y,   SHELL  51,   AO  116
   0.3811       -    H   9  Y,   SHELL  56,   AO  125
   0.3803       -    H   5  Z,   SHELL  36,   AO   90
   0.3789       -    C   2  X,   SHELL  14,   AO   30
   0.3650       -    F  11 XZ,   SHELL  71,   AO  162
   0.3479       -    C   1 XY,   SHELL   8,   AO   17
   0.3473       -    H  10  Y,   SHELL  61,   AO  134
   0.3461       -    F  11 XX,   SHELL  71,   AO  158
   0.3448       -    H   4  Z,   SHELL  31,   AO   81
   0.3373       -    C   3  Y,   SHELL  23,   AO   56
   0.3345       -    H   4  X,   SHELL  31,   AO   79
   0.3259       -    H   8  Z,   SHELL  51,   AO  117
   0.3181       -    C   2  Z,   SHELL  14,   AO   32
   0.3153       -    C   2 XZ,   SHELL  17,   AO   43
   0.3134       -    C   2 XX,   SHELL  17,   AO   39
   0.3085       -    C   1  Z,   SHELL   5,   AO    7
   0.3039       -    H   9  Z,   SHELL  56,   AO  126
   0.2974       -    C   2  Y,   SHELL  14,   AO   31
   0.2947       -    C   1 YZ,   SHELL   8,   AO   19
   0.2919       -    C   1 ZZ,   SHELL   8,   AO   16
   0.2910       -    C   2 YZ,   SHELL  17,   AO   44
   0.2905       -    H   5  X,   SHELL  36,   AO   88
   0.2883       -    C   3  Z,   SHELL  23,   AO   57
   0.2880       -    C   1  Y,   SHELL   5,   AO    6
   0.2854       -    C   3 YY,   SHELL  26,   AO   65
   0.2828       -    C   2 ZZ,   SHELL  17,   AO   41
   0.2803       -    C   3 YZ,   SHELL  26,   AO   69
   0.2717       -    H   6  Y,   SHELL  41,   AO   98
   0.2706       -    C   3 XY,   SHELL  26,   AO   67
   0.2654       -    C   1  X,   SHELL   5,   AO    5
   0.2574       -    C   3 ZZ,   SHELL  26,   AO   66
   0.2543       -    C   1 XX,   SHELL   8,   AO   14
   0.2446       -    H   7  Y,   SHELL  46,   AO  107
   0.2400       -    F  11  Y,   SHELL  68,   AO  147
   0.2377       -    C   3 XZ,   SHELL  26,   AO   68
   0.2312       -    C   1 XZ,   SHELL   8,   AO   18
   0.2280       -    C   2 YY,   SHELL  17,   AO   40
   0.2196       -    C   1 YY,   SHELL   8,   AO   15
   0.2099       -    F  11  S,   SHELL  64,   AO  140
   0.2012       -    H   8  X,   SHELL  51,   AO  115
   0.1987       -    C   3 XX,   SHELL  26,   AO   64
   0.1969       -    C   3  X,   SHELL  23,   AO   55
   0.1694       -    C   1  S,   SHELL   1,   AO    1
   0.1637       -    F  11  Z,   SHELL  68,   AO  148
   0.1527       -    C   3  S,   SHELL  19,   AO   51
   0.1326       -    C   2  S,   SHELL  10,   AO   26
   0.1209       -    H  10  S,   SHELL  58,   AO  130
   0.1192       -    F  11  X,   SHELL  68,   AO  146
   0.1078       -    H   9  S,   SHELL  53,   AO  121
   0.1040       -    H   6  S,   SHELL  38,   AO   94
   0.1029       -    H   4  S,   SHELL  28,   AO   76
   0.1025       -    H   5  S,   SHELL  33,   AO   85
   0.1013       -    H   7  S,   SHELL  43,   AO  103
   0.1013       -    F  11  Y,   SHELL  69,   AO  150
   0.7359E-01   -    F  11  Z,   SHELL  69,   AO  151
   0.6484E-01   -    H   8  S,   SHELL  48,   AO  112
   0.5778E-01   -    C   1  S,   SHELL   2,   AO    2
   0.5165E-01   -    C   3  S,   SHELL  20,   AO   52
   0.4600E-01   -    F  11  S,   SHELL  65,   AO  141
   0.4565E-01   -    C   2  S,   SHELL  11,   AO   27
   0.4434E-01   -    F  11  X,   SHELL  69,   AO  149
   0.3345E-01   -    H   5  Y,   SHELL  37,   AO   92
   0.3240E-01   -    H   6  X,   SHELL  42,   AO  100
   0.2863E-01   -    H   9  X,   SHELL  57,   AO  127
   0.2352E-01   -    H   7  X,   SHELL  47,   AO  109
   0.2042E-01   -    H   4  Y,   SHELL  32,   AO   83
   0.1928E-01   -    H   6  Z,   SHELL  42,   AO  102
   0.1920E-01   -    H   8  Y,   SHELL  52,   AO  119
   0.1889E-01   -    C   3 YZ,   SHELL  27,   AO   75
   0.1809E-01   -    H   5  Z,   SHELL  37,   AO   93
   0.1775E-01   -    H   7  Z,   SHELL  47,   AO  111
   0.1710E-01   -    H  10  X,   SHELL  62,   AO  136
   0.1681E-01   -    C   3 YY,   SHELL  27,   AO   71
   0.1644E-01   -    H  10  Z,   SHELL  62,   AO  138
   0.1587E-01   -    C   1 XX,   SHELL   9,   AO   20
   0.1483E-01   -    C   1 XY,   SHELL   9,   AO   23
   0.1282E-01   -    C   1 XZ,   SHELL   9,   AO   24
   0.1277E-01   -    C   1 YY,   SHELL   9,   AO   21
   0.1193E-01   -    H   9  Y,   SHELL  57,   AO  128
   0.1155E-01   -    C   3 XY,   SHELL  27,   AO   73
   0.1140E-01   -    H   8  Z,   SHELL  52,   AO  120
   0.1100E-01   -    H   4  Z,   SHELL  32,   AO   84
   0.1078E-01   -    C   2 XX,   SHELL  18,   AO   45
   0.1054E-01   -    C   3  Y,   SHELL  25,   AO   62
   0.9524E-02   -    H   4  X,   SHELL  32,   AO   82
   0.9013E-02   -    H   9  Z,   SHELL  57,   AO  129
   0.8648E-02   -    C   1 ZZ,   SHELL   9,   AO   22
   0.8497E-02   -    C   3 XX,   SHELL  27,   AO   70
   0.8387E-02   -    C   3 ZZ,   SHELL  27,   AO   72
   0.8220E-02   -    C   1 YZ,   SHELL   9,   AO   25
   0.7801E-02   -    C   1  X,   SHELL   7,   AO   11
   0.7636E-02   -    C   2 XY,   SHELL  18,   AO   48
   0.7192E-02   -    H   5  X,   SHELL  37,   AO   91
   0.6921E-02   -    C   3 XZ,   SHELL  27,   AO   74
   0.6015E-02   -    C   2 XZ,   SHELL  18,   AO   49
   0.5896E-02   -    H   6  Y,   SHELL  42,   AO  101
   0.5355E-02   -    H  10  Y,   SHELL  62,   AO  137
   0.5259E-02   -    C   1  Y,   SHELL   7,   AO   12
   0.5170E-02   -    H   7  Y,   SHELL  47,   AO  110
   0.5161E-02   -    H  10  S,   SHELL  60,   AO  132
   0.5143E-02   -    H   8  X,   SHELL  52,   AO  118
   0.5090E-02   -    F  11  S,   SHELL  66,   AO  142
   0.5078E-02   -    H   5  S,   SHELL  35,   AO   87
   0.4506E-02   -    H   9  S,   SHELL  55,   AO  123
   0.4294E-02   -    C   2 YY,   SHELL  18,   AO   46
   0.4255E-02   -    H   6  S,   SHELL  40,   AO   96
   0.4209E-02   -    C   2 ZZ,   SHELL  18,   AO   47
   0.4122E-02   -    H   4  S,   SHELL  30,   AO   78
   0.3851E-02   -    C   3  Z,   SHELL  25,   AO   63
   0.3692E-02   -    C   2  X,   SHELL  16,   AO   36
   0.3242E-02   -    C   1  Z,   SHELL   7,   AO   13
   0.3106E-02   -    C   3  X,   SHELL  25,   AO   61
   0.3035E-02   -    H   7  S,   SHELL  45,   AO  105
   0.3026E-02   -    C   2 YZ,   SHELL  18,   AO   50
   0.2968E-02   -    H   8  S,   SHELL  50,   AO  114
   0.2606E-02   -    C   1  X,   SHELL   6,   AO    8
   0.1987E-02   -    C   3  Y,   SHELL  24,   AO   59
   0.1588E-02   -    C   2  Z,   SHELL  16,   AO   38
   0.1358E-02   -    C   2  Y,   SHELL  16,   AO   37
   0.1083E-02   -    C   1  Y,   SHELL   6,   AO    9
   0.9141E-03   -    C   2  Y,   SHELL  15,   AO   34
   0.9020E-03   -    C   2  X,   SHELL  15,   AO   33
   0.7673E-03   -    C   3  Z,   SHELL  24,   AO   60
   0.6892E-03   -    H   5  S,   SHELL  34,   AO   86
   0.6740E-03   -    C   3  X,   SHELL  24,   AO   58
   0.6282E-03   -    H   6  S,   SHELL  39,   AO   95
   0.6187E-03   -    H   9  S,   SHELL  54,   AO  122
   0.6037E-03   -    H   4  S,   SHELL  29,   AO   77
   0.5913E-03   -    H  10  S,   SHELL  59,   AO  131
   0.5877E-03   -    C   1  Z,   SHELL   6,   AO   10
   0.4661E-03   -    C   1  S,   SHELL   3,   AO    3
   0.4420E-03   -    H   8  S,   SHELL  49,   AO  113
   0.4036E-03   -    H   7  S,   SHELL  44,   AO  104
   0.3788E-03   -    C   2  S,   SHELL  12,   AO   28
   0.3638E-03   -    C   3  S,   SHELL  21,   AO   53
   0.3059E-03   -    C   2  Z,   SHELL  15,   AO   35
   0.2269E-03   -    C   1  S,   SHELL   4,   AO    4
   0.2033E-03   -    C   3  S,   SHELL  22,   AO   54
   0.8582E-04   -    C   2  S,   SHELL  13,   AO   29

 YOU MAY CONSIDER DROPPING ONE OR MORE AOS, STARTING FROM THE END OF THIS LIST.
 ------------------------------------------------------------------------------

 SYMMETRIES FOR INITIAL GUESS ORBITALS FOLLOW.   BOTH SET(S).
    17 ORBITALS ARE OCCUPIED (    4 CORE ORBITALS).
     5=A        6=A        7=A        8=A        9=A       10=A       11=A   
    12=A       13=A       14=A       15=A       16=A       17=A       18=A   
    19=A       20=A       21=A       22=A       23=A       24=A       25=A   
    26=A       27=A   
 ...... END OF INITIAL ORBITAL SELECTION ......

                         TIMING STATISTICS ON RANK 0:
 CPU        TIME:   STEP =      0.05 ,  TOTAL =        0.7 SECONDS (    0.0 MIN)
 WALL CLOCK TIME:   STEP =      0.43 ,  TOTAL =        1.6 SECONDS (    0.0 MIN)
 CPU UTILIZATION:   STEP =     11.55%,  TOTAL =      43.92%

          --------------------
          2 ELECTRON INTEGRALS
          --------------------

 DIRECT SCF METHOD SKIPS INTEGRAL STORAGE ON DISK.
 DIRECT TRANSFORMATION SKIPS AO INTEGRAL STORAGE ON DISK.
 SCHWARZ INEQUALITY OVERHEAD:     13366 INTEGRALS, CPU TIME=        0.00
 ...... END OF TWO-ELECTRON INTEGRALS .....

                         TIMING STATISTICS ON RANK 0:
 CPU        TIME:   STEP =      0.00 ,  TOTAL =        0.7 SECONDS (    0.0 MIN)
 WALL CLOCK TIME:   STEP =      0.01 ,  TOTAL =        1.6 SECONDS (    0.0 MIN)
 CPU UTILIZATION:   STEP =      0.00%,  TOTAL =      43.59%

          --------------------------
          R-B3LYP    SCF CALCULATION
          --------------------------

     NUCLEAR ENERGY =       126.5672939897
     MAXIT =  100     NPUNCH=    2
     EXTRAP=T  DAMP=T  SHIFT=T  RSTRCT=F  DIIS=T  DEM=F  SOSCF=F
     DENSITY CONV=  2.00E-05
     MEMORY REQUIRED FOR SCF STEP=    912929 WORDS.

 XC FUNCTIONAL: SLATER + BECKE 88 + HF EXCHANGE, LYP 88 + VWN 1 RPA CORRELATION 


 DIRECT SCF CALCULATION, SCHWRZ=T   FDIFF=F
 SCHWARZ INEQUALITY OVERHEAD:     13366 INTEGRALS, CPU TIME=        0.00

                                                                              NONZERO    BLOCKS
 ITER EX DEM  TOTAL ENERGY      E CHANGE  DENSITY CHANGE    DIIS ERROR      INTEGRALS   SKIPPED
          * * *   INITIATING DIIS PROCEDURE   * * *
   1  0  0  -217.699726198  -217.699726198   1.465212346   0.329874677       91814514      6964
   2  1  0  -216.739099652     0.960626546   0.455309298   0.306862203       91829637      7066
   3  2  0  -218.281609716    -1.542510064   0.118525354   0.035889008       91824803      7148
   4  3  0  -218.283678963    -0.002069246   0.050186052   0.041196223       91823065      7130
   5  4  0  -218.304931491    -0.021252529   0.010894920   0.005152119       91823363      7129
   6  5  0  -218.305355871    -0.000424380   0.003131518   0.000984338       91823114      7134
   7  6  0  -218.305363266    -0.000007395   0.001618972   0.000544485       91823306      7127
   8  7  0  -218.305369892    -0.000006626   0.000154138   0.000104409       91823249      7130
   9  8  0  -218.305370021    -0.000000129   0.000022697   0.000011670       91823249      7130
  10  9  0  -218.305370023    -0.000000002   0.000004530   0.000002680       91823249      7130
  11 10  0  -218.305370023     0.000000000   0.000001123   0.000000563       91823249      7130

          -----------------
          DENSITY CONVERGED
          -----------------
     TIME TO FORM FOCK OPERATORS =       5.27 SECONDS (       0.48 SEC/ITER)
     OF THE ABOVE TIME, DFT PART =       0.89 SECONDS (       0.08 SEC/ITER)
     FOCK TIME ON FIRST ITERATION=       0.61, LAST ITERATION=       0.28
     TIME TO SOLVE SCF EQUATIONS =       0.22 SECONDS (       0.02 SEC/ITER)

 FINAL ENERGY IS     -218.3053700230 AFTER  11 ITERATIONS
 DFT EXCHANGE + CORRELATION ENERGY IS      -23.7529810073
 INTEGRATED TOTAL ELECTRON NUMBER  IS       34.0000529977


          ------------
          EIGENVECTORS
          ------------

                      1          2          3          4          5
                  -24.6249   -10.2953   -10.1999   -10.1821    -1.0627
                     A          A          A          A          A   
    1  C   1  S  -0.000019   0.000419  -1.010928   0.000206  -0.001577
    2  C   1  S  -0.000067  -0.001289  -0.024559  -0.000866   0.011715
    3  C   1  S  -0.008908   0.017801   0.086560   0.007753  -0.020274
    4  C   1  S  -0.010990   0.011113   0.020115   0.008547   0.001916
    5  C   1  X  -0.000088   0.000000   0.000156   0.000067   0.001879
    6  C   1  Y  -0.000083  -0.000105   0.000137  -0.000139   0.002913
    7  C   1  Z   0.000214   0.000287  -0.000546   0.000341  -0.007443
    8  C   1  X   0.004154  -0.002927   0.001376   0.000912   0.019227
    9  C   1  Y  -0.000524   0.013122   0.014930   0.003956  -0.001607
   10  C   1  Z   0.004127  -0.019481  -0.022540  -0.007860   0.007785
   11  C   1  X   0.000380   0.000046   0.000130  -0.001134   0.002475
   12  C   1  Y  -0.000544   0.000890   0.002756   0.002589  -0.001737
   13  C   1  Z   0.003414  -0.005207  -0.002316  -0.002597   0.000520
   14  C   1 XX   0.000034   0.000456  -0.000564  -0.000071  -0.000732
   15  C   1 YY   0.000029  -0.000116  -0.000043   0.000344  -0.000592
   16  C   1 ZZ  -0.000063  -0.000339   0.000607  -0.000273   0.001324
   17  C   1 XY   0.000043  -0.000119   0.000081   0.000171   0.000346
   18  C   1 XZ  -0.000233   0.000012  -0.000024  -0.000019  -0.001407
   19  C   1 YZ   0.000048   0.000654  -0.000842  -0.000112  -0.001046
   20  C   1 XX  -0.000069  -0.003327  -0.003393  -0.001442  -0.000503
   21  C   1 YY  -0.000466  -0.000576   0.000253  -0.000826  -0.000660
   22  C   1 ZZ   0.000535   0.003903   0.003140   0.002268   0.001163
   23  C   1 XY   0.000815   0.000799  -0.000294   0.000589   0.001549
   24  C   1 XZ  -0.002996   0.000233  -0.000253   0.000399  -0.008222
   25  C   1 YZ   0.001097  -0.004643  -0.004524  -0.000504   0.001648
   26  C   2  S   0.000316   1.011421   0.001468  -0.001809  -0.003407
   27  C   2  S   0.000562   0.024672   0.000598  -0.000708   0.047766
   28  C   2  S   0.001474  -0.109503  -0.012257   0.025049   0.051675
   29  C   2  S   0.028380  -0.032825   0.006544  -0.001811  -0.024704
   30  C   2  X   0.000443   0.000300   0.000094   0.000094   0.021267
   31  C   2  Y  -0.000125   0.000224  -0.000256   0.000236  -0.012901
   32  C   2  Z  -0.000491  -0.000453   0.000013   0.000081  -0.018670
   33  C   2  X  -0.005387   0.021042  -0.011470  -0.019007  -0.027266
   34  C   2  Y   0.000932   0.020345   0.016507  -0.003223  -0.021178
   35  C   2  Z   0.011405   0.010761  -0.033693  -0.026029   0.005213
   36  C   2  X  -0.001601   0.002185  -0.002541  -0.003061   0.001076
   37  C   2  Y  -0.005250   0.009094   0.000100  -0.000031   0.010836
   38  C   2  Z  -0.001321  -0.000758  -0.006044  -0.005867   0.003916
   39  C   2 XX  -0.000239  -0.000767  -0.000206  -0.000360   0.001838
   40  C   2 YY   0.000225   0.001181  -0.000177   0.000868  -0.002248
   41  C   2 ZZ   0.000014  -0.000414   0.000384  -0.000507   0.000410
   42  C   2 XY   0.000064   0.000569  -0.000108  -0.000175  -0.002492
   43  C   2 XZ   0.000169   0.000378   0.000094  -0.000705  -0.003100
   44  C   2 YZ   0.000014   0.000389  -0.000611  -0.000074   0.001977
   45  C   2 XX   0.000593   0.001977   0.005100   0.003103   0.003270
   46  C   2 YY   0.002259   0.004198  -0.001673  -0.004563   0.000357
   47  C   2 ZZ  -0.002852  -0.006175  -0.003427   0.001460  -0.003627
   48  C   2 XY   0.005160  -0.003299   0.001566   0.001128   0.017290
   49  C   2 XZ  -0.000735  -0.008734   0.004216   0.006187   0.006559
   50  C   2 YZ  -0.004696  -0.000088   0.006702   0.001995  -0.011374
   51  C   3  S  -0.000081   0.000616   0.001282   1.011592  -0.002155
   52  C   3  S  -0.000105  -0.001430   0.001053   0.025868   0.018747
   53  C   3  S   0.003858   0.035538  -0.016010  -0.090022  -0.010371
   54  C   3  S  -0.010269   0.004940  -0.010360  -0.023902   0.024083
   55  C   3  X  -0.000089  -0.000184   0.000184  -0.001212   0.011978
   56  C   3  Y  -0.000019   0.000021   0.000034  -0.000025  -0.000846
   57  C   3  Z   0.000106  -0.000130   0.000233   0.000619   0.005128
   58  C   3  X   0.007045   0.023321  -0.010902  -0.019751   0.006399
   59  C   3  Y   0.000286   0.007746  -0.006649  -0.004041  -0.000860
   60  C   3  Z  -0.002762   0.027321  -0.011725  -0.019002  -0.027369
   61  C   3  X  -0.001108   0.001225  -0.003233  -0.000936   0.003086
   62  C   3  Y  -0.000436  -0.000558  -0.000999  -0.000264  -0.004240
   63  C   3  Z  -0.002252   0.003009  -0.003009  -0.003836   0.003025
   64  C   3 XX   0.000476  -0.000187  -0.000136   0.001017   0.003022
   65  C   3 YY  -0.000124   0.000052   0.000017  -0.000674  -0.001497
   66  C   3 ZZ  -0.000352   0.000135   0.000119  -0.000343  -0.001525
   67  C   3 XY  -0.000044   0.000044  -0.000270  -0.000103  -0.000093
   68  C   3 XZ  -0.000066  -0.000969   0.000037  -0.001039   0.001281
   69  C   3 YZ   0.000088  -0.000401  -0.000087  -0.000686   0.000605
   70  C   3 XX   0.003390   0.003552   0.000466  -0.003132   0.006481
   71  C   3 YY  -0.000115  -0.004942   0.001541   0.002954   0.003145
   72  C   3 ZZ  -0.003274   0.001390  -0.002008   0.000178  -0.009627
   73  C   3 XY  -0.000027   0.002714  -0.001879   0.000247   0.000830
   74  C   3 XZ   0.000409   0.008692  -0.002733  -0.006445  -0.005057
   75  C   3 YZ   0.001385   0.001591  -0.000377  -0.001670   0.002869
   76  H   4  S  -0.000015  -0.000481   0.001016   0.000270   0.002699
   77  H   4  S  -0.002552   0.001359  -0.009776   0.004462   0.010356
   78  H   4  S  -0.000520   0.002353  -0.001100  -0.000748   0.001639
   79  H   4  X  -0.000036  -0.000120   0.001381   0.000054   0.000244
   80  H   4  Y   0.000046  -0.000041  -0.000764  -0.000028   0.000017
   81  H   4  Z  -0.000154   0.000318  -0.001052   0.000087  -0.000855
   82  H   4  X  -0.000696  -0.000691  -0.002483   0.000652   0.001731
   83  H   4  Y   0.000760  -0.000136   0.000107  -0.000084   0.001717
   84  H   4  Z  -0.000519   0.000864   0.003337  -0.001297  -0.006289
   85  H   5  S   0.000100  -0.000467   0.000966   0.000011   0.004499
   86  H   5  S  -0.000317   0.011879  -0.013045  -0.000062  -0.011318
   87  H   5  S  -0.001297   0.001709  -0.000769   0.002392  -0.002303
   88  H   5  X  -0.000133   0.000102  -0.001627  -0.000058  -0.000893
   89  H   5  Y  -0.000055  -0.000156  -0.000256  -0.000142  -0.000149
   90  H   5  Z   0.000112   0.000252  -0.000724   0.000050  -0.000162
   91  H   5  X   0.000018  -0.002546   0.004148   0.000668   0.003205
   92  H   5  Y  -0.000502   0.000125  -0.000813  -0.000773  -0.001319
   93  H   5  Z   0.000537  -0.002100   0.003878  -0.000217   0.004494
   94  H   6  S  -0.000004  -0.000483   0.000701  -0.000314   0.004162
   95  H   6  S   0.002902   0.007358  -0.010812   0.001983   0.008893
   96  H   6  S   0.000446   0.000139   0.000308   0.001050   0.001200
   97  H   6  X  -0.000088   0.000064   0.000267   0.000065  -0.000173
   98  H   6  Y   0.000000  -0.000169   0.001685  -0.000218   0.000733
   99  H   6  Z   0.000149   0.000273   0.000537   0.000129   0.000485
  100  H   6  X  -0.000241   0.000674  -0.001018   0.000582  -0.001337
  101  H   6  Y   0.001189   0.001626  -0.004542   0.000289   0.003127
  102  H   6  Z   0.000572   0.000230   0.000485   0.001209  -0.000152
  103  H   7  S  -0.000649  -0.001382   0.000425  -0.000706   0.012235
  104  H   7  S  -0.006052   0.005816  -0.010059   0.012752   0.012738
  105  H   7  S   0.002219  -0.003744   0.000423   0.001478  -0.005262
  106  H   7  X   0.000016   0.000235   0.000082   0.000247   0.000199
  107  H   7  Y   0.000043   0.001666  -0.000233   0.000284  -0.002440
  108  H   7  Z   0.000007   0.000282   0.000302   0.000349  -0.000839
  109  H   7  X  -0.001361   0.000371   0.000301  -0.000694  -0.007596
  110  H   7  Y   0.000325  -0.004413   0.002745  -0.003210  -0.005019
  111  H   7  Z   0.001787   0.000342   0.000781   0.000233   0.004231
  112  H   8  S  -0.000256  -0.000821   0.000275  -0.003010   0.004280
  113  H   8  S   0.002478   0.005885  -0.008410   0.016214   0.010446
  114  H   8  S   0.000917   0.000033  -0.001445   0.003001  -0.000243
  115  H   8  X  -0.000069  -0.000195   0.000250  -0.002122   0.000847
  116  H   8  Y  -0.000075  -0.000004  -0.000054  -0.000264  -0.000167
  117  H   8  Z   0.000250  -0.000283   0.000181   0.000805   0.000590
  118  H   8  X   0.001407   0.000353  -0.001525   0.004448   0.006962
  119  H   8  Y  -0.000438   0.000378  -0.001000   0.002027   0.000596
  120  H   8  Z   0.000919   0.001328   0.001477  -0.001903   0.001651
  121  H   9  S   0.000117  -0.000623   0.000205  -0.000897   0.005915
  122  H   9  S   0.001938   0.012187   0.001884   0.007012  -0.009425
  123  H   9  S  -0.000956   0.001476  -0.001426  -0.001086   0.002685
  124  H   9  X  -0.000137  -0.000275   0.000152   0.000158  -0.000123
  125  H   9  Y   0.000005   0.000139   0.000117   0.001099  -0.000813
  126  H   9  Z  -0.000014  -0.000429   0.000095  -0.001238   0.001039
  127  H   9  X  -0.000636   0.000121   0.000386  -0.000384  -0.002603
  128  H   9  Y  -0.000756  -0.001237  -0.000405  -0.001439  -0.000467
  129  H   9  Z  -0.000156   0.002654   0.000735   0.003686  -0.004691
  130  H  10  S  -0.000057  -0.000023  -0.000015   0.000724   0.015550
  131  H  10  S  -0.002991   0.017543  -0.008718   0.013764  -0.019543
  132  H  10  S  -0.001799   0.001705  -0.001289   0.000128  -0.004051
  133  H  10  X   0.000213   0.000211   0.000100   0.000618   0.001985
  134  H  10  Y  -0.000052   0.000136   0.000016  -0.001045   0.001781
  135  H  10  Z   0.000245   0.000485   0.000283  -0.000096   0.001523
  136  H  10  X   0.000817  -0.002380   0.000721  -0.000522   0.003876
  137  H  10  Y  -0.000832   0.003954  -0.002359   0.004645  -0.005650
  138  H  10  Z   0.000030   0.001724  -0.000722   0.003765  -0.000663
  139  F  11  S  -1.003469  -0.000248  -0.000098  -0.000042  -0.005990
  140  F  11  S  -0.007479  -0.000427  -0.000178  -0.000090   0.488069
  141  F  11  S   0.013281   0.001088   0.000483   0.000036   0.545824
  142  F  11  S  -0.006634   0.000983  -0.000790   0.001363   0.061969
  143  F  11  X   0.000479   0.000053   0.000020   0.000107  -0.020052
  144  F  11  Y  -0.000174   0.000024   0.000011  -0.000019   0.007200
  145  F  11  Z  -0.000328  -0.000020  -0.000036   0.000003   0.012038
  146  F  11  X  -0.002181  -0.001481  -0.000241  -0.000235  -0.025697
  147  F  11  Y   0.000536   0.000318  -0.000131   0.000055   0.007614
  148  F  11  Z   0.001270   0.000801   0.000469   0.000115   0.014109
  149  F  11  X   0.001372   0.000645  -0.000169  -0.000181  -0.003485
  150  F  11  Y  -0.000387  -0.000969  -0.000262   0.000152   0.000301
  151  F  11  Z  -0.000677  -0.000490  -0.000130   0.000756   0.002241
  152  F  11 XX  -0.000058  -0.000025  -0.000010  -0.000129   0.000608
  153  F  11 YY   0.000033   0.000010   0.000007   0.000071  -0.000583
  154  F  11 ZZ   0.000025   0.000016   0.000003   0.000058  -0.000025
  155  F  11 XY   0.000045  -0.000053  -0.000012   0.000012  -0.001167
  156  F  11 XZ   0.000106   0.000003   0.000009  -0.000036  -0.001672
  157  F  11 YZ  -0.000021   0.000080  -0.000026   0.000013   0.000979
  158  F  11 XX   0.000360   0.000493   0.000017   0.000421   0.004428
  159  F  11 YY  -0.000233  -0.000343  -0.000110  -0.000245  -0.003224
  160  F  11 ZZ  -0.000127  -0.000150   0.000093  -0.000176  -0.001204
  161  F  11 XY  -0.000223  -0.000154   0.000063   0.000003  -0.003363
  162  F  11 XZ  -0.000510  -0.000576  -0.000183   0.000129  -0.005805
  163  F  11 YZ   0.000104  -0.000073   0.000076  -0.000061   0.002824

                      6          7          8          9         10
                   -0.8349    -0.7372    -0.6163    -0.5081    -0.4854
                     A          A          A          A          A   
    1  C   1  S   0.014344  -0.015113   0.005397  -0.001327   0.000037
    2  C   1  S  -0.201593   0.295849  -0.143611  -0.000170  -0.030760
    3  C   1  S  -0.020764   0.029274  -0.041565  -0.054213   0.165171
    4  C   1  S  -0.039004   0.040081   0.091559   0.129505   0.080892
    5  C   1  X   0.011275   0.006364   0.021738  -0.001770  -0.131565
    6  C   1  Y  -0.035532   0.010114   0.108409   0.133520   0.061310
    7  C   1  Z   0.051107   0.016411  -0.105543   0.142291  -0.203244
    8  C   1  X  -0.015554  -0.018130   0.000522   0.016024   0.041560
    9  C   1  Y  -0.025202   0.003340  -0.035678  -0.050641   0.047422
   10  C   1  Z   0.017642  -0.020693   0.060267   0.025191  -0.080616
   11  C   1  X   0.002878   0.003728   0.008806  -0.004421  -0.011147
   12  C   1  Y  -0.019338   0.007079   0.006754   0.016772   0.001528
   13  C   1  Z   0.012035  -0.024411   0.002098  -0.040896  -0.024515
   14  C   1 XX   0.005938  -0.000011  -0.005836   0.005283  -0.008049
   15  C   1 YY   0.000458   0.000774   0.002910   0.002261   0.001794
   16  C   1 ZZ  -0.006396  -0.000762   0.002925  -0.007544   0.006254
   17  C   1 XY   0.001306   0.000849   0.000821  -0.002380  -0.002875
   18  C   1 XZ  -0.000498  -0.001059  -0.000416  -0.002853  -0.001649
   19  C   1 YZ   0.008968  -0.002027  -0.012241  -0.002186  -0.006894
   20  C   1 XX   0.008291  -0.006629   0.002708  -0.020656   0.030502
   21  C   1 YY  -0.002922   0.006402   0.004266   0.016519  -0.007412
   22  C   1 ZZ  -0.005369   0.000227  -0.006974   0.004137  -0.023091
   23  C   1 XY  -0.003872  -0.001036  -0.001460   0.007978   0.029252
   24  C   1 XZ  -0.002660   0.005996   0.011101  -0.003994  -0.023744
   25  C   1 YZ   0.001981  -0.010037   0.036655   0.024002  -0.012352
   26  C   2  S   0.018408  -0.000118  -0.001170  -0.001851   0.000657
   27  C   2  S  -0.282437   0.004162   0.286710  -0.043256   0.050440
   28  C   2  S  -0.255704  -0.029285   0.231544  -0.150803   0.129547
   29  C   2  S   0.056114   0.033141  -0.219690  -0.188790  -0.061272
   30  C   2  X   0.066359   0.073821   0.048473   0.039911  -0.109613
   31  C   2  Y   0.031629  -0.032635   0.149347   0.270360  -0.167964
   32  C   2  Z  -0.004969   0.163746   0.021757   0.147646   0.147327
   33  C   2  X   0.087479   0.075744  -0.022246  -0.043119  -0.133696
   34  C   2  Y   0.090278  -0.021311  -0.116692   0.047369  -0.040823
   35  C   2  Z   0.041390   0.109516   0.006511   0.088110  -0.003906
   36  C   2  X   0.005703  -0.007159   0.023571  -0.026565   0.002784
   37  C   2  Y   0.021773   0.007816   0.006271  -0.015504   0.036796
   38  C   2  Z   0.010861  -0.010445  -0.002079  -0.026224   0.011159
   39  C   2 XX   0.003065  -0.010760  -0.005591   0.006027   0.012774
   40  C   2 YY   0.004629   0.004888   0.009797   0.000953  -0.002133
   41  C   2 ZZ  -0.007694   0.005872  -0.004206  -0.006980  -0.010640
   42  C   2 XY  -0.004295  -0.003115  -0.000204  -0.001520   0.006496
   43  C   2 XZ  -0.011181  -0.012452  -0.003452  -0.000960  -0.004844
   44  C   2 YZ   0.004354  -0.015441   0.004318  -0.001672  -0.004648
   45  C   2 XX  -0.013502  -0.022417   0.016969   0.033427   0.023708
   46  C   2 YY   0.041605   0.019367  -0.074708  -0.107150   0.030556
   47  C   2 ZZ  -0.028103   0.003050   0.057739   0.073723  -0.054263
   48  C   2 XY  -0.006161  -0.011285  -0.035770  -0.020464   0.062375
   49  C   2 XZ  -0.014828  -0.015035   0.015618   0.012269  -0.034530
   50  C   2 YZ   0.008109  -0.006662  -0.020926  -0.046241   0.059992
   51  C   3  S   0.018166   0.017705   0.008795  -0.003635   0.001216
   52  C   3  S  -0.229281  -0.260563  -0.154816   0.023246  -0.036847
   53  C   3  S   0.031361   0.048972   0.044896  -0.237271  -0.204486
   54  C   3  S  -0.003235  -0.028054   0.161074  -0.138684  -0.036436
   55  C   3  X  -0.034772   0.013249   0.148384  -0.303852  -0.194279
   56  C   3  Y  -0.007760  -0.009347   0.055144   0.112520  -0.112635
   57  C   3  Z  -0.067854  -0.009618   0.061017  -0.021953   0.268757
   58  C   3  X  -0.007930  -0.031199  -0.131656   0.060624   0.071377
   59  C   3  Y   0.003550   0.007405   0.005282   0.013242   0.050060
   60  C   3  Z   0.050519   0.048855   0.022488  -0.066260  -0.105316
   61  C   3  X  -0.015930  -0.030373  -0.011936   0.026545   0.047806
   62  C   3  Y  -0.007624  -0.009532   0.006229   0.024844   0.015950
   63  C   3  Z   0.008080   0.001167   0.030884  -0.053032  -0.052114
   64  C   3 XX  -0.002445  -0.003432  -0.002434   0.000185   0.006845
   65  C   3 YY   0.005584   0.001174  -0.001047  -0.000611  -0.008546
   66  C   3 ZZ  -0.003139   0.002258   0.003481   0.000426   0.001701
   67  C   3 XY  -0.002206  -0.002630   0.005250   0.010612  -0.001311
   68  C   3 XZ  -0.009230   0.000693   0.012834  -0.012700  -0.002980
   69  C   3 YZ  -0.003958  -0.001426   0.005909   0.001324   0.004571
   70  C   3 XX   0.025626   0.009696   0.001933  -0.020135  -0.050512
   71  C   3 YY  -0.029024  -0.017779  -0.001508   0.025799   0.039229
   72  C   3 ZZ   0.003398   0.008083  -0.000425  -0.005663   0.011283
   73  C   3 XY   0.003226   0.006350   0.005139  -0.059160   0.013214
   74  C   3 XZ  -0.002385  -0.021712  -0.024014   0.072387   0.006225
   75  C   3 YZ   0.002151  -0.000500  -0.016714   0.006483  -0.027604
   76  H   4  S  -0.090823   0.157506  -0.115427   0.108745  -0.028955
   77  H   4  S  -0.022685   0.049417  -0.080062   0.076970  -0.012315
   78  H   4  S   0.006994   0.015539   0.004164   0.003238  -0.008731
   79  H   4  X  -0.007941   0.014753  -0.008282   0.005691  -0.007163
   80  H   4  Y   0.003832  -0.006074   0.006617   0.001443   0.004117
   81  H   4  Z   0.008231  -0.011300   0.004594  -0.001078  -0.004254
   82  H   4  X  -0.005893   0.012732  -0.022368   0.007544   0.002909
   83  H   4  Y   0.006633  -0.012080   0.000295  -0.007389   0.011033
   84  H   4  Z   0.001805  -0.005889   0.009369  -0.009701   0.005567
   85  H   5  S  -0.078382   0.154791  -0.096399   0.061760  -0.188263
   86  H   5  S   0.015366   0.066863  -0.112037   0.008610  -0.109027
   87  H   5  S  -0.003671   0.004159  -0.022855   0.012058   0.010120
   88  H   5  X   0.010191  -0.017166   0.010937  -0.004555   0.008608
   89  H   5  Y   0.000593  -0.001530   0.003733   0.003702   0.001985
   90  H   5  Z   0.006559  -0.008250   0.001797   0.002957   0.002661
   91  H   5  X  -0.003788  -0.022938   0.034322   0.004222   0.003208
   92  H   5  Y   0.006047  -0.002821  -0.003509  -0.004869  -0.006179
   93  H   5  Z  -0.005135  -0.009802   0.011710   0.011574   0.017927
   94  H   6  S  -0.080814   0.137262  -0.139670  -0.122014  -0.017650
   95  H   6  S  -0.046235   0.001563  -0.066498  -0.110994  -0.044524
   96  H   6  S  -0.011850   0.000207  -0.002452  -0.001697   0.001960
   97  H   6  X  -0.001519   0.003157  -0.001686  -0.002155  -0.004763
   98  H   6  Y  -0.012053   0.017638  -0.010912  -0.004933  -0.001892
   99  H   6  Z  -0.001849   0.004117  -0.006637   0.002774  -0.007445
  100  H   6  X  -0.003984   0.000621   0.000987  -0.003258   0.002838
  101  H   6  Y  -0.019769   0.002498  -0.009787  -0.013439  -0.024308
  102  H   6  Z  -0.003620   0.004801  -0.002023  -0.000188  -0.005656
  103  H   7  S  -0.114131   0.006059   0.262603   0.201187  -0.092573
  104  H   7  S  -0.091443  -0.018822   0.342815   0.278607  -0.124609
  105  H   7  S  -0.012671  -0.010559   0.011595   0.042757  -0.023616
  106  H   7  X   0.003737   0.001016  -0.003310  -0.001588  -0.002172
  107  H   7  Y   0.012976  -0.001907  -0.018685  -0.006248   0.000786
  108  H   7  Z   0.002106   0.002643  -0.003557   0.001950   0.004655
  109  H   7  X   0.001965   0.000512  -0.008698  -0.006430  -0.008411
  110  H   7  Y   0.007568   0.001079  -0.071077  -0.030429   0.023667
  111  H   7  Z   0.001626  -0.014013  -0.021409  -0.008338  -0.005512
  112  H   8  S  -0.132443  -0.177855  -0.204182   0.247232   0.215163
  113  H   8  S  -0.090806  -0.149239  -0.336527   0.444738   0.422527
  114  H   8  S  -0.014230  -0.036807  -0.032687   0.058824   0.078215
  115  H   8  X  -0.014762  -0.018350  -0.013820   0.006834   0.007254
  116  H   8  Y  -0.001961  -0.003258  -0.000872   0.006361  -0.001308
  117  H   8  Z   0.002635   0.005257   0.007741  -0.005636   0.005370
  118  H   8  X  -0.012376  -0.030440  -0.080010   0.078181   0.069117
  119  H   8  Y  -0.004404  -0.003509  -0.004181  -0.019677   0.021860
  120  H   8  Z   0.012271  -0.002733   0.020255   0.008408  -0.020335
  121  H   9  S  -0.078277  -0.123613  -0.091515   0.065906  -0.257373
  122  H   9  S   0.039552  -0.005249  -0.056208  -0.015323  -0.294312
  123  H   9  S   0.007068   0.014372   0.002217  -0.045631  -0.049603
  124  H   9  X  -0.000444   0.001598   0.005238  -0.008469  -0.005086
  125  H   9  Y   0.008285   0.010785   0.008145  -0.000585   0.007070
  126  H   9  Z  -0.011769  -0.013810  -0.008210   0.004550  -0.007481
  127  H   9  X  -0.001066  -0.005688  -0.000186   0.024782   0.010916
  128  H   9  Y   0.003254   0.006644   0.004831   0.008733   0.030410
  129  H   9  Z   0.012451  -0.000664  -0.014689  -0.015858  -0.045504
  130  H  10  S  -0.083457  -0.097799  -0.072150  -0.166366  -0.076546
  131  H  10  S   0.048840   0.012517   0.072194  -0.054890  -0.062654
  132  H  10  S   0.012078  -0.001299   0.010694   0.003155  -0.010587
  133  H  10  X   0.005939   0.007961   0.007837  -0.005447  -0.002203
  134  H  10  Y  -0.011533  -0.013615  -0.006758  -0.006200  -0.008811
  135  H  10  Z  -0.005536  -0.004120  -0.001531  -0.007484   0.004908
  136  H  10  X  -0.007748  -0.001920   0.005117   0.019121   0.010487
  137  H  10  Y   0.006426  -0.002694   0.019524   0.003834  -0.014418
  138  H  10  Z   0.010830   0.002993   0.015623  -0.000341  -0.003793
  139  F  11  S   0.000838   0.000408  -0.000470   0.002259   0.000904
  140  F  11  S   0.077152   0.008804  -0.033689   0.043525   0.024134
  141  F  11  S   0.091951   0.008728  -0.050869   0.052145   0.032142
  142  F  11  S   0.005792  -0.009833  -0.024204   0.037430   0.029101
  143  F  11  X   0.027945   0.012332  -0.037411   0.125743   0.063865
  144  F  11  Y  -0.007598  -0.002831   0.036282   0.015893  -0.043188
  145  F  11  Z  -0.014607   0.011470   0.034928  -0.029081   0.006825
  146  F  11  X   0.015982   0.008603  -0.018014   0.079360   0.038234
  147  F  11  Y  -0.003691   0.000056   0.020543   0.006419  -0.026191
  148  F  11  Z  -0.007840   0.003968   0.019537  -0.012796   0.006882
  149  F  11  X   0.005625   0.004072   0.013117   0.005106  -0.003831
  150  F  11  Y  -0.002909   0.001904   0.000378   0.005820  -0.003645
  151  F  11  Z  -0.003284  -0.006246  -0.001153   0.007186   0.007026
  152  F  11 XX  -0.000582  -0.000710   0.000151  -0.001241  -0.000304
  153  F  11 YY   0.000399  -0.000076  -0.000315   0.000955   0.000273
  154  F  11 ZZ   0.000183   0.000786   0.000164   0.000286   0.000031
  155  F  11 XY   0.000032   0.000168  -0.000859  -0.000009   0.000775
  156  F  11 XZ   0.000368  -0.000388  -0.000741   0.001733   0.000007
  157  F  11 YZ   0.000063  -0.000098   0.000555   0.000216  -0.000134
  158  F  11 XX  -0.001908  -0.000836   0.000696  -0.008982  -0.003494
  159  F  11 YY   0.001349   0.001045   0.000606   0.004680  -0.001052
  160  F  11 ZZ   0.000559  -0.000209  -0.001302   0.004302   0.004546
  161  F  11 XY   0.001803  -0.000169  -0.003053   0.000550   0.002069
  162  F  11 XZ   0.002363   0.000241  -0.003824  -0.001327  -0.000789
  163  F  11 YZ  -0.001497   0.000720   0.002351  -0.000488  -0.001851

                     11         12         13         14         15
                   -0.4547    -0.4210    -0.3933    -0.3626    -0.3480
                     A          A          A          A          A   
    1  C   1  S  -0.001711  -0.001005  -0.001931  -0.000136   0.000180
    2  C   1  S   0.000429   0.001153   0.023556   0.033440  -0.004743
    3  C   1  S   0.186438   0.112137   0.192057   0.048837   0.034170
    4  C   1  S  -0.062099  -0.163599  -0.034059  -0.133128   0.064641
    5  C   1  X   0.363998  -0.029999  -0.201331   0.128146   0.054547
    6  C   1  Y   0.010630   0.397818  -0.036535   0.087121  -0.067630
    7  C   1  Z  -0.160168   0.041911  -0.280559  -0.103399  -0.028683
    8  C   1  X  -0.035458   0.007354   0.048939  -0.081038  -0.008778
    9  C   1  Y   0.050503   0.020672   0.135770  -0.003987   0.045935
   10  C   1  Z  -0.115217  -0.167960  -0.152331  -0.056362   0.009416
   11  C   1  X  -0.041598   0.007291   0.031175  -0.001975  -0.003686
   12  C   1  Y   0.009103  -0.039700   0.012124  -0.023651   0.030348
   13  C   1  Z   0.008736   0.026427   0.020609   0.030540  -0.011216
   14  C   1 XX  -0.000979   0.006465  -0.013687   0.001114  -0.003759
   15  C   1 YY  -0.001651  -0.016923   0.014040  -0.007498   0.012830
   16  C   1 ZZ   0.002629   0.010458  -0.000353   0.006384  -0.009071
   17  C   1 XY   0.011258  -0.007737   0.001675  -0.004041   0.003119
   18  C   1 XZ   0.010633  -0.006192  -0.011548   0.016802   0.008150
   19  C   1 YZ  -0.009056  -0.005751  -0.006159  -0.004539  -0.003552
   20  C   1 XX  -0.024721  -0.055545   0.044094  -0.013307  -0.003290
   21  C   1 YY   0.002895   0.029017  -0.045149   0.010372  -0.005331
   22  C   1 ZZ   0.021827   0.026528   0.001055   0.002935   0.008621
   23  C   1 XY  -0.042256   0.023234  -0.001867  -0.035825  -0.007107
   24  C   1 XZ  -0.059450   0.023817   0.014264   0.014743  -0.013220
   25  C   1 YZ   0.009176   0.020257  -0.042850   0.014876  -0.001410
   26  C   2  S  -0.001346  -0.000023   0.000778   0.003817  -0.000004
   27  C   2  S   0.010772  -0.012249  -0.000207   0.040119  -0.008088
   28  C   2  S   0.033909   0.104749  -0.100724  -0.011004  -0.064112
   29  C   2  S   0.187920   0.101491   0.046203   0.428846  -0.194829
   30  C   2  X   0.187795   0.035389   0.136890  -0.244003  -0.042141
   31  C   2  Y  -0.087748  -0.161217  -0.033103  -0.154962   0.176516
   32  C   2  Z   0.148699   0.150878   0.260208   0.026426   0.117788
   33  C   2  X   0.036542   0.005841  -0.005241   0.041916  -0.100909
   34  C   2  Y   0.015197   0.075489   0.023000   0.106774  -0.034676
   35  C   2  Z  -0.129430  -0.024812  -0.070247   0.124575  -0.049428
   36  C   2  X  -0.025713   0.019444   0.009120  -0.051918   0.019258
   37  C   2  Y  -0.066683  -0.027645  -0.000130  -0.048066   0.011465
   38  C   2  Z  -0.002640   0.065830  -0.006039  -0.011274  -0.002843
   39  C   2 XX   0.001182  -0.008679  -0.011635   0.000161  -0.017437
   40  C   2 YY   0.004378  -0.013272   0.009899  -0.013341   0.022722
   41  C   2 ZZ  -0.005560   0.021951   0.001736   0.013180  -0.005285
   42  C   2 XY  -0.007424   0.001800  -0.001782  -0.007358   0.011003
   43  C   2 XZ   0.009997  -0.003882  -0.014401   0.016921   0.007033
   44  C   2 YZ  -0.004070   0.007041  -0.015970  -0.018128   0.010006
   45  C   2 XX   0.013205   0.006907   0.010977  -0.033380   0.011254
   46  C   2 YY  -0.048612  -0.032241  -0.003521   0.029584  -0.034384
   47  C   2 ZZ   0.035407   0.025334  -0.007456   0.003797   0.023130
   48  C   2 XY   0.000897   0.000542   0.019965  -0.055495  -0.002714
   49  C   2 XZ   0.069424   0.015593   0.017691   0.004119   0.018819
   50  C   2 YZ   0.041668   0.072746   0.059356  -0.039725   0.035994
   51  C   3  S  -0.000476   0.000902   0.000033  -0.002331   0.001044
   52  C   3  S   0.011771   0.018097  -0.020900   0.022760  -0.001250
   53  C   3  S  -0.301891   0.014065  -0.106784   0.210177  -0.051689
   54  C   3  S  -0.164773   0.119976  -0.008453  -0.196729   0.138348
   55  C   3  X  -0.164546   0.067723  -0.071473   0.131748   0.041602
   56  C   3  Y  -0.073822  -0.141497   0.075186   0.276715  -0.214887
   57  C   3  Z  -0.063536  -0.126997  -0.313194   0.034508  -0.048003
   58  C   3  X  -0.052916  -0.095606  -0.152119   0.056254  -0.096741
   59  C   3  Y  -0.058019  -0.097292  -0.033485   0.045147  -0.065344
   60  C   3  Z  -0.120021  -0.028422  -0.040561   0.224979  -0.079492
   61  C   3  X  -0.006808   0.007259  -0.029813  -0.056589   0.010731
   62  C   3  Y   0.018905  -0.010709  -0.020222  -0.014436  -0.004868
   63  C   3  Z  -0.064118   0.026822   0.041279  -0.007563   0.015908
   64  C   3 XX   0.003953  -0.005668  -0.011508  -0.016239  -0.007181
   65  C   3 YY  -0.000123   0.003567   0.005161  -0.004523   0.010350
   66  C   3 ZZ  -0.003831   0.002101   0.006346   0.020761  -0.003169
   67  C   3 XY  -0.004346  -0.011495  -0.001677   0.001632  -0.004730
   68  C   3 XZ  -0.008019  -0.001365  -0.004829   0.011990  -0.004725
   69  C   3 YZ  -0.004652  -0.005278  -0.011909  -0.008986   0.010342
   70  C   3 XX  -0.040454  -0.006655   0.030072   0.035484  -0.029622
   71  C   3 YY   0.005399  -0.004186   0.000569  -0.044153   0.012513
   72  C   3 ZZ   0.035055   0.010841  -0.030641   0.008670   0.017109
   73  C   3 XY  -0.032801   0.013377  -0.009637  -0.036400   0.037148
   74  C   3 XZ   0.012922  -0.028383   0.012340   0.019430  -0.026868
   75  C   3 YZ  -0.020479  -0.002413   0.023455   0.029383  -0.030097
   76  H   4  S  -0.315652   0.164674  -0.021753  -0.111817  -0.091145
   77  H   4  S  -0.356085   0.305429   0.060843  -0.142736  -0.173562
   78  H   4  S  -0.043617   0.014065   0.011695  -0.011094  -0.011797
   79  H   4  X  -0.004080   0.005936  -0.008162   0.000845  -0.001232
   80  H   4  Y   0.006425   0.010926  -0.001413   0.003952  -0.001770
   81  H   4  Z   0.009752  -0.005287  -0.007420   0.001583   0.001785
   82  H   4  X  -0.049051   0.035786   0.023946  -0.015214  -0.030857
   83  H   4  Y   0.014203  -0.020460   0.004860  -0.005957   0.007466
   84  H   4  Z   0.041429  -0.053682  -0.007851   0.021631   0.023956
   85  H   5  S   0.207532   0.022433  -0.281005   0.097958   0.023171
   86  H   5  S   0.280609   0.090990  -0.358075   0.173884   0.023570
   87  H   5  S   0.032848  -0.015020  -0.041168   0.010683  -0.004376
   88  H   5  X   0.000108  -0.001399   0.009248   0.000986   0.000818
   89  H   5  Y  -0.000189   0.013559  -0.000731   0.003735  -0.003083
   90  H   5  Z  -0.011553   0.001348   0.001214  -0.006510  -0.001052
   91  H   5  X  -0.046290  -0.009353   0.058198  -0.028833  -0.000626
   92  H   5  Y  -0.002094  -0.007579   0.008019   0.011174  -0.005338
   93  H   5  Z  -0.010230  -0.020622   0.041606  -0.024857   0.001812
   94  H   6  S  -0.028274  -0.346531   0.136748  -0.072252   0.075490
   95  H   6  S  -0.016665  -0.373781   0.299671  -0.132337   0.155274
   96  H   6  S   0.009812  -0.030699   0.014431  -0.021858   0.033715
   97  H   6  X   0.010857  -0.004650  -0.006110   0.004332   0.002090
   98  H   6  Y  -0.002746  -0.011029   0.005983  -0.000635   0.000669
   99  H   6  Z  -0.005793  -0.000996  -0.007772  -0.002298  -0.002083
  100  H   6  X  -0.012490  -0.006060   0.007738  -0.009023   0.003507
  101  H   6  Y  -0.007394  -0.072128   0.064060  -0.028378   0.036058
  102  H   6  Z   0.006841  -0.000812  -0.000135   0.008517   0.002195
  103  H   7  S  -0.012163  -0.122132   0.033422  -0.169428   0.192878
  104  H   7  S   0.027623  -0.215708   0.020285  -0.304215   0.290786
  105  H   7  S   0.044556   0.008270  -0.010993   0.012552   0.003203
  106  H   7  X   0.005726   0.002986   0.003313  -0.005860  -0.004662
  107  H   7  Y  -0.000448   0.005038  -0.004113   0.004433  -0.002650
  108  H   7  Z   0.004734   0.002930   0.008068   0.003020   0.002952
  109  H   7  X  -0.009113   0.012561  -0.004193   0.028394  -0.012018
  110  H   7  Y   0.000010   0.064358  -0.010280   0.053440  -0.047668
  111  H   7  Z  -0.015057  -0.022218  -0.005378   0.015798  -0.016897
  112  H   8  S   0.134693  -0.068233  -0.057318  -0.129650  -0.035557
  113  H   8  S   0.292677  -0.218825  -0.273193  -0.218347  -0.113300
  114  H   8  S   0.021786  -0.019176  -0.032508  -0.052925  -0.010431
  115  H   8  X   0.003863  -0.000791  -0.005679  -0.001312  -0.000533
  116  H   8  Y  -0.001201  -0.005550   0.002637   0.009503  -0.008461
  117  H   8  Z  -0.006858  -0.004210  -0.009920   0.001201  -0.002451
  118  H   8  X   0.061919  -0.044762  -0.061942  -0.028546  -0.027104
  119  H   8  Y  -0.000388   0.002268  -0.014037  -0.026847   0.020519
  120  H   8  Z  -0.016473  -0.000659   0.029245   0.009409  -0.008965
  121  H   9  S   0.006085   0.034571   0.263612   0.165906  -0.087919
  122  H   9  S  -0.089281   0.081004   0.345507   0.302367  -0.157126
  123  H   9  S  -0.036205   0.028281   0.051901   0.028143   0.003865
  124  H   9  X  -0.003610   0.002989  -0.002303   0.003220   0.001781
  125  H   9  Y  -0.002685  -0.005484  -0.007891   0.006254  -0.005523
  126  H   9  Z   0.001029  -0.002022   0.004920   0.007847  -0.005717
  127  H   9  X   0.022311  -0.005152   0.003178  -0.001545  -0.002199
  128  H   9  Y   0.021862  -0.012845  -0.041942  -0.015888   0.006407
  129  H   9  Z  -0.011762   0.028740   0.055433   0.056008  -0.023690
  130  H  10  S   0.016521   0.171952  -0.009853  -0.180274   0.223397
  131  H  10  S  -0.027977   0.032008  -0.007114  -0.072017   0.180651
  132  H  10  S  -0.005162  -0.002612   0.006352  -0.001452  -0.013827
  133  H  10  X  -0.005645  -0.002462  -0.004024   0.007332  -0.005632
  134  H  10  Y  -0.000304   0.007635   0.001157  -0.001714   0.003388
  135  H  10  Z  -0.001265   0.002213  -0.012174  -0.003870   0.001137
  136  H  10  X   0.004460  -0.002740  -0.007602  -0.002880  -0.002962
  137  H  10  Y  -0.008400  -0.008485   0.005287   0.003447   0.018013
  138  H  10  Z  -0.005282   0.002743  -0.012353   0.003115   0.002606
  139  F  11  S  -0.000933  -0.000331   0.000637   0.002782   0.002251
  140  F  11  S  -0.023164  -0.007055   0.001019   0.032335   0.017198
  141  F  11  S  -0.029147  -0.012719  -0.004048   0.035788   0.007015
  142  F  11  S  -0.023233  -0.001521  -0.008351  -0.016866   0.000333
  143  F  11  X  -0.039522  -0.055726   0.031497   0.278404   0.159907
  144  F  11  Y   0.002646  -0.043730  -0.009283  -0.146145  -0.279172
  145  F  11  Z   0.111639  -0.019977   0.029823  -0.121738  -0.354422
  146  F  11  X  -0.021815  -0.036197   0.028106   0.186705   0.111506
  147  F  11  Y   0.001482  -0.032311  -0.005917  -0.094639  -0.182634
  148  F  11  Z   0.068490  -0.009426   0.023009  -0.083397  -0.235521
  149  F  11  X  -0.001692  -0.011513   0.006920   0.047128   0.026408
  150  F  11  Y   0.003288  -0.005301  -0.004489  -0.020402  -0.043583
  151  F  11  Z   0.004668  -0.000824   0.003645  -0.023788  -0.056583
  152  F  11 XX   0.000037   0.000591   0.000085  -0.001035  -0.000199
  153  F  11 YY  -0.000862  -0.000278  -0.000044   0.000293   0.000497
  154  F  11 ZZ   0.000825  -0.000313  -0.000041   0.000743  -0.000298
  155  F  11 XY  -0.000032   0.000026   0.000239   0.001071   0.002076
  156  F  11 XZ  -0.001279   0.000285   0.000047   0.001393   0.002321
  157  F  11 YZ   0.000452   0.000171  -0.000082  -0.001137  -0.001374
  158  F  11 XX  -0.002548   0.002596  -0.006884  -0.004268  -0.001662
  159  F  11 YY  -0.000305  -0.003626   0.000913   0.003087   0.003912
  160  F  11 ZZ   0.002853   0.001030   0.005971   0.001181  -0.002250
  161  F  11 XY  -0.000034   0.004718   0.001076   0.004593   0.006728
  162  F  11 XZ  -0.003754  -0.001012  -0.001698   0.005655   0.011306
  163  F  11 YZ   0.000913  -0.001781   0.000869  -0.004377  -0.003171

                     16         17         18         19         20
                   -0.3228    -0.3160    -0.0642    -0.0149     0.0071
                     A          A          A          A          A   
    1  C   1  S   0.000769   0.000480   0.002995   0.001305  -0.000328
    2  C   1  S   0.027082  -0.015022   0.004565  -0.088543  -0.071931
    3  C   1  S   0.106083  -0.063674  -0.135919  -0.379810  -0.274178
    4  C   1  S  -0.095881  -0.062603   0.381301  -1.780634   0.395818
    5  C   1  X   0.036685  -0.017256  -0.033908   0.036611   0.009480
    6  C   1  Y   0.017475  -0.014999  -0.006207   0.012772   0.048456
    7  C   1  Z  -0.069129   0.034990   0.034285  -0.071617  -0.024570
    8  C   1  X  -0.001221  -0.008228   0.048445   0.051668  -0.018816
    9  C   1  Y   0.028568  -0.007201  -0.101274   0.085299   0.241140
   10  C   1  Z  -0.060087   0.040909   0.133273  -0.200172  -0.189073
   11  C   1  X   0.009095  -0.001225  -0.100664   0.178536  -0.226093
   12  C   1  Y  -0.015507   0.000479   0.036195  -0.026309   0.389624
   13  C   1  Z   0.010477   0.032298  -0.028843   0.052113  -0.532808
   14  C   1 XX  -0.001933   0.001351   0.000302   0.002082  -0.004708
   15  C   1 YY   0.000704   0.000669  -0.015164  -0.005911   0.005637
   16  C   1 ZZ   0.001229  -0.002020   0.014862   0.003829  -0.000929
   17  C   1 XY   0.002605  -0.000070   0.011266   0.001670   0.000337
   18  C   1 XZ   0.005459  -0.000387  -0.031596  -0.000457   0.001211
   19  C   1 YZ  -0.003432   0.001069   0.005699   0.003242  -0.009107
   20  C   1 XX  -0.007817  -0.002681   0.014498  -0.019979  -0.031859
   21  C   1 YY   0.005819   0.000389  -0.009241  -0.004399   0.007182
   22  C   1 ZZ   0.001998   0.002292  -0.005257   0.024378   0.024677
   23  C   1 XY   0.001134   0.003675   0.026324  -0.021913   0.003610
   24  C   1 XZ   0.001791   0.003775  -0.008994  -0.002158  -0.037735
   25  C   1 YZ  -0.003908   0.003482   0.023265  -0.023331  -0.060325
   26  C   2  S   0.000784   0.000412   0.004757   0.000782   0.003748
   27  C   2  S   0.005974  -0.003105   0.149765  -0.018216   0.055690
   28  C   2  S   0.014052  -0.004233   0.423840  -0.142072   0.099497
   29  C   2  S   0.154440   0.009533  -0.382093   0.190580  -1.053005
   30  C   2  X  -0.002810  -0.013480   0.466770   0.030279  -0.011983
   31  C   2  Y  -0.055992   0.033340  -0.152516  -0.107980   0.065915
   32  C   2  Z   0.046984  -0.020423  -0.264891  -0.030828   0.070636
   33  C   2  X  -0.005781   0.019525   0.262474  -0.029837  -0.117466
   34  C   2  Y   0.033035  -0.012818  -0.208078  -0.102643   0.179751
   35  C   2  Z  -0.034248   0.028014  -0.079070  -0.172953  -0.146894
   36  C   2  X  -0.011856  -0.005071   0.335223  -0.241236   0.339818
   37  C   2  Y  -0.042516  -0.023332   0.050992  -0.422401   1.347946
   38  C   2  Z   0.029941   0.018033  -0.208908   0.096407  -0.596700
   39  C   2 XX  -0.001594  -0.000769  -0.006767   0.002078   0.004581
   40  C   2 YY  -0.004946   0.004186   0.002901   0.002609  -0.008338
   41  C   2 ZZ   0.006539  -0.003417   0.003866  -0.004686   0.003756
   42  C   2 XY   0.007364   0.009084   0.011921  -0.000976  -0.003323
   43  C   2 XZ  -0.001594   0.005490   0.015030   0.000156   0.002077
   44  C   2 YZ  -0.006485   0.005543  -0.009262   0.001657   0.005336
   45  C   2 XX   0.009094   0.006626  -0.017684   0.017867   0.049207
   46  C   2 YY  -0.005752   0.005508  -0.004346  -0.018948   0.018402
   47  C   2 ZZ  -0.003342  -0.012134   0.022029   0.001081  -0.067609
   48  C   2 XY   0.016086  -0.000001   0.035976   0.003156   0.012786
   49  C   2 XZ  -0.001758  -0.008674   0.032721   0.034323   0.009441
   50  C   2 YZ   0.014407  -0.007073  -0.071205   0.026411   0.008238
   51  C   3  S  -0.000761   0.000807   0.002008   0.003201  -0.000437
   52  C   3  S  -0.001091   0.039939   0.017897  -0.062474   0.033661
   53  C   3  S  -0.023124   0.178381  -0.045994  -0.414752   0.084583
   54  C   3  S  -0.027002   0.098854   0.060193  -1.052715   0.905174
   55  C   3  X   0.002924   0.108632  -0.045557   0.038905  -0.009448
   56  C   3  Y  -0.042350  -0.156852   0.012510   0.018771   0.052592
   57  C   3  Z  -0.005092  -0.028836   0.010338   0.034420  -0.054098
   58  C   3  X  -0.007205   0.004946   0.033517   0.035612  -0.007685
   59  C   3  Y  -0.033290  -0.062222  -0.006682  -0.038222   0.068995
   60  C   3  Z  -0.005747   0.008461  -0.085289  -0.024373  -0.240687
   61  C   3  X  -0.010754   0.035479  -0.093809   0.100333  -0.046482
   62  C   3  Y  -0.001140  -0.009860   0.034190   0.030299  -0.041657
   63  C   3  Z  -0.005546   0.007702   0.044541  -0.053715  -0.233664
   64  C   3 XX   0.000093  -0.005717   0.035170  -0.000845  -0.004869
   65  C   3 YY  -0.001299   0.007018  -0.011219   0.001942  -0.000869
   66  C   3 ZZ   0.001206  -0.001301  -0.023951  -0.001098   0.005738
   67  C   3 XY  -0.001091  -0.002300   0.007086  -0.004505   0.002503
   68  C   3 XZ  -0.001463   0.004125   0.005472  -0.000110  -0.000307
   69  C   3 YZ  -0.001648   0.003723  -0.011618  -0.006014   0.001671
   70  C   3 XX   0.003144  -0.013369   0.024304  -0.005811   0.024168
   71  C   3 YY  -0.004043   0.004396   0.007965   0.005529   0.008801
   72  C   3 ZZ   0.000899   0.008973  -0.032269   0.000281  -0.032969
   73  C   3 XY  -0.002964   0.027867  -0.023223  -0.019806  -0.005586
   74  C   3 XZ  -0.009814  -0.014557   0.020912  -0.021301  -0.004582
   75  C   3 YZ  -0.007395  -0.013648  -0.002517   0.009778  -0.032705
   76  H   4  S  -0.052011   0.018721   0.128073  -0.003441  -0.024172
   77  H   4  S  -0.047583   0.004877   0.197750   0.365111   0.129932
   78  H   4  S   0.001808  -0.022682   0.117576   0.987389   0.830040
   79  H   4  X  -0.000558   0.000287  -0.000929  -0.008293  -0.003143
   80  H   4  Y   0.001281  -0.000971  -0.002805   0.004508   0.000040
   81  H   4  Z  -0.000793   0.000415   0.003189   0.005285   0.005463
   82  H   4  X  -0.006029  -0.003452   0.003533  -0.008073   0.000494
   83  H   4  Y  -0.002086  -0.000047  -0.009844   0.003896  -0.015698
   84  H   4  Z   0.009050  -0.001240  -0.000516  -0.013403  -0.015115
   85  H   5  S   0.017292  -0.004044  -0.075674   0.005753  -0.009740
   86  H   5  S   0.032459   0.005289  -0.190050   0.288619   0.357529
   87  H   5  S  -0.008120  -0.009077  -0.023573   0.112741   0.849013
   88  H   5  X   0.000438   0.000416  -0.002954   0.006883   0.003527
   89  H   5  Y   0.000245  -0.000379   0.000237   0.001482  -0.000541
   90  H   5  Z  -0.002440   0.000417  -0.000250   0.001567   0.004203
   91  H   5  X  -0.005505   0.002347   0.022349  -0.019699  -0.048752
   92  H   5  Y  -0.003195  -0.002362   0.006114   0.021747  -0.032936
   93  H   5  Z  -0.001709  -0.008537  -0.004335   0.001913  -0.011204
   94  H   6  S   0.004365   0.003925  -0.042371  -0.016832   0.009669
   95  H   6  S  -0.015688   0.018613  -0.089520   0.299045   0.410374
   96  H   6  S  -0.006889   0.009861  -0.057665   0.240403   1.306125
   97  H   6  X   0.001358  -0.000766  -0.001381  -0.000487  -0.001589
   98  H   6  Y   0.000988  -0.000437   0.002046  -0.005061  -0.008524
   99  H   6  Z  -0.001734   0.000794   0.002336  -0.003401   0.001826
  100  H   6  X  -0.001960  -0.000038   0.004113  -0.027259   0.003151
  101  H   6  Y  -0.005442   0.004870   0.003944   0.033871   0.020584
  102  H   6  Z   0.001294  -0.001837  -0.013459   0.003555  -0.005961
  103  H   7  S  -0.044615   0.034471  -0.033528  -0.022488  -0.021862
  104  H   7  S  -0.079197   0.035452   0.092318   0.270984  -0.246261
  105  H   7  S   0.017139   0.017290  -0.147186   0.747354  -2.279039
  106  H   7  X   0.000687  -0.000769   0.021452   0.001933  -0.000698
  107  H   7  Y   0.000502   0.000419  -0.005265   0.006515  -0.009228
  108  H   7  Z   0.001658  -0.000879  -0.011443   0.001511   0.003544
  109  H   7  X  -0.000539  -0.000156   0.034591  -0.019250   0.002051
  110  H   7  Y   0.013431  -0.005944  -0.043774  -0.015814  -0.062471
  111  H   7  Z  -0.000976   0.001951  -0.018876   0.008623   0.075028
  112  H   8  S  -0.000270  -0.065571   0.109729  -0.023650  -0.003830
  113  H   8  S  -0.022974  -0.163326   0.264043   0.291121   0.075712
  114  H   8  S  -0.013970   0.017020   0.021944   0.689290  -0.216129
  115  H   8  X   0.000243   0.000601  -0.000821  -0.005987   0.003614
  116  H   8  Y  -0.001531  -0.006258   0.000173   0.000855   0.000878
  117  H   8  Z  -0.000759   0.000134   0.000580   0.005006  -0.002698
  118  H   8  X  -0.002148  -0.041358   0.023176   0.034156   0.054799
  119  H   8  Y  -0.001352   0.011199  -0.016659   0.003612  -0.022146
  120  H   8  Z  -0.006211  -0.007303   0.010633   0.012937   0.065760
  121  H   9  S  -0.012063  -0.039526  -0.027339   0.012035   0.021432
  122  H   9  S   0.011361  -0.057633  -0.047593   0.198130  -0.312915
  123  H   9  S   0.007343  -0.004873  -0.036576   0.288385  -1.028642
  124  H   9  X   0.001162   0.002950  -0.001383   0.001316  -0.000812
  125  H   9  Y  -0.000651  -0.004591  -0.000412   0.005744  -0.004131
  126  H   9  Z  -0.000934  -0.003119   0.002957  -0.003163   0.004330
  127  H   9  X   0.002250  -0.008979   0.019118  -0.009708   0.009866
  128  H   9  Y  -0.003901  -0.004911   0.003205   0.016427  -0.019259
  129  H   9  Z   0.007051  -0.006445  -0.005623   0.021557  -0.049143
  130  H  10  S   0.012200   0.151570  -0.114160  -0.002876  -0.014696
  131  H  10  S  -0.016784   0.083538  -0.180299  -0.027330  -0.026321
  132  H  10  S  -0.002303  -0.012304  -0.018761  -0.137923   0.196660
  133  H  10  X  -0.003210  -0.009857   0.002379   0.004262  -0.001517
  134  H  10  Y   0.001610   0.005519   0.002274  -0.004103   0.000186
  135  H  10  Z  -0.001341   0.004173   0.004481   0.002188  -0.002492
  136  H  10  X  -0.012407  -0.022161   0.016366  -0.001878   0.010167
  137  H  10  Y  -0.002767   0.002137  -0.009700  -0.043628  -0.029105
  138  H  10  Z  -0.006604  -0.000670   0.007884  -0.000446   0.013453
  139  F  11  S   0.000502   0.000714  -0.005181  -0.001261   0.000548
  140  F  11  S   0.002146  -0.000269  -0.075355  -0.024031   0.009176
  141  F  11  S  -0.000691  -0.008793  -0.121740  -0.047312   0.017982
  142  F  11  S  -0.010167  -0.010566  -0.038919   0.017191   0.101168
  143  F  11  X   0.067610   0.504635   0.228227   0.019330  -0.013446
  144  F  11  Y   0.534918   0.158578  -0.159529   0.004096   0.025346
  145  F  11  Z  -0.368992   0.329164  -0.204949  -0.022882  -0.011387
  146  F  11  X   0.045960   0.328594   0.157080   0.015697  -0.014197
  147  F  11  Y   0.344530   0.101430  -0.110261  -0.000042   0.018897
  148  F  11  Z  -0.239900   0.208870  -0.140670  -0.016468  -0.004187
  149  F  11  X   0.009727   0.093266   0.068263  -0.014660  -0.018340
  150  F  11  Y   0.098121   0.028814  -0.075432   0.025568  -0.046940
  151  F  11  Z  -0.072585   0.064145  -0.077138   0.006874   0.027342
  152  F  11 XX  -0.000159  -0.001839   0.001293   0.000254  -0.000185
  153  F  11 YY   0.001194   0.000630  -0.001053  -0.000258   0.000231
  154  F  11 ZZ  -0.001035   0.001209  -0.000240   0.000004  -0.000046
  155  F  11 XY  -0.001217   0.000515  -0.002588   0.000109  -0.000300
  156  F  11 XZ   0.001050   0.000280  -0.003313  -0.000375   0.000180
  157  F  11 YZ   0.000553   0.000625   0.001643  -0.000106   0.000318
  158  F  11 XX  -0.001038  -0.006933   0.002407  -0.001035  -0.000028
  159  F  11 YY   0.003758   0.002730  -0.002682   0.000388  -0.001026
  160  F  11 ZZ  -0.002720   0.004204   0.000275   0.000647   0.001053
  161  F  11 XY  -0.006071   0.000274  -0.004871   0.001121  -0.000094
  162  F  11 XZ   0.005532   0.001609  -0.008110   0.000143  -0.000004
  163  F  11 YZ   0.001643   0.002323   0.002651  -0.000366  -0.000573

                     21         22         23         24         25
                    0.0089     0.0203     0.0373     0.0420     0.0475
                     A          A          A          A          A   
    1  C   1  S  -0.001078  -0.000953  -0.002291   0.000698  -0.001974
    2  C   1  S  -0.021458   0.022300   0.010815  -0.004522   0.006327
    3  C   1  S  -0.032308   0.179854   0.138177  -0.100805   0.105794
    4  C   1  S  -0.598055   0.313083   3.117087  -0.253515   4.751760
    5  C   1  X  -0.033518   0.096918   0.026571   0.095407   0.007091
    6  C   1  Y  -0.046447  -0.052719   0.088469   0.023768  -0.065103
    7  C   1  Z  -0.059347  -0.023239   0.012629   0.018209  -0.041489
    8  C   1  X  -0.104779   0.273621  -0.005423   0.298593   0.028812
    9  C   1  Y  -0.004980  -0.148918   0.025183   0.091524  -0.267035
   10  C   1  Z  -0.168340  -0.050718   0.231499  -0.101947   0.169350
   11  C   1  X  -0.107910   1.013718  -0.132845   1.507699  -0.087128
   12  C   1  Y   0.051932  -0.589700   1.435633   0.101508  -0.318489
   13  C   1  Z  -0.139394  -0.446781  -0.378251   0.164946  -2.213857
   14  C   1 XX  -0.005191   0.000767   0.006868  -0.003344   0.001099
   15  C   1 YY   0.002591   0.002861   0.001428   0.000872   0.001981
   16  C   1 ZZ   0.002600  -0.003628  -0.008296   0.002472  -0.003079
   17  C   1 XY   0.001197   0.002330   0.001054   0.000899  -0.001954
   18  C   1 XZ  -0.002384   0.002163  -0.006035  -0.004135  -0.002963
   19  C   1 YZ   0.002789  -0.000162   0.011965  -0.002789   0.011828
   20  C   1 XX  -0.002723  -0.005812  -0.026333  -0.054595   0.098739
   21  C   1 YY   0.006401   0.020686  -0.021560   0.000025  -0.028397
   22  C   1 ZZ  -0.003678  -0.014874   0.047893   0.054570  -0.070342
   23  C   1 XY  -0.020017  -0.011991   0.010648  -0.015456   0.023710
   24  C   1 XZ  -0.004777   0.009088  -0.013448   0.022389  -0.040561
   25  C   1 YZ  -0.021679   0.004722   0.104295  -0.013558  -0.004046
   26  C   2  S  -0.004838  -0.000785  -0.006089   0.000258   0.000689
   27  C   2  S  -0.052632  -0.008930  -0.072446  -0.003107  -0.004450
   28  C   2  S   0.007645   0.022725  -0.037063  -0.069732  -0.164947
   29  C   2  S   1.134288  -1.495044  -5.878166  -0.994680  -4.045186
   30  C   2  X   0.010354   0.008000   0.052309   0.017611   0.007600
   31  C   2  Y  -0.067275   0.028371  -0.036477  -0.014743   0.030238
   32  C   2  Z   0.018379   0.006622  -0.043994   0.024745  -0.041006
   33  C   2  X  -0.159315  -0.018502  -0.139532  -0.025954   0.069999
   34  C   2  Y  -0.073720  -0.013420  -0.306861   0.058954  -0.145509
   35  C   2  Z  -0.297196  -0.028356  -0.046193  -0.071322   0.273201
   36  C   2  X  -0.739896   0.103176   0.071339   0.229534   0.203754
   37  C   2  Y  -1.013777   0.205645  -0.150161   0.481337   1.958405
   38  C   2  Z  -0.625651   0.775473  -0.469629  -0.266686  -0.614677
   39  C   2 XX  -0.000285  -0.004587  -0.003281   0.002731   0.002525
   40  C   2 YY   0.003215   0.001753  -0.004861  -0.000470  -0.000655
   41  C   2 ZZ  -0.002931   0.002834   0.008142  -0.002260  -0.001870
   42  C   2 XY   0.005657  -0.005767  -0.003507  -0.003931  -0.007355
   43  C   2 XZ   0.004382   0.003293   0.007908   0.004789  -0.001085
   44  C   2 YZ   0.005722   0.001195  -0.005323   0.001422  -0.008067
   45  C   2 XX   0.024379   0.018765   0.041055   0.030510  -0.030449
   46  C   2 YY  -0.044823  -0.007749  -0.134123  -0.018124   0.031117
   47  C   2 ZZ   0.020445  -0.011016   0.093067  -0.012386  -0.000668
   48  C   2 XY  -0.022633   0.000940  -0.016296   0.011009   0.017568
   49  C   2 XZ   0.069539  -0.006979   0.042102   0.012314  -0.082013
   50  C   2 YZ  -0.004455   0.013171  -0.041613   0.012436  -0.070835
   51  C   3  S  -0.000123  -0.002390   0.001213  -0.003343   0.001483
   52  C   3  S   0.073830   0.019829   0.015651   0.002622  -0.021340
   53  C   3  S   0.280156   0.170613  -0.078261   0.235761  -0.117480
   54  C   3  S  -0.111278   2.089526   1.793691   1.716983  -0.898253
   55  C   3  X  -0.032245   0.050610   0.012615  -0.055796  -0.031042
   56  C   3  Y  -0.027155  -0.009585   0.110327  -0.001466   0.102835
   57  C   3  Z  -0.032008  -0.069551  -0.005476   0.061872   0.016675
   58  C   3  X  -0.309655   0.088300  -0.092212  -0.308249   0.110993
   59  C   3  Y  -0.111097   0.021954   0.158796  -0.059888   0.236923
   60  C   3  Z  -0.234972  -0.240235  -0.280927   0.143327   0.190155
   61  C   3  X  -0.548337   1.280836   0.589212  -1.109557  -1.046563
   62  C   3  Y   0.002542   0.208249   0.922668  -0.440301   0.580092
   63  C   3  Z  -0.565250  -0.227983  -0.217417   1.503995  -0.049896
   64  C   3 XX   0.001877  -0.000527   0.001413  -0.001668   0.003444
   65  C   3 YY  -0.000299   0.003184   0.008302   0.001888  -0.002524
   66  C   3 ZZ  -0.001578  -0.002657  -0.009714  -0.000220  -0.000919
   67  C   3 XY  -0.003485  -0.003372  -0.003060  -0.002147   0.002478
   68  C   3 XZ  -0.006393  -0.000727  -0.008253  -0.006789  -0.002214
   69  C   3 YZ  -0.005096   0.003562  -0.003051   0.000418   0.007492
   70  C   3 XX  -0.047521  -0.026352  -0.017642   0.048978   0.040717
   71  C   3 YY   0.028250   0.013093   0.031589   0.005666  -0.002511
   72  C   3 ZZ   0.019271   0.013259  -0.013947  -0.054644  -0.038206
   73  C   3 XY  -0.041678   0.019847  -0.049409  -0.011878  -0.006382
   74  C   3 XZ  -0.052376  -0.035430  -0.034501   0.032179   0.110753
   75  C   3 YZ  -0.052118  -0.019017  -0.027261  -0.008309   0.055957
   76  H   4  S  -0.002712  -0.015462   0.027534   0.007809   0.019042
   77  H   4  S   0.014771   0.324874  -0.375430   0.530482  -0.205306
   78  H   4  S   0.570083   2.842140  -2.111110   3.518065   2.984831
   79  H   4  X  -0.003145  -0.002277  -0.000553   0.001744  -0.004402
   80  H   4  Y   0.001269   0.001036   0.006194   0.000815   0.004044
   81  H   4  Z   0.003467   0.000930  -0.003882   0.005380   0.000513
   82  H   4  X   0.043366  -0.013725  -0.112987   0.018643  -0.004241
   83  H   4  Y   0.022169  -0.005725   0.038292  -0.049279   0.126169
   84  H   4  Z   0.047306  -0.034424  -0.042555  -0.062868   0.059188
   85  H   5  S  -0.024967   0.009334   0.000244  -0.012527  -0.006833
   86  H   5  S   0.178386  -0.347058  -0.198513  -0.282998  -0.284906
   87  H   5  S   0.864693  -2.171168  -1.372823  -4.075857   1.627239
   88  H   5  X   0.004054  -0.002340  -0.001083  -0.005617   0.003214
   89  H   5  Y  -0.000136  -0.001604   0.006080  -0.001225   0.000054
   90  H   5  Z   0.002221  -0.004480  -0.005624  -0.001661  -0.002499
   91  H   5  X  -0.021739   0.005726   0.069857   0.009788  -0.001294
   92  H   5  Y   0.039605   0.031508  -0.017171   0.003537   0.060519
   93  H   5  Z   0.014914   0.038108  -0.077325  -0.026698   0.055961
   94  H   6  S   0.021524   0.013070  -0.000319  -0.004770   0.019924
   95  H   6  S  -0.031594  -0.268914   0.061210   0.233963  -0.328791
   96  H   6  S  -0.605488  -1.336475   2.783851   1.461630  -4.231414
   97  H   6  X   0.000438   0.002895  -0.000890   0.003412   0.002824
   98  H   6  Y   0.002146   0.002543  -0.005895  -0.003842   0.003382
   99  H   6  Z  -0.002265  -0.000308  -0.005153   0.001456  -0.005463
  100  H   6  X   0.018231  -0.074039  -0.002476  -0.046688   0.017227
  101  H   6  Y   0.001700  -0.014305  -0.014223   0.031608  -0.016822
  102  H   6  Z   0.044643   0.012881  -0.013917   0.020353  -0.113336
  103  H   7  S   0.022114   0.009713  -0.028082  -0.006430  -0.016664
  104  H   7  S   0.284507   0.040333   0.912637   0.016477   0.301915
  105  H   7  S   2.171641  -0.371464   2.171296  -0.346327  -1.944554
  106  H   7  X   0.002767  -0.004122   0.003628  -0.000516  -0.000392
  107  H   7  Y   0.006570  -0.000474   0.007267   0.001084  -0.002120
  108  H   7  Z   0.005705   0.001847  -0.000314  -0.000317  -0.000551
  109  H   7  X   0.051564  -0.035802  -0.018954  -0.026065  -0.037290
  110  H   7  Y   0.009667  -0.024642  -0.139066   0.004049  -0.126317
  111  H   7  Z   0.074646   0.011614  -0.045418  -0.001940  -0.018227
  112  H   8  S   0.023573  -0.016066   0.007030   0.019344   0.005883
  113  H   8  S  -0.523369   0.109839   0.138122  -0.794142   0.385434
  114  H   8  S  -1.936824   2.598280   1.197171  -5.177311  -1.938437
  115  H   8  X   0.007817  -0.002407  -0.000311   0.005183  -0.002275
  116  H   8  Y   0.001227   0.000689   0.004652   0.001400   0.004132
  117  H   8  Z  -0.001156   0.000267   0.003114   0.001462   0.001389
  118  H   8  X  -0.090096  -0.014459   0.050501  -0.070957   0.100287
  119  H   8  Y   0.006245   0.037085  -0.034720  -0.013536  -0.023733
  120  H   8  Z   0.008662   0.007665   0.052515   0.118747   0.059450
  121  H   9  S   0.015505  -0.010058  -0.002743   0.000593  -0.016128
  122  H   9  S  -0.366194  -0.526565  -0.480786   0.275028   0.329718
  123  H   9  S  -0.842565  -1.547121  -3.280434   3.092495  -1.529336
  124  H   9  X   0.001345   0.000832   0.002312   0.001271  -0.002779
  125  H   9  Y  -0.003152  -0.002720   0.002812   0.003660  -0.002168
  126  H   9  Z   0.006084   0.002521   0.008011   0.000009   0.002617
  127  H   9  X   0.039469  -0.039634   0.060695   0.067041   0.103648
  128  H   9  Y   0.055415   0.041457   0.057783  -0.034213  -0.093988
  129  H   9  Z  -0.032031  -0.038254  -0.024920  -0.002960   0.018501
  130  H  10  S  -0.007358   0.026804   0.020160   0.016779   0.008826
  131  H  10  S  -0.204446  -0.144570   0.111800   0.110444   0.492853
  132  H  10  S  -0.533746  -1.017010   1.074418   1.092802   4.945811
  133  H  10  X  -0.000550  -0.001018   0.004180  -0.000452   0.001818
  134  H  10  Y   0.005791   0.003525  -0.004881  -0.003334  -0.004462
  135  H  10  Z   0.002753  -0.000480   0.001714   0.001276  -0.007241
  136  H  10  X   0.041996   0.031888   0.019739   0.024702  -0.020526
  137  H  10  Y   0.035732   0.006209  -0.016317   0.016600   0.007421
  138  H  10  Z   0.013503   0.030292   0.066922  -0.033920  -0.002694
  139  F  11  S   0.000042   0.001228  -0.000832   0.000123  -0.000943
  140  F  11  S   0.002634   0.025595  -0.019972  -0.004309  -0.024471
  141  F  11  S   0.007022   0.056594  -0.046193  -0.014417  -0.057979
  142  F  11  S  -0.087770  -0.088756   0.153717   0.074658   0.262264
  143  F  11  X  -0.019163   0.024155   0.008830   0.015684  -0.000904
  144  F  11  Y  -0.012682   0.000743   0.020537   0.014052   0.032934
  145  F  11  Z  -0.021336  -0.006217  -0.010709   0.023830   0.014587
  146  F  11  X  -0.008010   0.018817   0.003184   0.010869  -0.005414
  147  F  11  Y  -0.009461  -0.002327   0.008927   0.009072   0.021020
  148  F  11  Z  -0.012319  -0.006450  -0.009176   0.022027   0.013915
  149  F  11  X   0.008298   0.089608  -0.014379  -0.018798  -0.090047
  150  F  11  Y   0.031777   0.016949   0.085070   0.018208   0.086489
  151  F  11  Z  -0.024745  -0.041260   0.096307  -0.014696  -0.020306
  152  F  11 XX   0.000021   0.000292   0.000223  -0.000245  -0.000246
  153  F  11 YY  -0.000079  -0.000449   0.000098   0.000177  -0.000045
  154  F  11 ZZ   0.000058   0.000157  -0.000321   0.000067   0.000291
  155  F  11 XY   0.000329  -0.000090   0.000303   0.000313   0.000680
  156  F  11 XZ  -0.000075  -0.000323   0.000333  -0.000022   0.000009
  157  F  11 YZ  -0.000438  -0.000120   0.000025   0.000137   0.000228
  158  F  11 XX   0.000743   0.000997  -0.001321  -0.002245  -0.000828
  159  F  11 YY  -0.000441  -0.000396   0.002380   0.000553   0.000335
  160  F  11 ZZ  -0.000302  -0.000601  -0.001059   0.001692   0.000493
  161  F  11 XY   0.000402   0.000413   0.000618   0.000263  -0.002925
  162  F  11 XZ   0.001028   0.001173  -0.001614  -0.003465   0.000323
  163  F  11 YZ   0.000632  -0.000091   0.000255  -0.001549   0.002190

                     26         27         28         29         30
                    0.0686     0.0709     0.0897     0.0973     0.1001
                     A          A          A          A          A   
    1  C   1  S   0.006838   0.001846   0.022573  -0.009635  -0.012044
    2  C   1  S   0.032427   0.006058   0.122969  -0.004257  -0.135833
    3  C   1  S  -0.100714  -0.244478  -0.536603   0.331161   0.060643
    4  C   1  S  -7.762739   4.523473  -4.736714   7.669184  -6.536387
    5  C   1  X  -0.006016   0.002589  -0.008922   0.013442   0.040587
    6  C   1  Y  -0.025205  -0.003347   0.020409  -0.029792   0.030998
    7  C   1  Z   0.040152  -0.001955   0.046228  -0.052094  -0.039593
    8  C   1  X   0.086397  -0.064001  -0.115449  -0.136867  -0.245353
    9  C   1  Y   0.223943   0.005328  -0.167029   0.034987  -0.863876
   10  C   1  Z   0.037972   0.281843  -0.507261   0.249705   0.976956
   11  C   1  X   1.223747  -0.762896  -0.316430  -0.267085  -1.730432
   12  C   1  Y  -0.283490   0.694589  -2.179259   0.332179  -3.493117
   13  C   1  Z   3.320688  -0.774144   1.031222  -0.436397   5.350734
   14  C   1 XX  -0.017242   0.003387  -0.000908   0.005595   0.000092
   15  C   1 YY   0.002166   0.000854  -0.001587  -0.020653   0.004462
   16  C   1 ZZ   0.015076  -0.004241   0.002495   0.015058  -0.004554
   17  C   1 XY  -0.000344   0.010049  -0.003193  -0.000966   0.003679
   18  C   1 XZ  -0.007728   0.016866   0.004156  -0.000547  -0.001214
   19  C   1 YZ  -0.007268   0.001221  -0.023713   0.001999  -0.002306
   20  C   1 XX   0.013508   0.001979  -0.198923  -0.005860   0.117258
   21  C   1 YY  -0.047401  -0.079678   0.135366   0.092241   0.020788
   22  C   1 ZZ   0.033893   0.077699   0.063557  -0.086382  -0.138046
   23  C   1 XY  -0.148127  -0.023733  -0.011018  -0.032663   0.050264
   24  C   1 XZ   0.095093  -0.062529   0.003150  -0.004292  -0.049129
   25  C   1 YZ  -0.038225   0.080767  -0.107545  -0.067812   0.279724
   26  C   2  S   0.001274  -0.000997   0.015279  -0.019773  -0.013590
   27  C   2  S   0.079364  -0.009661   0.054846  -0.065049   0.018526
   28  C   2  S   0.437618   0.031203  -0.501667   0.750028   0.716983
   29  C   2  S  17.723367  -8.306971   2.607941  -0.703956   5.273176
   30  C   2  X   0.002010  -0.109545  -0.067335   0.003897   0.027126
   31  C   2  Y  -0.048884  -0.013536   0.085423  -0.153766   0.000750
   32  C   2  Z  -0.026280  -0.009227   0.099670  -0.025082   0.086779
   33  C   2  X   0.049304  -0.233290  -0.138060  -0.158715   0.249984
   34  C   2  Y   0.252011  -0.389725  -0.080662   0.088442  -0.464733
   35  C   2  Z  -0.135719   0.069110  -0.298261  -0.075085   1.071766
   36  C   2  X  -3.800522   2.124357   0.107651  -0.902837   2.101616
   37  C   2  Y  -4.587234   2.745632  -1.770523   4.435215  -4.332760
   38  C   2  Z  -0.371958  -0.208152  -1.229482  -4.362567   5.857594
   39  C   2 XX   0.001694   0.000705   0.004029  -0.010779   0.003321
   40  C   2 YY   0.000616  -0.001838  -0.011527   0.019997  -0.008437
   41  C   2 ZZ  -0.002310   0.001133   0.007497  -0.009218   0.005116
   42  C   2 XY  -0.001947   0.007882  -0.002726   0.003503  -0.007577
   43  C   2 XZ   0.000391   0.004256  -0.004086  -0.004934   0.002579
   44  C   2 YZ   0.001684  -0.004328  -0.007250  -0.002235  -0.003586
   45  C   2 XX  -0.114581   0.033657   0.116064   0.034760  -0.161051
   46  C   2 YY   0.039499  -0.150257  -0.099107   0.248217  -0.016571
   47  C   2 ZZ   0.075082   0.116600  -0.016957  -0.282977   0.177622
   48  C   2 XY  -0.047092   0.063601  -0.071964   0.064249  -0.026517
   49  C   2 XZ   0.139906   0.037653   0.031370   0.027443  -0.085795
   50  C   2 YZ   0.059713  -0.076465  -0.080349  -0.152659  -0.163287
   51  C   3  S   0.012325   0.004529   0.014271  -0.020666  -0.013805
   52  C   3  S   0.043892   0.031700   0.031257  -0.122401  -0.027438
   53  C   3  S  -0.491915  -0.329750  -0.680956   0.533783   0.798887
   54  C   3  S -10.804352   3.330287  -2.490240  -0.012125   6.322627
   55  C   3  X  -0.023270   0.016113  -0.036250   0.007955   0.014220
   56  C   3  Y   0.018151  -0.002403   0.015580  -0.035171   0.083342
   57  C   3  Z  -0.027283   0.017059  -0.027179   0.037561  -0.025786
   58  C   3  X  -0.040210   0.227510   0.114259  -0.216425  -0.051420
   59  C   3  Y  -0.066416  -0.504699   0.103727   0.068519   0.139121
   60  C   3  Z  -0.025330  -0.166670  -0.281807  -0.313894   0.344505
   61  C   3  X  -2.661141   0.570099   0.006968  -1.556026   1.923416
   62  C   3  Y  -0.130632  -1.961686   0.528915  -0.820884   1.388790
   63  C   3  Z  -3.593534   0.340384  -0.247796  -0.330272   1.852824
   64  C   3 XX   0.005579  -0.007141  -0.006892  -0.006684   0.001558
   65  C   3 YY  -0.005842  -0.008500   0.002938   0.006745   0.001475
   66  C   3 ZZ   0.000264   0.015642   0.003954  -0.000061  -0.003033
   67  C   3 XY   0.003120   0.017574   0.000966  -0.005043  -0.007640
   68  C   3 XZ   0.017288   0.008240  -0.005213   0.001318  -0.006477
   69  C   3 YZ   0.007759  -0.012366   0.008432  -0.012312   0.005073
   70  C   3 XX  -0.019995   0.002432  -0.026705   0.149143  -0.029971
   71  C   3 YY  -0.032041   0.064593   0.018849  -0.023215  -0.042881
   72  C   3 ZZ   0.052036  -0.067025   0.007856  -0.125928   0.072852
   73  C   3 XY  -0.129758  -0.101134  -0.023948   0.039853   0.009918
   74  C   3 XZ   0.022714  -0.007252   0.081640  -0.132716  -0.006384
   75  C   3 YZ   0.052690   0.116194  -0.033627  -0.062605   0.029150
   76  H   4  S  -0.002124  -0.065469  -0.011455  -0.015501  -0.040963
   77  H   4  S   0.092738  -0.574156   1.345582  -0.577311  -1.284171
   78  H   4  S  -1.438695   0.289499   1.580149  -0.303668  -4.825986
   79  H   4  X   0.008533   0.001608   0.014178  -0.005950  -0.014074
   80  H   4  Y  -0.001482  -0.004251  -0.018644  -0.000966   0.004289
   81  H   4  Z   0.004524   0.002061  -0.006081   0.007838   0.010702
   82  H   4  X   0.081549  -0.099675   0.172101  -0.075915  -0.220785
   83  H   4  Y  -0.108252   0.056332  -0.085007   0.002217   0.129798
   84  H   4  Z   0.095161  -0.090213  -0.284723   0.063075   0.177851
   85  H   5  S  -0.063975   0.041626   0.012802   0.031299  -0.006352
   86  H   5  S  -0.471987   0.095729   1.399237   0.034052  -0.329244
   87  H   5  S  -2.298368  -0.636763   0.812578   1.418431  -1.249241
   88  H   5  X  -0.007361  -0.000304  -0.014832  -0.001662   0.008197
   89  H   5  Y  -0.001746   0.006149  -0.010259  -0.004927   0.002306
   90  H   5  Z   0.003328   0.000515  -0.003365   0.005568   0.004237
   91  H   5  X   0.034785   0.032285  -0.216588   0.022627   0.109255
   92  H   5  Y   0.033046   0.056284   0.031805   0.030255   0.022931
   93  H   5  Z   0.059006  -0.038461  -0.192682  -0.063913   0.022964
   94  H   6  S   0.027433   0.010899  -0.070011  -0.076591  -0.005118
   95  H   6  S   0.788182   0.507433  -0.380576  -0.469755  -1.436870
   96  H   6  S   1.753547   0.591325  -3.061221  -0.398365  -4.263712
   97  H   6  X   0.006535  -0.007565   0.001141  -0.000774  -0.005633
   98  H   6  Y   0.006466   0.001558   0.006257   0.004884  -0.017249
   99  H   6  Z   0.006228   0.005032   0.008356   0.001889  -0.003285
  100  H   6  X  -0.068105  -0.051417  -0.039839  -0.016706   0.006689
  101  H   6  Y   0.105937   0.166767  -0.014842   0.010321  -0.376973
  102  H   6  Z   0.098881  -0.059540  -0.003325  -0.204434   0.019738
  103  H   7  S  -0.015347   0.021567   0.002060   0.029550  -0.038728
  104  H   7  S  -0.978122   1.326785   0.964222  -1.037980  -0.065986
  105  H   7  S   5.672524  -0.665936   3.232328  -2.818280   3.754638
  106  H   7  X  -0.003444   0.008868  -0.001726  -0.000974  -0.000139
  107  H   7  Y  -0.001617   0.002326  -0.011980   0.024415  -0.007027
  108  H   7  Z   0.004699   0.004327  -0.012541  -0.005517   0.003348
  109  H   7  X   0.071556  -0.152787  -0.065756   0.066348   0.006323
  110  H   7  Y   0.235691  -0.253572  -0.237917   0.255940  -0.008309
  111  H   7  Z  -0.005159  -0.056381   0.111763   0.223355  -0.051201
  112  H   8  S  -0.004719  -0.004905   0.022874  -0.033040  -0.024639
  113  H   8  S   0.531966   0.822863   1.093261  -1.091088  -1.083632
  114  H   8  S  -0.725249   0.596211   1.577558  -1.657309   1.919052
  115  H   8  X   0.003362   0.003653   0.002587  -0.005315  -0.008101
  116  H   8  Y   0.003614  -0.010953   0.000723  -0.001713   0.002754
  117  H   8  Z  -0.012226  -0.006069  -0.006434   0.005579   0.006566
  118  H   8  X   0.089617   0.259833   0.255663  -0.153061  -0.270542
  119  H   8  Y  -0.117952  -0.021321   0.026669  -0.066584   0.029524
  120  H   8  Z  -0.122663   0.106446   0.050328   0.139760  -0.066100
  121  H   9  S  -0.037762   0.065669  -0.028162   0.011586   0.020093
  122  H   9  S   0.299382   0.891985  -0.445218  -0.645137  -0.204570
  123  H   9  S  -2.400294   0.952638  -2.213549  -2.481878  -0.023086
  124  H   9  X  -0.007635   0.000862   0.004712   0.002206  -0.000625
  125  H   9  Y  -0.008874  -0.005052  -0.001204   0.016097  -0.002153
  126  H   9  Z   0.004059  -0.001087   0.004010  -0.009332   0.003924
  127  H   9  X   0.007608   0.064549   0.031951  -0.089485  -0.034811
  128  H   9  Y  -0.013389  -0.042450   0.058113   0.108032   0.018905
  129  H   9  Z   0.091113   0.145745  -0.088972  -0.178806  -0.002974
  130  H  10  S  -0.040743  -0.139109   0.039989   0.004415   0.042435
  131  H  10  S  -0.203996  -1.160953   0.342092   0.102497  -0.090545
  132  H  10  S   0.294929  -1.481191   1.044195   1.484521   2.018499
  133  H  10  X  -0.002368  -0.003049  -0.000601   0.001094   0.006443
  134  H  10  Y   0.002899  -0.001434  -0.001246  -0.006609  -0.007769
  135  H  10  Z  -0.002374  -0.002804  -0.004518   0.004046  -0.005274
  136  H  10  X  -0.092310   0.178321  -0.021542  -0.022454  -0.019954
  137  H  10  Y  -0.070317  -0.207620   0.126913  -0.024779   0.075200
  138  H  10  Z  -0.059564   0.018656  -0.011948   0.052435   0.000148
  139  F  11  S   0.001904   0.001852  -0.003666   0.000960  -0.001647
  140  F  11  S   0.026846   0.028203  -0.016818   0.009079  -0.010040
  141  F  11  S   0.050258   0.054092   0.009130   0.011601  -0.002035
  142  F  11  S  -0.111836   0.536144  -0.444602   0.319170  -0.401678
  143  F  11  X   0.040236  -0.043196  -0.046153   0.040383   0.007888
  144  F  11  Y   0.018661  -0.059236  -0.001875  -0.025909   0.013796
  145  F  11  Z  -0.020054   0.022092   0.058266   0.009314   0.002899
  146  F  11  X   0.025655  -0.045763  -0.020496   0.005147   0.014677
  147  F  11  Y   0.008877  -0.038698  -0.011293   0.004535   0.008228
  148  F  11  Z  -0.013478   0.023086   0.030050  -0.001845  -0.004836
  149  F  11  X  -0.000998  -0.212875   0.040253   0.010920   0.076798
  150  F  11  Y   0.121356  -0.075427  -0.009784  -0.239114   0.081415
  151  F  11  Z  -0.058476   0.121980   0.139914   0.237215  -0.039651
  152  F  11 XX   0.000663  -0.000596   0.000028  -0.000655  -0.000445
  153  F  11 YY  -0.000456   0.000624   0.000352   0.000788  -0.000518
  154  F  11 ZZ  -0.000208  -0.000028  -0.000379  -0.000133   0.000963
  155  F  11 XY   0.000082  -0.000190  -0.000193   0.000179   0.000695
  156  F  11 XZ  -0.000989   0.000643   0.000584   0.000118  -0.000269
  157  F  11 YZ  -0.000498   0.000370   0.000245  -0.000161   0.000279
  158  F  11 XX   0.000666   0.000098  -0.003846   0.005238   0.002130
  159  F  11 YY  -0.000126  -0.001486   0.003196  -0.003016  -0.000531
  160  F  11 ZZ  -0.000540   0.001387   0.000649  -0.002221  -0.001599
  161  F  11 XY  -0.004697   0.002518   0.004156  -0.000216   0.000960
  162  F  11 XZ  -0.004816  -0.001157   0.002825  -0.005423   0.001357
  163  F  11 YZ   0.007620  -0.003036  -0.002893  -0.001990   0.004586

                     31         32         33         34         35
                    0.1041     0.1132     0.1211     0.1236     0.1325
                     A          A          A          A          A   
    1  C   1  S  -0.011905  -0.011885  -0.018291  -0.003672   0.003043
    2  C   1  S  -0.025087  -0.047217  -0.097544  -0.030453  -0.020105
    3  C   1  S   0.578258   0.478913   0.391751  -0.038485  -0.277648
    4  C   1  S   2.625699  -0.885040   6.517933  -1.784214   3.107804
    5  C   1  X   0.089158   0.023225  -0.152484   0.027526   0.044431
    6  C   1  Y   0.059857  -0.013506   0.085924   0.077615  -0.089951
    7  C   1  Z   0.024881   0.033481  -0.009442   0.051317   0.042868
    8  C   1  X  -0.386298   0.031372   0.720849  -0.233695  -0.376493
    9  C   1  Y  -0.173923  -0.108472  -0.537198  -0.703807  -0.110309
   10  C   1  Z  -0.321703  -0.289593   0.525628  -0.234285   0.558590
   11  C   1  X  -0.805101  -1.773437   4.643971  -0.887711  -1.968831
   12  C   1  Y   1.414227  -1.259172   0.421059  -5.424225   3.083910
   13  C   1  Z  -1.757400  -1.017727  -0.596892  -2.772281   0.401014
   14  C   1 XX   0.006727   0.001160  -0.000363   0.009352  -0.003487
   15  C   1 YY   0.003856  -0.003685   0.004813  -0.007421   0.002259
   16  C   1 ZZ  -0.010584   0.002525  -0.004450  -0.001931   0.001229
   17  C   1 XY   0.001093  -0.006915  -0.001509  -0.002283   0.003506
   18  C   1 XZ  -0.005841   0.003515   0.007470  -0.006179   0.003327
   19  C   1 YZ   0.002780  -0.005444   0.012102  -0.003287  -0.007672
   20  C   1 XX  -0.103292  -0.042275   0.145281  -0.124349  -0.011602
   21  C   1 YY   0.044196   0.108696   0.002063   0.264701  -0.172414
   22  C   1 ZZ   0.059095  -0.066421  -0.147345  -0.140352   0.184016
   23  C   1 XY  -0.072910   0.124573  -0.035730   0.045189  -0.044068
   24  C   1 XZ   0.022754  -0.124667   0.260054  -0.029487  -0.097194
   25  C   1 YZ   0.096727  -0.055094   0.133235   0.006863   0.208733
   26  C   2  S  -0.006030  -0.007354  -0.011423   0.006978   0.000929
   27  C   2  S   0.041945  -0.010307  -0.002279   0.013725   0.081148
   28  C   2  S   0.600244   0.284057   0.475313  -0.208091   0.398720
   29  C   2  S   5.805514   5.424968  -3.150214   2.646725  -9.542031
   30  C   2  X   0.031561  -0.107786  -0.017854   0.061612   0.012709
   31  C   2  Y   0.124500  -0.041758   0.015488  -0.083408   0.044677
   32  C   2  Z  -0.042927   0.013212  -0.008841  -0.039891   0.032409
   33  C   2  X  -0.602307  -0.186149  -0.079907   0.571895  -0.500741
   34  C   2  Y  -0.051607   0.211541  -0.525842   0.385713  -0.725339
   35  C   2  Z  -0.900452  -0.297710   0.245665   0.626578  -0.121942
   36  C   2  X  -3.462971   2.655816  -1.501646  -1.371589  -0.976038
   37  C   2  Y  -3.000765  -1.717115   0.106293   3.033997  -3.033011
   38  C   2  Z  -4.805599   1.541103  -2.642035   5.090914   0.067235
   39  C   2 XX   0.001630   0.005430   0.001770   0.006542   0.008242
   40  C   2 YY  -0.010097   0.004313  -0.001121  -0.005755   0.007484
   41  C   2 ZZ   0.008466  -0.009742  -0.000649  -0.000787  -0.015726
   42  C   2 XY  -0.007924   0.003799   0.008904   0.001108   0.011481
   43  C   2 XZ   0.006473   0.002317  -0.009194  -0.003131  -0.000963
   44  C   2 YZ  -0.004893   0.015468  -0.005889   0.000141   0.006658
   45  C   2 XX   0.097785   0.108365  -0.005564  -0.130433   0.051149
   46  C   2 YY  -0.280473   0.003098  -0.069291   0.223167  -0.428790
   47  C   2 ZZ   0.182688  -0.111463   0.074855  -0.092733   0.377641
   48  C   2 XY  -0.101401   0.089184  -0.079114  -0.028848  -0.118160
   49  C   2 XZ   0.287535  -0.090756   0.031277  -0.153831   0.153428
   50  C   2 YZ   0.071962   0.124986  -0.182298  -0.093472  -0.128707
   51  C   3  S  -0.005729  -0.007895  -0.010815  -0.004854  -0.000306
   52  C   3  S  -0.092881  -0.053967  -0.069562   0.012153  -0.056432
   53  C   3  S   0.027093   0.236805   0.219109   0.176432  -0.485473
   54  C   3  S  -6.281990   1.332288   0.961712  -0.363141   3.168565
   55  C   3  X   0.048319   0.023407  -0.066861  -0.043031  -0.072797
   56  C   3  Y   0.057878  -0.076354   0.054278  -0.031102  -0.143805
   57  C   3  Z  -0.007203   0.066455   0.077528   0.043224   0.125081
   58  C   3  X  -1.258671  -0.385963  -0.032000   0.926520  -0.025332
   59  C   3  Y  -0.502787   0.523041  -0.107476   0.064801   0.087971
   60  C   3  Z  -0.410907  -0.446901  -0.307554   0.352430  -1.019538
   61  C   3  X  -4.201002  -2.795944   1.166329   3.262877   4.371165
   62  C   3  Y  -1.648507   3.034903  -1.603520  -0.339456   2.720739
   63  C   3  Z  -2.066633  -3.230172  -0.457629  -2.542695  -2.984399
   64  C   3 XX   0.002274  -0.006878  -0.008588   0.004708  -0.010914
   65  C   3 YY   0.005261  -0.006510   0.006064  -0.012198  -0.004287
   66  C   3 ZZ  -0.007535   0.013388   0.002524   0.007490   0.015200
   67  C   3 XY   0.006250  -0.004812   0.002601   0.005255   0.005364
   68  C   3 XZ  -0.007688   0.004469   0.003730   0.002341  -0.003035
   69  C   3 YZ   0.003186  -0.000706  -0.005530  -0.006012  -0.015327
   70  C   3 XX  -0.044985  -0.017297  -0.008834  -0.077099  -0.275731
   71  C   3 YY   0.089932  -0.014174   0.030419  -0.032962   0.063643
   72  C   3 ZZ  -0.044946   0.031471  -0.021585   0.110061   0.212088
   73  C   3 XY  -0.079895   0.038874  -0.014158  -0.007845  -0.136859
   74  C   3 XZ  -0.241265   0.065547  -0.116606   0.221441  -0.117857
   75  C   3 YZ  -0.097965  -0.183346  -0.011855   0.047015  -0.172639
   76  H   4  S   0.003566   0.020356   0.055861   0.053138  -0.044910
   77  H   4  S  -0.549382   0.063635   0.873454   0.583776  -1.577486
   78  H   4  S   0.127708   1.349029   4.218114   1.809050  -5.399319
   79  H   4  X  -0.008632  -0.003721   0.006500  -0.002034  -0.005691
   80  H   4  Y   0.005096  -0.001419   0.002213   0.001067   0.000415
   81  H   4  Z   0.001357   0.003396  -0.003047  -0.007384   0.008437
   82  H   4  X  -0.062900  -0.002311   0.141116   0.025275  -0.278847
   83  H   4  Y  -0.034183   0.024040  -0.064170  -0.044267   0.097393
   84  H   4  Z   0.136672   0.027826  -0.123653  -0.001791   0.084571
   85  H   5  S   0.058145   0.012273  -0.036388   0.028900   0.023058
   86  H   5  S   0.640102   0.232706  -2.616494   1.102077   0.297518
   87  H   5  S   2.265743  -0.452948  -5.534635   3.831492   1.323370
   88  H   5  X  -0.005982   0.004189   0.025232  -0.001479  -0.004618
   89  H   5  Y   0.000403  -0.000384   0.004173  -0.004631  -0.001737
   90  H   5  Z  -0.007803  -0.003497   0.011407  -0.007041   0.003289
   91  H   5  X  -0.080391  -0.097449   0.466060  -0.190120   0.001849
   92  H   5  Y  -0.005467  -0.123015   0.121344   0.007999  -0.053218
   93  H   5  Z  -0.084936   0.096125   0.343216  -0.102493  -0.103182
   94  H   6  S  -0.011076  -0.026221   0.002900  -0.071078   0.009716
   95  H   6  S  -1.173766  -0.955787  -0.976943  -2.247938   0.525715
   96  H   6  S   0.437929  -0.894137   0.017331  -6.805746   3.399908
   97  H   6  X  -0.003509   0.002793   0.000097  -0.000661  -0.000755
   98  H   6  Y  -0.011348  -0.008102  -0.014534  -0.020076   0.002488
   99  H   6  Z  -0.011093   0.001707  -0.013275   0.001621   0.004894
  100  H   6  X  -0.031655   0.016718  -0.160846  -0.074984   0.040528
  101  H   6  Y  -0.309269  -0.177188  -0.269609  -0.395181   0.144430
  102  H   6  Z   0.177052  -0.009767  -0.012194  -0.053310   0.130087
  103  H   7  S  -0.034919   0.016742  -0.010816  -0.009302   0.023115
  104  H   7  S   0.621006  -0.762494   0.756167  -1.358692   2.491677
  105  H   7  S   4.782456   0.925068   1.190254  -1.838077   3.580475
  106  H   7  X  -0.005075   0.004624   0.002488  -0.000222  -0.005163
  107  H   7  Y  -0.013251   0.005875  -0.002217   0.011363  -0.011043
  108  H   7  Z  -0.006019   0.004822  -0.003151   0.001473  -0.000808
  109  H   7  X   0.056467  -0.077180   0.017522   0.131930   0.014852
  110  H   7  Y  -0.199445   0.249916  -0.220139   0.264717  -0.546116
  111  H   7  Z  -0.095174   0.015879  -0.015692   0.007652  -0.124967
  112  H   8  S  -0.052538  -0.035154   0.018837   0.042139   0.059844
  113  H   8  S  -2.512882  -0.476032  -0.132692   1.816423   1.498215
  114  H   8  S  -6.258789  -2.029020   2.273493   3.965945   6.938387
  115  H   8  X  -0.013283  -0.005658   0.002372   0.009013   0.008530
  116  H   8  Y  -0.004682   0.001332  -0.000485  -0.002712  -0.004811
  117  H   8  Z   0.009952  -0.002974  -0.001285   0.003200   0.004921
  118  H   8  X  -0.595596  -0.043436  -0.016436   0.259352   0.227341
  119  H   8  Y   0.039636  -0.036008   0.055902  -0.000006  -0.083689
  120  H   8  Z   0.074835   0.173323  -0.007271  -0.092960  -0.075428
  121  H   9  S   0.004032  -0.027050   0.021356   0.025065   0.042565
  122  H   9  S   0.000698  -1.607356  -0.571783   0.093960  -2.284342
  123  H   9  S   0.567447  -4.441224  -0.838126  -1.515037  -6.394205
  124  H   9  X   0.001464  -0.006082   0.002501   0.000367   0.008706
  125  H   9  Y   0.000664   0.005925   0.008737  -0.001707   0.013457
  126  H   9  Z  -0.000249  -0.019258  -0.007413  -0.007045  -0.026949
  127  H   9  X   0.042132   0.099958  -0.110233   0.051907   0.013209
  128  H   9  Y   0.087793   0.168331   0.185836   0.005889   0.436534
  129  H   9  Z   0.013629  -0.323906  -0.139959  -0.004778  -0.552632
  130  H  10  S   0.007970   0.019026  -0.017592  -0.078116  -0.044979
  131  H  10  S  -0.472606   0.950335  -0.607070  -0.281342  -0.306240
  132  H  10  S  -2.625314   2.072215  -3.593866   0.095183  -1.380486
  133  H  10  X   0.002756  -0.000609   0.004225  -0.002043   0.001391
  134  H  10  Y  -0.012308   0.007424  -0.018007  -0.000765  -0.004805
  135  H  10  Z  -0.000245   0.001826  -0.001932  -0.003673  -0.002566
  136  H  10  X   0.069433  -0.091763   0.127953   0.041447   0.045630
  137  H  10  Y   0.018017   0.205044  -0.074988   0.010721   0.053421
  138  H  10  Z  -0.055041   0.056912   0.082327  -0.026174   0.162684
  139  F  11  S   0.001033  -0.005341  -0.006910   0.002214   0.000199
  140  F  11  S   0.007406  -0.029078  -0.040699   0.004703  -0.000989
  141  F  11  S   0.009209  -0.000846  -0.010128  -0.023538  -0.005385
  142  F  11  S  -0.249259  -0.879480  -0.774888   0.427680   0.149722
  143  F  11  X   0.028241  -0.059172   0.001109   0.032028   0.022887
  144  F  11  Y   0.007484   0.016395   0.017693  -0.006555  -0.012229
  145  F  11  Z  -0.016109  -0.013116  -0.012389  -0.035506   0.051773
  146  F  11  X   0.036747  -0.013659   0.009411  -0.007825   0.012297
  147  F  11  Y  -0.001209   0.004311   0.009723  -0.003320  -0.022434
  148  F  11  Z  -0.016388  -0.006728  -0.019439  -0.021794   0.033787
  149  F  11  X   0.080129   0.095355   0.290530   0.160924   0.118866
  150  F  11  Y   0.174410  -0.116854   0.086125   0.087444   0.193342
  151  F  11  Z  -0.039557  -0.367108  -0.147422  -0.074543   0.344131
  152  F  11 XX   0.000093   0.000005   0.000020  -0.000486   0.000148
  153  F  11 YY   0.000095   0.000020  -0.000081  -0.000264  -0.000875
  154  F  11 ZZ  -0.000188  -0.000025   0.000061   0.000750   0.000727
  155  F  11 XY  -0.000135   0.000304   0.000034  -0.000153  -0.000692
  156  F  11 XZ  -0.000217  -0.000278  -0.000121  -0.000396  -0.000227
  157  F  11 YZ  -0.000708   0.000805  -0.000567   0.000126  -0.000406
  158  F  11 XX  -0.000135  -0.000719  -0.007406   0.002463  -0.004525
  159  F  11 YY   0.001490   0.000840   0.007966  -0.002929   0.001046
  160  F  11 ZZ  -0.001355  -0.000121  -0.000560   0.000466   0.003479
  161  F  11 XY  -0.002533   0.005708   0.001241  -0.007357  -0.001892
  162  F  11 XZ  -0.000935   0.008042   0.006094  -0.001305  -0.002281
  163  F  11 YZ   0.002429  -0.005986  -0.003047  -0.000042   0.003318

                     36         37         38         39         40
                    0.1364     0.1411     0.1585     0.1765     0.1910
                     A          A          A          A          A   
    1  C   1  S  -0.007526   0.014293  -0.009024  -0.008533   0.010516
    2  C   1  S  -0.072405   0.039544  -0.057557  -0.043265   0.041897
    3  C   1  S  -0.198885  -0.932528   0.164379   0.463314  -0.617150
    4  C   1  S  13.256997  -2.433456  16.227160   4.960811 -21.058790
    5  C   1  X  -0.048084  -0.178690   0.127166   0.011685  -0.018537
    6  C   1  Y  -0.069976   0.069979   0.179508  -0.106179   0.052984
    7  C   1  Z  -0.047403   0.114944   0.098868  -0.122380  -0.025006
    8  C   1  X   0.081814   0.037207  -0.018869   0.211497  -0.369451
    9  C   1  Y  -0.949575   0.152423  -0.483758  -0.305003  -0.230413
   10  C   1  Z   1.146867  -0.403974   1.041391  -0.106503   0.157852
   11  C   1  X   1.586820   0.990901  -1.435087  -0.764384  -0.480217
   12  C   1  Y   1.875059  -2.438353   0.945111   0.830576  -2.059410
   13  C   1  Z  -2.549938  -0.863200  -4.599313  -1.348910   6.480268
   14  C   1 XX   0.024633  -0.003721  -0.043366   0.030635   0.020146
   15  C   1 YY  -0.016824   0.001268   0.040025  -0.043173  -0.025890
   16  C   1 ZZ  -0.007809   0.002453   0.003341   0.012538   0.005744
   17  C   1 XY  -0.012355   0.035559   0.009959  -0.004661   0.016416
   18  C   1 XZ   0.014487   0.029411  -0.009383  -0.017893   0.018665
   19  C   1 YZ  -0.004345  -0.012476   0.025282   0.006021   0.024278
   20  C   1 XX   0.048734  -0.086346   0.354427  -0.109460   0.086405
   21  C   1 YY  -0.072320   0.011788   0.058213   0.123342   0.166023
   22  C   1 ZZ   0.023586   0.074559  -0.412640  -0.013882  -0.252427
   23  C   1 XY   0.066798  -0.332948  -0.074066  -0.138088  -0.320979
   24  C   1 XZ   0.134341   0.046648  -0.028091   0.212072   0.156436
   25  C   1 YZ   0.388784  -0.136726  -0.044237   0.010138   0.114934
   26  C   2  S   0.015048  -0.004132  -0.001335  -0.005939  -0.024164
   27  C   2  S   0.088150   0.033576  -0.006700  -0.011441  -0.172484
   28  C   2  S  -0.568436   0.416149   0.072524   0.268954  -0.030267
   29  C   2  S  -6.999580 -22.145522  -9.295214 -10.847118  41.886124
   30  C   2  X  -0.074929   0.061062  -0.027480  -0.017989   0.006826
   31  C   2  Y   0.005192  -0.005081  -0.025811   0.032790   0.007427
   32  C   2  Z  -0.008415  -0.003103   0.059777   0.027894  -0.061893
   33  C   2  X   0.653491  -1.135140   0.084303  -0.680921   0.951574
   34  C   2  Y  -0.413608  -0.908275  -1.143771  -0.815537   0.901009
   35  C   2  Z   1.911715  -1.416920   0.549136  -0.485754   0.671383
   36  C   2  X  -1.666540   4.441642  -0.635818   1.016056  -4.450040
   37  C   2  Y   1.589561   2.935133   3.860278   0.794837 -11.404878
   38  C   2  Z  -5.431887   6.800506  -5.885549  -0.093061   0.495698
   39  C   2 XX  -0.014595   0.003040  -0.014804  -0.000072  -0.004513
   40  C   2 YY   0.016557  -0.005508  -0.002660   0.028492   0.023447
   41  C   2 ZZ  -0.001963   0.002467   0.017464  -0.028420  -0.018934
   42  C   2 XY   0.013395   0.023897   0.002034   0.001541   0.020661
   43  C   2 XZ  -0.025647   0.007250   0.013888   0.010538  -0.009829
   44  C   2 YZ   0.001849   0.011316   0.016163  -0.020575  -0.001245
   45  C   2 XX  -0.095455   0.180070  -0.193643   0.136080  -0.311457
   46  C   2 YY  -0.158706  -0.459186   0.107373  -0.278235   0.194326
   47  C   2 ZZ   0.254161   0.279116   0.086270   0.142155   0.117130
   48  C   2 XY  -0.164261  -0.082910   0.018775  -0.014595  -0.144606
   49  C   2 XZ  -0.335503   0.629740  -0.049669   0.419650   0.071241
   50  C   2 YZ  -0.490458  -0.077692  -0.320853   0.137815  -0.337698
   51  C   3  S   0.004975  -0.006204   0.023864   0.022374  -0.003173
   52  C   3  S   0.032503  -0.043849   0.102539   0.054986  -0.007240
   53  C   3  S   0.201669  -0.386267  -0.709519  -1.684741   0.144388
   54  C   3  S  -7.496976  21.315103  -8.139014   1.284097 -20.289425
   55  C   3  X   0.060436   0.039802   0.003390  -0.140286   0.013395
   56  C   3  Y  -0.241063  -0.040533  -0.080195   0.052274  -0.048024
   57  C   3  Z  -0.164420   0.032595   0.050577   0.032300   0.057112
   58  C   3  X   0.657666  -1.405207   0.213584  -0.567384   0.338771
   59  C   3  Y   0.265629  -0.518260   0.281346  -0.301951   0.036563
   60  C   3  Z   1.082822  -1.211512   0.432666  -0.442011   0.951526
   61  C   3  X  -3.688534   2.789585  -2.394758   0.491734  -3.740590
   62  C   3  Y   0.228662   2.083367   0.724579   0.702635   0.638625
   63  C   3  Z   0.495833   4.529577  -1.168672   0.143181  -4.093449
   64  C   3 XX   0.004502  -0.008930  -0.009520  -0.034707  -0.017616
   65  C   3 YY  -0.033794   0.017691   0.011517   0.038065   0.002268
   66  C   3 ZZ   0.029292  -0.008761  -0.001997  -0.003358   0.015348
   67  C   3 XY   0.032924  -0.000841   0.005692  -0.010061   0.022259
   68  C   3 XZ   0.014441  -0.005022   0.020605   0.020347  -0.009377
   69  C   3 YZ  -0.019007  -0.016979  -0.017091  -0.005962  -0.040486
   70  C   3 XX   0.239790   0.007499   0.018612   0.114007   0.119091
   71  C   3 YY  -0.161766  -0.050293  -0.127372  -0.080831  -0.227433
   72  C   3 ZZ  -0.078024   0.042793   0.108760  -0.033176   0.108341
   73  C   3 XY   0.002155  -0.324395   0.011309  -0.080956  -0.360974
   74  C   3 XZ   0.663142  -0.379714  -0.172699  -0.353121   0.228377
   75  C   3 YZ   0.106485  -0.228618   0.117333   0.062809   0.089667
   76  H   4  S  -0.000233  -0.084690  -0.018287   0.107469  -0.030526
   77  H   4  S  -0.992754   1.318030  -1.312665   1.031833  -0.282999
   78  H   4  S   1.858602   3.993671   1.161890  -0.997061  -2.640566
   79  H   4  X  -0.013141   0.022982   0.004212  -0.017538   0.000267
   80  H   4  Y   0.002817  -0.023165   0.009367  -0.005291  -0.000970
   81  H   4  Z  -0.001175  -0.013224   0.014821   0.010317  -0.004653
   82  H   4  X  -0.413156   0.394343   0.232001  -0.121516   0.082594
   83  H   4  Y   0.088981  -0.255545   0.318303  -0.255988  -0.333368
   84  H   4  Z   0.001598  -0.462486   0.409493   0.072007   0.231236
   85  H   5  S   0.068111   0.057114  -0.083979   0.059887   0.102188
   86  H   5  S  -1.363635   0.879487  -1.300035  -0.421777   0.728189
   87  H   5  S  -1.675432  -1.749367   4.376593   0.522967  -0.691288
   88  H   5  X   0.020208  -0.000609  -0.012804   0.010754  -0.000468
   89  H   5  Y  -0.006559   0.007492   0.007854  -0.001094   0.012040
   90  H   5  Z   0.004116   0.011209   0.000588  -0.007019  -0.008894
   91  H   5  X   0.392540  -0.026101  -0.110330   0.437964  -0.143396
   92  H   5  Y  -0.092388   0.387291   0.296455   0.025105   0.137871
   93  H   5  Z   0.055566   0.037013   0.151747   0.054526   0.157212
   94  H   6  S  -0.066200  -0.001800   0.109290  -0.131019  -0.035654
   95  H   6  S  -1.286049   1.240554  -0.667278  -0.619154  -0.479114
   96  H   6  S   0.181844  -2.942619  -3.720799   0.531275  -0.411882
   97  H   6  X   0.003166  -0.017609  -0.000094  -0.000343  -0.003719
   98  H   6  Y  -0.004739   0.001756  -0.026990   0.012335   0.013876
   99  H   6  Z   0.003599   0.009710  -0.012555  -0.002504  -0.017507
  100  H   6  X  -0.030140  -0.367093  -0.076435  -0.092860  -0.379956
  101  H   6  Y  -0.056679   0.302058  -0.406900   0.152549  -0.120320
  102  H   6  Z   0.073136  -0.129453  -0.358069  -0.302036  -0.022177
  103  H   7  S   0.064769   0.012134   0.008147   0.088090   0.114015
  104  H   7  S   1.307463   3.800844   1.911479   2.569576  -3.022008
  105  H   7  S   0.760876  -2.260198  -2.081221   0.474182   7.159029
  106  H   7  X  -0.006767   0.004904  -0.003685   0.001282   0.001726
  107  H   7  Y   0.000242  -0.006684  -0.003154  -0.002192   0.017513
  108  H   7  Z  -0.005186   0.004591   0.001915  -0.007085   0.004889
  109  H   7  X  -0.015370  -0.008059  -0.152085  -0.176875   0.268602
  110  H   7  Y  -0.177383  -0.913386  -0.487537  -0.393049   0.993898
  111  H   7  Z  -0.062905  -0.087934   0.094909  -0.458413   0.204557
  112  H   8  S  -0.026322  -0.048192  -0.014364  -0.054027   0.008258
  113  H   8  S   0.915938  -2.025024   1.006836   0.018497   0.188017
  114  H   8  S  -4.273463  -1.670302  -0.329623   1.285816  -0.433626
  115  H   8  X  -0.009017  -0.003306   0.015168   0.023267   0.009283
  116  H   8  Y  -0.017951   0.000181  -0.004119   0.006426  -0.005348
  117  H   8  Z  -0.001555   0.000423  -0.011781  -0.016936   0.010004
  118  H   8  X   0.191496  -0.126402   0.331070   0.511140  -0.030055
  119  H   8  Y  -0.275697  -0.270439  -0.147229  -0.069140  -0.644753
  120  H   8  Z   0.267155   0.264940  -0.420970  -0.092256  -0.004656
  121  H   9  S   0.089065   0.038823   0.032155   0.018492   0.158947
  122  H   9  S   1.694396  -1.177779   0.992314   0.947414   1.487568
  123  H   9  S  -0.372464   0.794833  -2.514756  -0.567637  -1.229525
  124  H   9  X   0.000403  -0.000650  -0.006251  -0.013344   0.011501
  125  H   9  Y  -0.013220   0.013240   0.002353   0.004238   0.005037
  126  H   9  Z  -0.008555  -0.000689   0.005134   0.006191  -0.002267
  127  H   9  X   0.265021   0.133158  -0.120941  -0.220829   0.036531
  128  H   9  Y  -0.275685   0.288804   0.049313   0.093053   0.075898
  129  H   9  Z   0.020818  -0.138373   0.156900   0.397185   0.023960
  130  H  10  S  -0.185540  -0.012184  -0.045462   0.079598  -0.083672
  131  H  10  S   1.545650  -0.572721   1.244142   0.080785  -0.192386
  132  H  10  S   3.779408   4.412877   3.204179   0.578855  -0.469634
  133  H  10  X  -0.021701  -0.000727  -0.009491  -0.004550   0.001216
  134  H  10  Y   0.027008  -0.002748   0.016574  -0.007653   0.000907
  135  H  10  Z   0.003386   0.006164   0.018185   0.012599   0.012079
  136  H  10  X  -0.189274   0.037370  -0.216129  -0.150652  -0.316464
  137  H  10  Y   0.625913  -0.258999   0.050863  -0.426527   0.100802
  138  H  10  Z   0.102229   0.168636   0.340988   0.075090   0.020008
  139  F  11  S   0.003205   0.008510   0.003054   0.008293  -0.010331
  140  F  11  S   0.023062   0.046768   0.030611   0.043734  -0.029601
  141  F  11  S   0.026289   0.001564   0.051262  -0.002660   0.085918
  142  F  11  S   0.404408   1.899589   0.643609   1.233167  -2.117725
  143  F  11  X  -0.056575   0.030442  -0.017874   0.008737  -0.033948
  144  F  11  Y  -0.023167  -0.022537   0.013846   0.053108   0.042911
  145  F  11  Z  -0.019174  -0.025823   0.002486  -0.093906   0.024866
  146  F  11  X  -0.047814  -0.002188  -0.010622   0.003050  -0.010835
  147  F  11  Y  -0.030581  -0.009700   0.029838   0.059841   0.038260
  148  F  11  Z  -0.017868   0.018450  -0.004712  -0.101212   0.010844
  149  F  11  X  -0.038204  -0.604249  -0.307187  -0.654380   0.344821
  150  F  11  Y   0.173868   0.259660  -0.002587   0.069748  -0.146740
  151  F  11  Z  -0.080616   0.304012   0.073551   0.610090  -0.477994
  152  F  11 XX   0.000299   0.000139   0.000526  -0.000549  -0.000946
  153  F  11 YY  -0.000655  -0.000161   0.000025   0.001150   0.000704
  154  F  11 ZZ   0.000357   0.000022  -0.000551  -0.000600   0.000242
  155  F  11 XY  -0.001015  -0.000156   0.000762   0.001328  -0.001256
  156  F  11 XZ  -0.000208   0.000947  -0.001291   0.002889  -0.000649
  157  F  11 YZ  -0.000172   0.000329  -0.001584  -0.000851  -0.000773
  158  F  11 XX   0.000336   0.003379  -0.001534  -0.004378  -0.001642
  159  F  11 YY   0.002290  -0.001836   0.005584   0.001073   0.009029
  160  F  11 ZZ  -0.002626  -0.001543  -0.004050   0.003305  -0.007386
  161  F  11 XY  -0.010118  -0.004913  -0.002102   0.003319   0.003534
  162  F  11 XZ  -0.005525  -0.009482  -0.000585  -0.013220   0.004713
  163  F  11 YZ  -0.007295   0.010965   0.000504   0.004504   0.003285

                     41         42         43         44         45
                    0.2031     0.2177     0.2346     0.2384     0.2613
                     A          A          A          A          A   
    1  C   1  S  -0.007439  -0.022944  -0.020486   0.002749  -0.000372
    2  C   1  S  -0.006482  -0.072543  -0.131712   0.002926   0.072331
    3  C   1  S   0.792352   1.280098   0.069812  -0.195625  -0.141962
    4  C   1  S  10.219725   7.119546   4.932121 -15.191974  10.470624
    5  C   1  X  -0.057167  -0.140478  -0.020769   0.075987   0.053481
    6  C   1  Y   0.123378   0.010692  -0.174835  -0.009614  -0.008624
    7  C   1  Z  -0.163576   0.005353   0.248289  -0.004306  -0.043051
    8  C   1  X  -0.104610  -0.583495   0.219365   0.272475   0.640872
    9  C   1  Y  -0.232046   0.526312   0.882247   0.422840  -0.056800
   10  C   1  Z   0.863100  -0.370174  -0.723554  -0.505682   0.272397
   11  C   1  X  -0.199392  -0.752252   1.688849   1.106001   1.729644
   12  C   1  Y   1.843906   2.235240   2.496669  -2.657669   1.954943
   13  C   1  Z  -1.750537  -2.396544  -2.058838   4.942410  -2.010208
   14  C   1 XX   0.036017   0.005903  -0.014574  -0.001272   0.004014
   15  C   1 YY   0.009172  -0.005989  -0.000924   0.021058   0.006214
   16  C   1 ZZ  -0.045189   0.000086   0.015498  -0.019786  -0.010229
   17  C   1 XY   0.020862   0.037131   0.008560  -0.000685   0.028526
   18  C   1 XZ  -0.000260   0.033825  -0.008770  -0.014060  -0.029082
   19  C   1 YZ   0.019186  -0.017083  -0.049030   0.004047  -0.026455
   20  C   1 XX   0.050781  -0.097154  -0.270906   0.057605  -0.112612
   21  C   1 YY  -0.010803   0.026953  -0.027389  -0.146541  -0.096123
   22  C   1 ZZ  -0.039978   0.070200   0.298295   0.088936   0.208735
   23  C   1 XY  -0.277999  -0.390734   0.030789   0.016929  -0.384214
   24  C   1 XZ   0.148509  -0.353791   0.114848   0.030134   0.342241
   25  C   1 YZ   0.242777   0.017288  -0.408502  -0.228574   0.443680
   26  C   2  S  -0.023176   0.008643   0.011407  -0.002826  -0.014397
   27  C   2  S  -0.128325   0.061055   0.069297   0.006296  -0.101339
   28  C   2  S   0.128360  -0.014009  -0.280104   0.094015   0.082883
   29  C   2  S   4.066626   9.263247  11.643112   9.947054 -11.668273
   30  C   2  X   0.092136   0.042071   0.151559   0.041681   0.036581
   31  C   2  Y   0.206045  -0.052258  -0.109615   0.158046   0.062070
   32  C   2  Z   0.005193  -0.016850   0.289545  -0.028826   0.160049
   33  C   2  X  -0.030188   0.472713  -0.217409  -0.005378   0.036348
   34  C   2  Y   0.079577   0.239543   0.984541   0.778957  -0.556452
   35  C   2  Z   0.574310  -0.530237  -0.672813  -0.358814  -0.107518
   36  C   2  X  -2.776892  -4.070554  -4.083338   0.890919  -0.509837
   37  C   2  Y   0.737665   0.188866   0.840938  -1.498346   2.115436
   38  C   2  Z  -5.996043  -5.743720  -7.730515   5.267960  -1.695422
   39  C   2 XX   0.005132   0.005236   0.047689   0.032464  -0.009953
   40  C   2 YY  -0.035088  -0.000340  -0.021376  -0.033771  -0.003288
   41  C   2 ZZ   0.029956  -0.004896  -0.026313   0.001308   0.013241
   42  C   2 XY   0.014905  -0.015401   0.015794  -0.006113  -0.011245
   43  C   2 XZ   0.008622  -0.011001   0.015307   0.006487   0.039133
   44  C   2 YZ  -0.030486   0.003094   0.054921  -0.004013  -0.000445
   45  C   2 XX  -0.154478   0.197948   0.299715  -0.131320   0.195402
   46  C   2 YY  -0.055974   0.063602   0.172076   0.345041  -0.814648
   47  C   2 ZZ   0.210451  -0.261550  -0.471791  -0.213721   0.619246
   48  C   2 XY  -0.172077   0.316691   0.046480   0.204142  -0.087952
   49  C   2 XZ   0.322328  -0.018730   0.145670   0.056804   0.303046
   50  C   2 YZ  -0.121564   0.436837   0.364131   0.295409  -0.272435
   51  C   3  S   0.015952   0.018900   0.011561  -0.001184   0.006295
   52  C   3  S   0.083932   0.064818   0.017449   0.023663   0.072289
   53  C   3  S  -0.990180  -1.587987  -0.515782   0.208828   0.238411
   54  C   3  S -14.285778 -13.807584 -17.358785   8.074678   3.279330
   55  C   3  X   0.069810  -0.113182   0.029255  -0.004251   0.132372
   56  C   3  Y   0.020529   0.061120   0.062492  -0.139474   0.049624
   57  C   3  Z   0.038478  -0.095885   0.154213   0.071898   0.107945
   58  C   3  X   0.533801  -0.159958  -0.170033  -1.012721  -1.154900
   59  C   3  Y   0.124568   0.547173  -0.570465   0.627769   0.046004
   60  C   3  Z  -0.436393   0.190366   0.091358  -0.169470   0.000215
   61  C   3  X  -4.116168  -2.298166  -5.577680   1.920938  -0.205162
   62  C   3  Y   1.085394  -0.927433  -2.825702  -0.102853  -0.469671
   63  C   3  Z  -4.564699  -3.923444  -1.733456   2.271398  -0.232522
   64  C   3 XX   0.015591  -0.012427  -0.031627  -0.037205  -0.007022
   65  C   3 YY   0.001756   0.009294   0.000496   0.026644   0.021257
   66  C   3 ZZ  -0.017347   0.003133   0.031130   0.010560  -0.014235
   67  C   3 XY   0.003046  -0.012306  -0.040819   0.020967   0.027031
   68  C   3 XZ  -0.043024   0.028481  -0.029291   0.005705  -0.037486
   69  C   3 YZ   0.016721   0.016390  -0.024370  -0.014243  -0.007493
   70  C   3 XX  -0.066780   0.039920   0.305380   0.320451   0.020049
   71  C   3 YY   0.020748  -0.014473   0.170373  -0.263379  -0.046097
   72  C   3 ZZ   0.046032  -0.025447  -0.475752  -0.057072   0.026048
   73  C   3 XY  -0.131927   0.395452   0.075484   0.270175  -0.601573
   74  C   3 XZ   0.250220  -0.132621   0.034856  -0.289094  -0.048898
   75  C   3 YZ  -0.159992   0.063508   0.042200   0.095149   0.072057
   76  H   4  S  -0.038942  -0.105144  -0.028904   0.043291  -0.018694
   77  H   4  S  -1.405179  -2.762557   0.572663   1.397314  -0.247757
   78  H   4  S   0.156708  -0.260267   2.173353  -0.914443   0.976518
   79  H   4  X  -0.011945  -0.001048  -0.001197   0.004949  -0.005323
   80  H   4  Y   0.006864  -0.007179  -0.013803   0.004879  -0.012188
   81  H   4  Z  -0.007202  -0.007906   0.011237  -0.004294   0.002254
   82  H   4  X  -0.450175  -0.259415  -0.010725   0.126076  -0.035648
   83  H   4  Y  -0.017956  -0.214258  -0.233022   0.245033  -0.703770
   84  H   4  Z  -0.071660   0.326308  -0.122829  -0.041600   0.126175
   85  H   5  S   0.028496   0.121996  -0.028656  -0.053756  -0.127293
   86  H   5  S  -1.196017   1.261013  -0.196812   0.336263  -2.653526
   87  H   5  S   0.460181   1.740224   0.090998  -2.081422  -1.620339
   88  H   5  X   0.018174   0.012341  -0.000622  -0.009083   0.004273
   89  H   5  Y   0.015121   0.010214  -0.011652   0.003569   0.003909
   90  H   5  Z  -0.011074   0.015931   0.009706  -0.007632  -0.008035
   91  H   5  X   0.512002  -0.037961  -0.024397  -0.026504   0.479796
   92  H   5  Y   0.323066   0.221958  -0.155793   0.038515   0.208397
   93  H   5  Z   0.024477   0.199936   0.064181  -0.294459  -0.285499
   94  H   6  S   0.088116   0.017148  -0.003200   0.081344  -0.031083
   95  H   6  S  -0.072615  -0.226261   0.923852   1.476048   0.270394
   96  H   6  S   0.929358   1.608598   2.044911  -0.595013   1.461791
   97  H   6  X  -0.006659  -0.020047   0.001676   0.003382  -0.005663
   98  H   6  Y  -0.002037  -0.008862  -0.003442  -0.002189   0.001051
   99  H   6  Z  -0.005468   0.000172   0.021354  -0.001067   0.016934
  100  H   6  X  -0.320307  -0.589787   0.002664   0.022281  -0.328198
  101  H   6  Y  -0.116390   0.013977   0.282554   0.096789   0.537211
  102  H   6  Z  -0.076016   0.241708   0.210113   0.123438   0.550207
  103  H   7  S  -0.102017  -0.046066  -0.028818  -0.155483  -0.003685
  104  H   7  S  -0.099018  -1.506439  -2.134427  -2.604012   2.865160
  105  H   7  S   1.343553   0.128604   0.225079  -0.050969  -0.518530
  106  H   7  X   0.012123  -0.013824   0.017362  -0.001943  -0.006234
  107  H   7  Y  -0.004679   0.002310  -0.008048  -0.010794   0.009684
  108  H   7  Z  -0.009502  -0.002705   0.024614  -0.008054   0.011962
  109  H   7  X   0.169666  -0.292664   0.247188  -0.045414  -0.290699
  110  H   7  Y  -0.269494   0.249757   0.279238  -0.066803  -0.446441
  111  H   7  Z  -0.254792  -0.121739   0.262991   0.021361  -0.202136
  112  H   8  S   0.061827  -0.045493  -0.028742  -0.077204   0.026988
  113  H   8  S   3.141264   0.188425  -0.306910  -2.824683  -1.857666
  114  H   8  S  -1.450658  -0.316604  -4.366981   1.144808  -0.752100
  115  H   8  X   0.002758   0.015177   0.018809   0.021621   0.002533
  116  H   8  Y   0.005083   0.009110   0.011001  -0.009029  -0.006076
  117  H   8  Z   0.004524  -0.016941   0.018871   0.002160   0.011601
  118  H   8  X   0.654711   0.336548   0.113528   0.146763  -0.510595
  119  H   8  Y   0.090228   0.239485   0.363005  -0.250862  -0.866843
  120  H   8  Z   0.274431  -0.407572   0.585682   0.107343   0.295486
  121  H   9  S  -0.113906  -0.084729   0.172376   0.043637  -0.030696
  122  H   9  S  -0.642287   0.266968   2.581049  -1.033504   0.094360
  123  H   9  S  -4.261391  -1.455014   1.159439   0.836507  -0.153776
  124  H   9  X   0.011466  -0.014596  -0.000148   0.001436   0.018211
  125  H   9  Y  -0.001647  -0.009364   0.003768   0.009369   0.008204
  126  H   9  Z   0.010449   0.004022   0.002588  -0.014304   0.001215
  127  H   9  X   0.389020  -0.361071  -0.069451  -0.203132   0.615938
  128  H   9  Y   0.052440  -0.260055  -0.203757   0.459159   0.314839
  129  H   9  Z  -0.041475   0.349750   0.032764  -0.314442   0.347558
  130  H  10  S   0.092892   0.027487   0.106266  -0.056482   0.036955
  131  H  10  S   0.710327   1.645466   0.138747   1.078493   0.683651
  132  H  10  S   2.349328  -2.277945  -0.890538   0.671717  -0.884427
  133  H  10  X   0.001206  -0.011833   0.005557  -0.028647  -0.005586
  134  H  10  Y   0.014947   0.002357   0.000430  -0.003599   0.009998
  135  H  10  Z  -0.004109  -0.002207   0.009062   0.004898   0.002500
  136  H  10  X  -0.115788   0.045004   0.227819  -0.253437  -0.044120
  137  H  10  Y  -0.029969   0.324766  -0.141466   0.499035   0.384281
  138  H  10  Z  -0.212269   0.098087  -0.240779   0.374093   0.175478
  139  F  11  S   0.004034  -0.009877  -0.003085  -0.005004   0.001101
  140  F  11  S   0.016527  -0.044649  -0.018447  -0.013891  -0.003166
  141  F  11  S  -0.024353   0.040235  -0.010020   0.049805  -0.016375
  142  F  11  S   0.869104  -1.299831  -0.363341  -0.697315   0.411471
  143  F  11  X   0.045400  -0.060960   0.008851  -0.106493  -0.067310
  144  F  11  Y  -0.080433  -0.011344  -0.017977  -0.098487   0.080751
  145  F  11  Z   0.017655   0.028990  -0.039302  -0.078658   0.007539
  146  F  11  X   0.024956  -0.058814   0.007782  -0.110928  -0.080339
  147  F  11  Y  -0.051387  -0.022889  -0.027645  -0.105037   0.100278
  148  F  11  Z   0.013538   0.021603  -0.036548  -0.068095   0.007259
  149  F  11  X  -0.794157   1.321057   0.064724   0.905609   0.547597
  150  F  11  Y   0.288458  -0.149371   0.170741   0.277891  -0.534672
  151  F  11  Z   0.204247  -0.533574  -0.186391   0.404684  -0.033177
  152  F  11 XX  -0.004035   0.005454   0.000539   0.005519   0.002252
  153  F  11 YY   0.001898  -0.004071  -0.000760  -0.001945  -0.000897
  154  F  11 ZZ   0.002137  -0.001382   0.000221  -0.003574  -0.001355
  155  F  11 XY   0.002733  -0.001549   0.003145   0.000569  -0.004305
  156  F  11 XZ   0.003395  -0.004940   0.000144   0.001396   0.001727
  157  F  11 YZ  -0.001771   0.002580   0.000926  -0.000897   0.002634
  158  F  11 XX   0.008717  -0.017103  -0.002977  -0.029299  -0.012328
  159  F  11 YY  -0.000358   0.009825  -0.000166   0.007165  -0.004440
  160  F  11 ZZ  -0.008359   0.007277   0.003143   0.022134   0.016768
  161  F  11 XY  -0.018218   0.004279  -0.000292  -0.009161   0.010615
  162  F  11 XZ   0.002798   0.008711  -0.006576  -0.007377   0.009565
  163  F  11 YZ   0.010201  -0.005691   0.007019   0.007244  -0.015465

                     46         47         48         49         50
                    0.2778     0.2883     0.3046     0.3110     0.3236
                     A          A          A          A          A   
    1  C   1  S   0.003564   0.026316   0.018225   0.000963   0.015092
    2  C   1  S  -0.050220  -0.004722   0.046222   0.004834   0.132477
    3  C   1  S  -0.464740  -2.197859  -0.966527  -0.083004  -0.455002
    4  C   1  S  -2.610596   7.306904   5.525992  -1.966134  16.876688
    5  C   1  X   0.058963  -0.050444   0.040968   0.076233  -0.002943
    6  C   1  Y  -0.060256  -0.029217   0.001438  -0.067784  -0.002915
    7  C   1  Z   0.028678   0.002495  -0.116162  -0.006730  -0.106413
    8  C   1  X   0.273397  -0.279567  -0.532550  -0.430332  -0.493005
    9  C   1  Y  -0.711473  -0.325690  -0.204717   0.844884  -1.857228
   10  C   1  Z  -0.170201   1.629175   0.345860   0.874171   1.302679
   11  C   1  X   1.616758  -0.771914   1.178291   1.082342  -0.446835
   12  C   1  Y   0.215854  -0.628015   0.009743  -0.598960  -0.573001
   13  C   1  Z   1.230871  -0.693192  -1.289010  -0.150403  -4.375112
   14  C   1 XX   0.003803   0.024345   0.011216   0.023784  -0.014683
   15  C   1 YY   0.003085   0.022335   0.003712  -0.008388   0.018767
   16  C   1 ZZ  -0.006888  -0.046680  -0.014928  -0.015396  -0.004084
   17  C   1 XY   0.034792  -0.012255  -0.001092  -0.007906  -0.011084
   18  C   1 XZ  -0.027925  -0.008782  -0.004079   0.004629   0.028834
   19  C   1 YZ   0.004778   0.021559   0.016813  -0.018950   0.030024
   20  C   1 XX  -0.272654  -0.222949  -0.084373  -0.089401   0.402638
   21  C   1 YY   0.618454   0.296261  -0.006788   0.122264   0.394249
   22  C   1 ZZ  -0.345800  -0.073312   0.091161  -0.032863  -0.796887
   23  C   1 XY  -0.371609   0.276416  -0.022193  -0.105150   0.734580
   24  C   1 XZ   0.540725  -0.284619  -0.168799   0.151931  -0.005422
   25  C   1 YZ  -0.079693   0.267674   0.320756  -0.010045   0.332900
   26  C   2  S  -0.005988   0.001081  -0.018616   0.007311   0.002407
   27  C   2  S  -0.025306   0.011299  -0.184658   0.035588  -0.030632
   28  C   2  S   0.310642  -0.164758  -0.039398  -0.273285  -0.477614
   29  C   2  S   3.728524 -15.491457 -21.381573   4.413287 -15.709952
   30  C   2  X  -0.110546   0.125363   0.059352  -0.062892   0.054407
   31  C   2  Y  -0.066248   0.125773  -0.050519   0.047161   0.125771
   32  C   2  Z  -0.007740  -0.117796  -0.009387   0.035841  -0.115844
   33  C   2  X  -0.247010   0.370128  -0.703521   0.511985   0.869924
   34  C   2  Y  -0.154389  -1.146458  -1.727847   0.409258  -0.783967
   35  C   2  Z  -0.385024   1.064982  -0.627505   0.370530   2.720127
   36  C   2  X  -2.500015   2.835890   0.209301   0.375543   0.690938
   37  C   2  Y  -1.564474   6.564800  -0.083182   0.152462   5.770729
   38  C   2  Z  -3.823053  -1.757317   1.094125   1.513695  -2.142183
   39  C   2 XX   0.020240  -0.013319  -0.021996   0.007275  -0.010653
   40  C   2 YY  -0.024639  -0.010790   0.015392  -0.018781  -0.012959
   41  C   2 ZZ   0.004399   0.024109   0.006604   0.011506   0.023612
   42  C   2 XY   0.026157  -0.024710   0.014008   0.018436   0.031525
   43  C   2 XZ   0.037218   0.000951   0.030692  -0.002251  -0.001440
   44  C   2 YZ   0.041079   0.037128   0.017816  -0.001781  -0.017585
   45  C   2 XX   0.126531   0.271606   0.182688  -0.076854  -0.231356
   46  C   2 YY   0.234618   0.137698  -0.455153   0.463216   0.393216
   47  C   2 ZZ  -0.361149  -0.409304   0.272465  -0.386362  -0.161860
   48  C   2 XY  -0.377124   0.167058  -0.325056  -0.534564  -0.380772
   49  C   2 XZ   0.289439  -0.485645   0.272003   0.014710  -0.944013
   50  C   2 YZ  -0.404934  -1.064910  -0.379391  -0.457929  -0.989355
   51  C   3  S  -0.004174  -0.004406   0.025509  -0.019008  -0.012675
   52  C   3  S   0.087178  -0.022019   0.087553   0.001967  -0.019183
   53  C   3  S   1.279460   0.140559  -0.838981   0.900578   1.741629
   54  C   3  S  -0.081890   5.678594  10.433200   0.136057   0.916626
   55  C   3  X   0.074416   0.025896   0.108761  -0.025280  -0.020767
   56  C   3  Y   0.037114  -0.019290   0.078264   0.023322   0.164713
   57  C   3  Z   0.043087   0.065316   0.102948   0.045767   0.078732
   58  C   3  X  -0.525710   1.955514  -0.485985   1.153056   0.496568
   59  C   3  Y   0.471417  -0.429522  -0.354004   0.089987   1.946092
   60  C   3  Z  -0.099777   0.016395  -0.948383   0.333441   1.827001
   61  C   3  X   0.210691   1.309695   2.499356  -1.213142  -0.962483
   62  C   3  Y  -0.312759  -1.257711   0.624013   0.337805   1.035778
   63  C   3  Z   1.011443   1.792594   0.656678   0.566593   0.148020
   64  C   3 XX  -0.007842   0.000932   0.004396  -0.018879  -0.016897
   65  C   3 YY  -0.024495   0.010234   0.015074   0.028697  -0.007091
   66  C   3 ZZ   0.032337  -0.011166  -0.019469  -0.009818   0.023987
   67  C   3 XY  -0.010597  -0.014586  -0.026038   0.020319   0.011370
   68  C   3 XZ   0.007671   0.017422  -0.018154   0.027657  -0.010238
   69  C   3 YZ   0.003527  -0.002255  -0.010707  -0.007491   0.003413
   70  C   3 XX   0.136573   0.431142  -0.263756   0.171262   0.677078
   71  C   3 YY  -0.077600  -0.068939   0.292578  -0.563718  -0.419220
   72  C   3 ZZ  -0.058972  -0.362203  -0.028822   0.392456  -0.257858
   73  C   3 XY   0.268784  -0.202575  -0.077930  -0.337830   0.491559
   74  C   3 XZ  -0.101951   0.048193  -0.292936  -0.152171   0.827680
   75  C   3 YZ  -0.410897   0.290316  -0.234249  -0.076155  -0.180251
   76  H   4  S   0.047436   0.040965   0.095089   0.022995  -0.095597
   77  H   4  S   2.822274  -0.299652  -0.191846  -1.467716  -1.480062
   78  H   4  S   0.345937   0.645986   1.102286   1.064074   1.429158
   79  H   4  X  -0.003068  -0.004603   0.001930  -0.009215   0.007560
   80  H   4  Y  -0.007642   0.003613  -0.003908  -0.008643   0.015206
   81  H   4  Z   0.013408  -0.010773  -0.003468   0.000568  -0.004352
   82  H   4  X   0.295404  -0.482248  -0.332497  -0.860274  -0.054597
   83  H   4  Y  -0.702728   0.590913   0.338223   0.031684   0.723650
   84  H   4  Z  -0.010351  -0.675543  -0.119433   0.358343   0.152639
   85  H   5  S  -0.017655   0.020357  -0.008959   0.011268  -0.035869
   86  H   5  S   0.208365   1.512093   1.250929  -0.230823  -0.146157
   87  H   5  S  -0.077302   0.661872  -1.247147  -0.678557   1.361689
   88  H   5  X  -0.003480   0.003022   0.003188   0.010576  -0.007233
   89  H   5  Y   0.010207  -0.006922  -0.004426  -0.008522  -0.001631
   90  H   5  Z  -0.013917  -0.006413  -0.003299  -0.004834   0.000767
   91  H   5  X   0.194351   0.168055  -0.151819  -0.041955  -0.830659
   92  H   5  Y   0.667986  -0.032717  -0.060891  -0.154036  -0.274379
   93  H   5  Z  -0.462582  -0.559878  -0.507420  -0.312931   0.222170
   94  H   6  S   0.062356   0.062535  -0.034927  -0.032515  -0.020521
   95  H   6  S  -1.775912   0.771440   0.060914   0.983584  -4.076919
   96  H   6  S   0.400749  -0.926020  -0.457986  -0.125504  -2.163647
   97  H   6  X  -0.007007   0.005498   0.002359   0.006940   0.009661
   98  H   6  Y   0.002467   0.004977   0.000025   0.008670  -0.000475
   99  H   6  Z  -0.005213   0.003471  -0.004277   0.002999  -0.011767
  100  H   6  X  -0.440225   0.201788  -0.012295  -0.017472   0.317636
  101  H   6  Y  -0.529624   0.449972   0.315102   0.497521  -0.400365
  102  H   6  Z  -0.086280  -0.465914  -0.080455   0.207589  -0.521544
  103  H   7  S   0.038061  -0.037373   0.212664  -0.064702   0.002517
  104  H   7  S  -0.189908   2.485695   6.150218  -1.330221   0.906378
  105  H   7  S   1.271362  -2.846958   2.362287  -1.196185  -2.917108
  106  H   7  X   0.005463  -0.004156   0.007626   0.001934   0.009337
  107  H   7  Y   0.001011  -0.011024   0.007143  -0.008226  -0.005800
  108  H   7  Z   0.017192   0.013476   0.007909   0.009604  -0.000667
  109  H   7  X   0.751325  -0.609950  -0.144116   0.643907   0.826499
  110  H   7  Y   0.063635  -0.987939  -0.849810  -0.110964  -0.321850
  111  H   7  Z   0.965038   1.003389   0.351786   0.302719   0.289779
  112  H   8  S  -0.058231   0.018259   0.000511  -0.075563  -0.001307
  113  H   8  S  -2.638856   2.864407   0.544585   0.618712  -1.032096
  114  H   8  S  -0.238791   1.432591   1.020157  -1.437792  -0.834432
  115  H   8  X   0.007665   0.006676   0.001458   0.006978   0.008766
  116  H   8  Y   0.002094   0.002084   0.007978  -0.003038   0.005071
  117  H   8  Z   0.004502  -0.002795   0.002377  -0.005727   0.007204
  118  H   8  X  -0.482267   0.812338   0.170229   0.512594   0.049065
  119  H   8  Y   0.182947  -0.053375   0.410148  -0.717433  -0.141103
  120  H   8  Z  -0.094778   0.139686   0.107550  -0.810908   0.998612
  121  H   9  S  -0.016927   0.026515  -0.032509   0.014965   0.010252
  122  H   9  S  -2.407984   1.268306  -1.375320  -0.442423   0.404535
  123  H   9  S  -0.224641  -0.157799  -1.308550   0.923510  -1.199901
  124  H   9  X   0.001454  -0.015704   0.000804  -0.004017  -0.000676
  125  H   9  Y  -0.003560   0.009727   0.004015   0.011699  -0.003440
  126  H   9  Z  -0.009090  -0.004906   0.007049   0.006114  -0.014520
  127  H   9  X  -0.406807  -0.397384   0.019421  -0.143127  -0.098772
  128  H   9  Y  -0.249759   0.081296   0.245360   0.507382  -0.325842
  129  H   9  Z  -0.651486   0.013884  -0.093527   0.173882  -0.181878
  130  H  10  S  -0.116855   0.037614   0.055615  -0.025371   0.056141
  131  H  10  S   0.493348  -0.798854   0.399417  -0.863971   5.781604
  132  H  10  S  -1.107303   0.525583   0.212894   0.315520   2.275890
  133  H  10  X   0.001509   0.012319   0.000305   0.004684  -0.015159
  134  H  10  Y   0.002015  -0.006865   0.003315  -0.009017   0.007401
  135  H  10  Z  -0.000473   0.016757   0.009586   0.007086  -0.006773
  136  H  10  X  -0.340102   0.217719   0.609071  -0.671640  -0.580752
  137  H  10  Y   0.540202  -0.346327   0.347960  -0.730300   0.992029
  138  H  10  Z  -0.180800   0.124474   0.394491  -0.106790   0.119299
  139  F  11  S   0.002109  -0.004425   0.000541   0.001339  -0.000167
  140  F  11  S   0.016727  -0.007630   0.018086   0.005263   0.024066
  141  F  11  S   0.022899   0.054737   0.068418  -0.006748   0.106859
  142  F  11  S  -0.584009   0.937971   0.813751   0.129026   0.218690
  143  F  11  X  -0.035159   0.040138  -0.036534   0.007791  -0.029991
  144  F  11  Y   0.016811   0.114291  -0.067157  -0.032286  -0.012378
  145  F  11  Z  -0.033781  -0.020647   0.042765   0.131393   0.024528
  146  F  11  X  -0.010445  -0.016972  -0.058810   0.016072  -0.031745
  147  F  11  Y   0.046876   0.148291  -0.164869  -0.031432   0.017123
  148  F  11  Z  -0.084127  -0.016559   0.076494   0.197211  -0.013818
  149  F  11  X  -0.070435  -0.071419   0.731501  -0.731583   0.732992
  150  F  11  Y  -0.117361  -1.186459   1.441332  -0.009448  -0.154801
  151  F  11  Z   0.563498   0.080611  -0.140145  -1.729120  -0.082438
  152  F  11 XX  -0.003715  -0.000920   0.005209  -0.008232   0.004102
  153  F  11 YY   0.000923   0.000086  -0.006670   0.000174  -0.002356
  154  F  11 ZZ   0.002791   0.000834   0.001461   0.008058  -0.001746
  155  F  11 XY   0.000193  -0.005354   0.005705  -0.001241  -0.001021
  156  F  11 XZ   0.002089  -0.003872  -0.002439  -0.007583  -0.000596
  157  F  11 YZ  -0.000897   0.004740  -0.001146  -0.000589   0.001703
  158  F  11 XX   0.003045   0.021178  -0.009694   0.015163  -0.004229
  159  F  11 YY  -0.002370  -0.016565   0.003337   0.008540   0.021698
  160  F  11 ZZ  -0.000675  -0.004613   0.006357  -0.023703  -0.017469
  161  F  11 XY  -0.002240   0.016493  -0.002533   0.005171  -0.006845
  162  F  11 XZ   0.003075   0.001988   0.006771   0.023022   0.005106
  163  F  11 YZ   0.010479  -0.015918  -0.010686   0.011509   0.005191

                     51         52         53         54         55
                    0.3290     0.3363     0.3443     0.3548     0.3605
                     A          A          A          A          A   
    1  C   1  S  -0.000432  -0.007052   0.014089  -0.004735   0.021575
    2  C   1  S  -0.094054   0.086686   0.062631   0.084671   0.039608
    3  C   1  S  -1.026698   0.742763  -0.983245   0.938936  -1.269639
    4  C   1  S  -5.812245   2.262691   8.902970  11.417907   5.934476
    5  C   1  X   0.045352  -0.195886   0.089066   0.083945   0.051891
    6  C   1  Y  -0.156188  -0.129821   0.063473  -0.034727  -0.018310
    7  C   1  Z  -0.063107   0.014273   0.033394   0.062967   0.128415
    8  C   1  X   0.693797  -1.449680   0.912297   0.960423   2.484629
    9  C   1  Y  -0.915525  -1.795586   0.095375  -0.018182  -0.719004
   10  C   1  Z  -2.322607   1.412222   2.450085   1.361427   2.008442
   11  C   1  X   0.456291  -3.456135   1.973730   1.668020   1.032294
   12  C   1  Y  -4.760285  -1.420264   1.297563   0.265555   2.107445
   13  C   1  Z  -2.784349  -0.274552  -0.778618  -1.685794   0.469131
   14  C   1 XX  -0.035092  -0.006807   0.031810   0.010276   0.026530
   15  C   1 YY  -0.009363   0.008392  -0.023508  -0.021411  -0.010654
   16  C   1 ZZ   0.044455  -0.001584  -0.008302   0.011136  -0.015876
   17  C   1 XY   0.031298  -0.008530   0.014275   0.010725   0.009218
   18  C   1 XZ   0.020717  -0.009753   0.000876  -0.011422   0.016830
   19  C   1 YZ   0.011574   0.014615   0.007339   0.022991  -0.007519
   20  C   1 XX  -0.173630   0.040276   0.298150   0.529944   0.172706
   21  C   1 YY   0.775192   0.752870  -0.280456   0.190281  -0.066989
   22  C   1 ZZ  -0.601562  -0.793146  -0.017694  -0.720224  -0.105717
   23  C   1 XY  -0.218431   0.138824  -0.371729  -0.134219   0.065007
   24  C   1 XZ   0.033564  -0.300929   0.490971  -0.132171   0.360386
   25  C   1 YZ  -0.835248   0.155425   0.460234  -0.065772   0.304034
   26  C   2  S   0.024313  -0.029693   0.011441  -0.039869  -0.012085
   27  C   2  S   0.106915  -0.055124   0.055647  -0.074722   0.016137
   28  C   2  S  -0.503091   1.635889  -0.129647   2.484648   0.171753
   29  C   2  S   4.170841  14.257507  -1.383339  -9.354111  -0.728302
   30  C   2  X   0.004353  -0.059483  -0.201856   0.100503   0.088167
   31  C   2  Y   0.090331   0.056621   0.129462   0.164948  -0.166638
   32  C   2  Z   0.106720  -0.001224  -0.081055   0.000374  -0.147967
   33  C   2  X   0.770768  -0.110935   1.932847  -0.559042   0.253654
   34  C   2  Y   1.362109  -0.242708   0.769456  -0.409299  -1.681857
   35  C   2  Z  -0.735826   0.949456   3.481141   0.492999   0.714515
   36  C   2  X   0.972091  -2.884268  -3.791317   1.511856   0.440411
   37  C   2  Y   3.604579  -3.250409   3.825032   3.939677  -3.191391
   38  C   2  Z   3.816331  -1.158412  -2.277296  -0.949741  -3.641170
   39  C   2 XX  -0.001922  -0.010392  -0.016206   0.001085  -0.005794
   40  C   2 YY   0.007365  -0.017366   0.027201  -0.004318  -0.000947
   41  C   2 ZZ  -0.005442   0.027758  -0.010995   0.003233   0.006742
   42  C   2 XY  -0.016741  -0.000956  -0.001313  -0.013432  -0.023743
   43  C   2 XZ  -0.007249  -0.000149  -0.030147   0.012884  -0.024093
   44  C   2 YZ   0.023106   0.011560  -0.013450  -0.008990   0.012106
   45  C   2 XX  -0.005819  -0.545861  -0.660634   0.301163  -0.194915
   46  C   2 YY   0.582442   0.754583   0.534936   0.580169  -0.065899
   47  C   2 ZZ  -0.576623  -0.208722   0.125698  -0.881332   0.260814
   48  C   2 XY   0.035309   0.185334  -0.408293   0.402597   0.208098
   49  C   2 XZ  -0.090787  -0.034513  -0.506688  -0.075665   0.015507
   50  C   2 YZ  -0.094568  -0.879335  -0.777157  -0.110420  -0.667453
   51  C   3  S   0.004177  -0.013997  -0.020062  -0.005654   0.016104
   52  C   3  S  -0.056418   0.020429  -0.160647   0.076292  -0.036938
   53  C   3  S  -0.906851   1.738732   0.042063   0.360146  -1.556819
   54  C   3  S  -0.396864  -9.836547 -10.670010   6.607938  -6.100772
   55  C   3  X   0.036498   0.008247   0.014772   0.023275  -0.074252
   56  C   3  Y   0.068486  -0.003705   0.056700  -0.068631   0.119093
   57  C   3  Z  -0.066597   0.005648  -0.022539  -0.080705  -0.100416
   58  C   3  X   1.073390   0.556616   3.555409   0.742775   0.560168
   59  C   3  Y   1.257325  -0.225117   0.008721  -0.802780   2.005674
   60  C   3  Z  -0.393845   0.194959   2.490896  -1.544988  -1.161940
   61  C   3  X   0.384885  -1.115617   1.774790   0.597686  -1.160217
   62  C   3  Y   0.918010   0.599353  -1.280006  -0.792069   2.651869
   63  C   3  Z  -1.599306  -3.120174  -0.854294   0.490202  -1.727318
   64  C   3 XX   0.006669   0.041693   0.015785  -0.029663  -0.002377
   65  C   3 YY  -0.004534   0.001974  -0.019714   0.006335   0.004652
   66  C   3 ZZ  -0.002135  -0.043667   0.003930   0.023328  -0.002275
   67  C   3 XY   0.023747   0.002529  -0.012990  -0.021590   0.024331
   68  C   3 XZ  -0.011086   0.012813   0.056913  -0.006640   0.009686
   69  C   3 YZ  -0.006580   0.002935   0.005138   0.000838  -0.011095
   70  C   3 XX  -0.218823  -0.040382  -0.013164   0.410125   0.028865
   71  C   3 YY  -0.106319  -0.211570  -0.270348   0.598102  -0.300045
   72  C   3 ZZ   0.325142   0.251952   0.283512  -1.008227   0.271179
   73  C   3 XY  -0.272352  -0.194086   0.109986   0.194647  -0.212205
   74  C   3 XZ   0.289441  -0.540196   0.638288  -0.290336   0.221126
   75  C   3 YZ  -0.192543   0.151055   0.425767   0.122986   0.011075
   76  H   4  S   0.042221  -0.090545  -0.010496  -0.002399  -0.076969
   77  H   4  S   5.639225  -3.202031  -1.476046  -1.001498   2.094682
   78  H   4  S   4.061573  -2.822205  -0.568763   1.701759   0.260710
   79  H   4  X   0.016258  -0.002765  -0.007264   0.000084  -0.003974
   80  H   4  Y  -0.009250   0.004654  -0.006171  -0.002279  -0.008240
   81  H   4  Z   0.013479   0.000807  -0.001557   0.005212  -0.016848
   82  H   4  X   1.235869   0.377875  -0.438333   0.231744   0.433216
   83  H   4  Y  -0.425032   0.157671  -0.593610  -0.413922  -0.149202
   84  H   4  Z   0.120792   0.489047   0.150691   0.037209  -1.277815
   85  H   5  S   0.042841  -0.041173   0.004981  -0.086809  -0.013061
   86  H   5  S   2.204572   0.979720  -4.212112  -3.266698  -5.804902
   87  H   5  S   1.108409   3.517707  -0.202354  -1.878919  -2.134774
   88  H   5  X  -0.005890  -0.001107   0.006441  -0.001772   0.009777
   89  H   5  Y   0.009804   0.002134   0.005363  -0.000368   0.003307
   90  H   5  Z   0.022242  -0.000788  -0.013569  -0.000627   0.001641
   91  H   5  X  -0.539035  -0.090872   0.862515  -0.146879   1.204337
   92  H   5  Y   0.572231  -0.124096   0.391976   0.150020  -0.072962
   93  H   5  Z   0.447135  -0.007104  -0.249130   0.382110   0.430897
   94  H   6  S   0.021533  -0.070960  -0.039704  -0.105864  -0.054959
   95  H   6  S  -2.389601  -5.919225   1.833303  -1.315479   0.164106
   96  H   6  S  -3.459003  -2.769436   0.709634  -0.370856   1.191596
   97  H   6  X  -0.011185   0.001055  -0.004818  -0.000460  -0.010463
   98  H   6  Y   0.001973   0.003735   0.008280   0.006269   0.008194
   99  H   6  Z  -0.012398  -0.015238   0.001896  -0.011045   0.000716
  100  H   6  X  -0.654675   0.170166  -0.275898  -0.211817  -0.427105
  101  H   6  Y  -0.348706  -0.665213   0.692562   0.254240   0.301322
  102  H   6  Z  -0.919322  -0.264470  -0.011926  -0.944262   0.276882
  103  H   7  S  -0.069922  -0.046801  -0.007044  -0.019249  -0.010172
  104  H   7  S  -3.212167  -2.602557  -2.685377  -1.970067   2.454636
  105  H   7  S  -2.785537   2.618527  -2.279935  -2.354392   2.100994
  106  H   7  X  -0.007597   0.002001  -0.009153  -0.002102  -0.000853
  107  H   7  Y  -0.011748  -0.005705   0.005477  -0.008539   0.001938
  108  H   7  Z   0.016332   0.014020  -0.010127   0.002182   0.000522
  109  H   7  X  -0.286453   0.108598   0.641677  -0.318205  -1.078470
  110  H   7  Y   0.308062   0.128402   0.532019   0.186061  -0.358737
  111  H   7  Z   0.564495   0.852456   0.110255   0.183861   0.624294
  112  H   8  S   0.051045   0.024969   0.029577  -0.076589   0.009750
  113  H   8  S   4.162758  -0.512991   5.861719   0.070351   4.082371
  114  H   8  S   0.627430  -0.318862   3.074586   0.405618   1.395185
  115  H   8  X  -0.015744  -0.004175  -0.011868   0.014198  -0.001162
  116  H   8  Y  -0.004850  -0.002295   0.005499   0.003118  -0.009871
  117  H   8  Z  -0.000427  -0.000003  -0.007272   0.007613   0.000983
  118  H   8  X   0.544991  -0.369080   0.263422   0.878411   1.171739
  119  H   8  Y  -0.524699  -0.177421   0.027437   0.605015  -0.724657
  120  H   8  Z  -0.236636  -1.284144  -0.775463   0.804523  -0.073123
  121  H   9  S   0.025718  -0.040949   0.045020  -0.046217   0.008965
  122  H   9  S  -1.985941  -0.686926   3.316727  -0.094293  -3.141014
  123  H   9  S  -1.027709  -2.068406  -0.055017  -0.492503  -3.138764
  124  H   9  X   0.005544  -0.004385  -0.022790  -0.011106   0.002284
  125  H   9  Y   0.003199   0.003812   0.002219   0.001054   0.002784
  126  H   9  Z   0.001225   0.013741  -0.003244  -0.009783  -0.005446
  127  H   9  X   0.633257  -0.222101  -0.593681  -0.501941   0.219727
  128  H   9  Y   0.249635   0.482132  -0.404880  -0.847905   0.596878
  129  H   9  Z  -0.423807  -0.095963   0.302497  -0.121508  -0.720009
  130  H  10  S  -0.003813  -0.002735   0.087486  -0.054687  -0.019099
  131  H  10  S   1.438011  -1.512810   0.987444  -3.703740   2.124727
  132  H  10  S   1.628074   0.500357   0.189407  -0.501372   1.380290
  133  H  10  X  -0.004264   0.012791   0.003144   0.004665  -0.003899
  134  H  10  Y   0.005295  -0.003805  -0.008215  -0.006050   0.003188
  135  H  10  Z   0.000834   0.009918   0.002473   0.002015   0.010118
  136  H  10  X  -0.207177   0.041617   0.391740   0.385918  -0.649828
  137  H  10  Y   0.161820  -0.352397  -0.368579  -0.483785   0.065700
  138  H  10  Z   0.285004   0.103278   0.142641   0.009531   0.125977
  139  F  11  S   0.000625  -0.002127   0.001344  -0.003031  -0.005577
  140  F  11  S   0.006827  -0.031419  -0.025135  -0.004497   0.006893
  141  F  11  S   0.016082  -0.091555  -0.120411   0.038045   0.126658
  142  F  11  S   0.081067   0.053784   1.096384   0.070725  -0.709582
  143  F  11  X   0.021391   0.004784  -0.046019   0.001496   0.073681
  144  F  11  Y  -0.005253  -0.030936   0.007886   0.020082  -0.039754
  145  F  11  Z   0.038447  -0.021116  -0.011037  -0.002712  -0.062719
  146  F  11  X   0.011002  -0.065925  -0.144771  -0.013395   0.087728
  147  F  11  Y  -0.018601  -0.034929   0.001046   0.025948  -0.086517
  148  F  11  Z   0.047753  -0.031758  -0.016624   0.016274  -0.099903
  149  F  11  X  -0.129235  -0.398458   0.601140  -0.531201  -0.779504
  150  F  11  Y   0.016706   0.633975   0.419787  -0.087704   0.532999
  151  F  11  Z  -0.417836   0.400889   0.245272  -0.418771   0.492637
  152  F  11 XX   0.000194  -0.004990   0.001424  -0.004317  -0.000523
  153  F  11 YY  -0.000035   0.003721  -0.001046   0.000429   0.000525
  154  F  11 ZZ  -0.000158   0.001269  -0.000378   0.003888  -0.000003
  155  F  11 XY   0.001048   0.004065   0.004631   0.000899   0.000495
  156  F  11 XZ  -0.001667   0.003658   0.001029  -0.002089  -0.000407
  157  F  11 YZ   0.001282  -0.004676  -0.001387  -0.000314  -0.001761
  158  F  11 XX   0.008076   0.021622   0.011248   0.006983   0.017194
  159  F  11 YY  -0.009320  -0.008155   0.005581   0.002418  -0.011129
  160  F  11 ZZ   0.001244  -0.013467  -0.016829  -0.009402  -0.006066
  161  F  11 XY   0.000190  -0.011568  -0.002390  -0.004480   0.000371
  162  F  11 XZ   0.004617  -0.000166   0.000671  -0.002665  -0.006887
  163  F  11 YZ  -0.011315   0.008437   0.000196  -0.011469   0.001089

                     56         57         58         59         60
                    0.3651     0.3698     0.4060     0.4142     0.4271
                     A          A          A          A          A   
    1  C   1  S  -0.006046   0.003161  -0.012322  -0.041956  -0.048411
    2  C   1  S  -0.072590  -0.054847   0.007353  -0.009219   0.021917
    3  C   1  S  -0.349574  -1.259076   1.126170   2.371000   5.215433
    4  C   1  S  -7.594333   2.997353  -4.733120  -3.280010   2.478674
    5  C   1  X  -0.029824  -0.087757   0.052545   0.067625  -0.134457
    6  C   1  Y  -0.006063   0.105885   0.058685   0.091296   0.021281
    7  C   1  Z   0.062984   0.077278  -0.069746  -0.042765   0.070085
    8  C   1  X  -0.673593  -1.269298   2.086830   1.242750  -1.492904
    9  C   1  Y   0.766270   2.325824   0.745605   0.594492  -1.474493
   10  C   1  Z  -1.217665   0.615974  -0.791715  -0.421607   1.906489
   11  C   1  X  -1.676089  -2.550310   1.355327   1.655398  -1.727393
   12  C   1  Y   0.590613   2.600124  -0.178364   0.367231   0.874212
   13  C   1  Z   1.636612  -0.109297   1.163963   1.438156   1.058603
   14  C   1 XX  -0.006098   0.008088   0.010661   0.009783   0.005444
   15  C   1 YY  -0.002195  -0.023244  -0.002819  -0.004995   0.004716
   16  C   1 ZZ   0.008293   0.015156  -0.007842  -0.004788  -0.010160
   17  C   1 XY  -0.022295  -0.033036   0.000746   0.003480   0.005880
   18  C   1 XZ   0.017935  -0.023311   0.029856   0.016977  -0.014692
   19  C   1 YZ  -0.024285  -0.000515  -0.012594  -0.014826   0.007817
   20  C   1 XX  -0.218479   0.098434   0.034528  -0.554041   0.060874
   21  C   1 YY  -0.174342  -0.259927   0.195831   0.622765   0.040482
   22  C   1 ZZ   0.392820   0.161493  -0.230359  -0.068724  -0.101356
   23  C   1 XY   0.358671   0.020049   0.504360   0.141170   0.411651
   24  C   1 XZ   0.010543  -0.576904   0.145133   0.098112   0.131714
   25  C   1 YZ  -0.297913  -0.140182  -0.355861  -0.160225   0.279148
   26  C   2  S  -0.004688  -0.018507  -0.011567  -0.012092   0.026040
   27  C   2  S  -0.018566  -0.009016  -0.036770   0.000174   0.027012
   28  C   2  S   0.448981   1.654853   1.459207   0.966444  -1.531666
   29  C   2  S  -1.078007  -8.836943   0.139077   1.946222  17.360554
   30  C   2  X   0.010499   0.020577   0.063627   0.000679   0.136607
   31  C   2  Y  -0.035193   0.061526   0.069881   0.053389   0.028163
   32  C   2  Z   0.154642   0.059506   0.029961  -0.031066   0.088605
   33  C   2  X  -1.198513  -0.548995  -1.029967   0.081432   3.258432
   34  C   2  Y   0.562193   0.824255   0.691088   1.181454   0.424435
   35  C   2  Z  -1.986261  -0.434995  -1.261128  -0.950283   3.574032
   36  C   2  X  -0.213556   2.145100   1.396669   0.310167  -1.757788
   37  C   2  Y  -2.524880   2.805129   0.176102  -0.350398  -3.576634
   38  C   2  Z   3.544631  -0.641189   1.467187   0.516662  -2.802202
   39  C   2 XX   0.015042  -0.006285  -0.010874  -0.034843  -0.005129
   40  C   2 YY  -0.003829   0.018252  -0.011807   0.007866   0.004263
   41  C   2 ZZ  -0.011212  -0.011967   0.022681   0.026977   0.000866
   42  C   2 XY   0.030857  -0.004152   0.014879   0.006084   0.002625
   43  C   2 XZ   0.016873   0.017237  -0.001392   0.002353   0.011917
   44  C   2 YZ   0.025492   0.025696   0.006225   0.032569  -0.029305
   45  C   2 XX   0.097535   0.237214   0.252795   0.014217  -0.212254
   46  C   2 YY  -0.438558  -0.030935   0.069869   0.189332   0.088849
   47  C   2 ZZ   0.341023  -0.206279  -0.322664  -0.203549   0.123404
   48  C   2 XY  -0.313113   0.248578   0.253544  -0.200474  -0.141725
   49  C   2 XZ   0.355044   0.006387   0.038814  -0.182138  -0.916003
   50  C   2 YZ   0.490407  -0.183933   0.066230  -0.429293   0.226587
   51  C   3  S   0.012272  -0.003582   0.006408  -0.040752  -0.005763
   52  C   3  S   0.104479   0.026673   0.047786   0.004215   0.002829
   53  C   3  S  -0.616039   0.994495  -0.154188   3.673553   0.377069
   54  C   3  S   8.374108   5.464207   6.448363   6.259815 -16.382130
   55  C   3  X   0.207108  -0.041311   0.060370  -0.030073   0.147189
   56  C   3  Y   0.057559   0.182805  -0.034698  -0.035318   0.037402
   57  C   3  Z  -0.187422   0.031975   0.063479  -0.023200   0.168604
   58  C   3  X   0.406387  -1.468836   0.019376  -1.300225   3.217152
   59  C   3  Y   0.086122   1.939806  -1.333404  -0.280199   2.518969
   60  C   3  Z  -3.329132  -0.489773  -0.430580  -0.357484   2.632043
   61  C   3  X   6.357818  -1.389591   1.406786   0.117466  -1.427236
   62  C   3  Y   1.620380   2.281018  -1.055175  -0.745547   0.632859
   63  C   3  Z  -3.562838   0.702821   2.073741   0.824623  -3.008585
   64  C   3 XX  -0.021135  -0.002842   0.022559   0.039405  -0.020342
   65  C   3 YY   0.040883  -0.012127  -0.007384  -0.010647   0.005696
   66  C   3 ZZ  -0.019749   0.014969  -0.015175  -0.028758   0.014646
   67  C   3 XY  -0.010850   0.025366  -0.016447  -0.003924   0.000323
   68  C   3 XZ   0.011760  -0.023061   0.001010  -0.013265   0.019332
   69  C   3 YZ  -0.024809  -0.015600   0.009641  -0.001213   0.008957
   70  C   3 XX  -0.698021   0.203983   0.091678   0.307147  -0.502730
   71  C   3 YY   0.073132  -0.061528   0.256396  -0.521399   0.216399
   72  C   3 ZZ   0.624890  -0.142455  -0.348074   0.214251   0.286331
   73  C   3 XY  -0.254021  -0.142850  -0.030919   0.265016   0.848965
   74  C   3 XZ  -0.580664   0.045747  -0.918941  -0.139324   0.853551
   75  C   3 YZ  -0.490338  -0.419929  -0.441246  -0.255653   0.056502
   76  H   4  S  -0.032513   0.065834  -0.038840  -0.003759  -0.030837
   77  H   4  S   0.490667  -3.449233   3.418335   1.783225  -5.107765
   78  H   4  S  -3.094062  -2.180298   0.637110   0.532604  -2.878969
   79  H   4  X  -0.001520  -0.007620  -0.005830  -0.000262  -0.003146
   80  H   4  Y   0.001979  -0.000222  -0.005929  -0.000376   0.007311
   81  H   4  Z   0.000612   0.006818  -0.012188  -0.001191  -0.002300
   82  H   4  X  -0.206348  -0.373065   0.858348  -0.830159  -0.926862
   83  H   4  Y   0.225886   0.192700   0.465402  -1.068311   0.517028
   84  H   4  Z  -0.206163   0.476515  -0.123852  -0.540453   1.342761
   85  H   5  S   0.041713   0.015730   0.048432   0.024450  -0.026296
   86  H   5  S   2.391248   2.475548  -2.763461  -1.320345  -1.419406
   87  H   5  S   0.956776   1.640545  -1.582392  -2.394913   0.737651
   88  H   5  X   0.000766  -0.001372   0.002652   0.010488   0.007147
   89  H   5  Y  -0.008846  -0.014553   0.003432  -0.002252   0.010362
   90  H   5  Z   0.005740   0.004333   0.012898   0.004452  -0.007049
   91  H   5  X  -0.571654  -0.181212   0.853973   0.475344   0.827098
   92  H   5  Y  -0.604925  -0.850279  -1.336739  -0.148059  -0.339023
   93  H   5  Z  -0.119013  -0.465855   0.583553   0.761285  -0.180211
   94  H   6  S  -0.005539  -0.010112   0.025149   0.045999   0.007817
   95  H   6  S   1.305529   4.657119   0.596835  -1.174902  -4.240849
   96  H   6  S   2.019966   2.709019   0.620164   1.462307   0.289734
   97  H   6  X   0.004353   0.011120  -0.001447  -0.008421  -0.002381
   98  H   6  Y   0.000165   0.006700   0.005837   0.004009  -0.006107
   99  H   6  Z   0.002549   0.002103   0.000528  -0.000812  -0.009615
  100  H   6  X   0.434787   0.437517  -1.016224   0.058546   0.148509
  101  H   6  Y   0.059391   0.986490   0.210212  -0.558951  -1.333270
  102  H   6  Z   0.043083  -0.473411  -0.046214  -0.292697  -0.154053
  103  H   7  S   0.005486   0.016479  -0.013168   0.026944  -0.023202
  104  H   7  S   0.529951  -1.424863  -1.653005  -2.431832  -3.407839
  105  H   7  S   1.335414  -2.723766  -0.985977  -0.143593   1.763931
  106  H   7  X   0.012636   0.003519   0.008038   0.002749  -0.000926
  107  H   7  Y   0.006292   0.006825  -0.002495   0.006273   0.002002
  108  H   7  Z   0.012888   0.010269   0.006519   0.015020  -0.014044
  109  H   7  X   0.745757   0.006616   0.062978   0.195212  -0.190900
  110  H   7  Y  -0.162239   0.636544   0.441587   0.811809   1.226916
  111  H   7  Z  -0.148798   0.525259   0.237524   0.889071  -0.575193
  112  H   8  S  -0.042588   0.021649   0.029670   0.083207  -0.014989
  113  H   8  S   3.469593  -2.523042  -1.085940  -4.460057   5.392143
  114  H   8  S   6.982226  -2.070954   0.468530  -0.805476   1.605986
  115  H   8  X   0.001803   0.003461   0.007770  -0.001222  -0.010709
  116  H   8  Y   0.002146  -0.000064   0.008902  -0.001121  -0.006734
  117  H   8  Z  -0.003934   0.007421   0.002690  -0.007827   0.007632
  118  H   8  X   0.380123  -0.297369   0.015028  -0.867109   0.303071
  119  H   8  Y   0.003648  -1.014862   0.539726   0.724170   0.810771
  120  H   8  Z  -0.338987   0.450201  -0.859187   0.129128  -0.903424
  121  H   9  S  -0.074627   0.025880  -0.035743  -0.041618   0.041897
  122  H   9  S  -6.818502  -2.546771  -0.143664  -2.345271  -0.654856
  123  H   9  S  -4.079395  -1.246470   1.803398   0.506033  -1.454582
  124  H   9  X   0.002340   0.010041  -0.001264   0.003613  -0.005424
  125  H   9  Y   0.009082  -0.000202  -0.005246  -0.000412   0.001338
  126  H   9  Z   0.012417  -0.006895   0.012939   0.005520  -0.008663
  127  H   9  X  -0.279231   0.581045  -0.548544   0.486181  -0.113183
  128  H   9  Y   1.295885  -0.324902  -0.318363   0.796995  -0.251560
  129  H   9  Z  -0.312417  -0.722477  -0.018382  -0.585848  -1.065208
  130  H  10  S  -0.069519  -0.014670  -0.014588  -0.036157   0.047532
  131  H  10  S  -2.141429   3.295690  -3.045174   1.005535   3.708551
  132  H  10  S  -3.219757   2.914638  -1.328517  -1.240880  -0.499187
  133  H  10  X  -0.000905  -0.001691   0.011968   0.009352  -0.016593
  134  H  10  Y  -0.007488   0.009643   0.000040   0.005759   0.000194
  135  H  10  Z   0.013971   0.008883   0.000839   0.001794  -0.008267
  136  H  10  X   0.042988  -0.323080   0.470655   0.093202  -0.958436
  137  H  10  Y  -0.339128   0.522503  -0.488423   0.060622   0.906169
  138  H  10  Z   0.508623   0.325915  -0.471542   0.690032   0.363495
  139  F  11  S  -0.000325   0.004877   0.001184  -0.005258  -0.004363
  140  F  11  S   0.018282  -0.021240  -0.003041   0.020108   0.075247
  141  F  11  S   0.075337  -0.176610  -0.037093   0.184962   0.402073
  142  F  11  S  -0.700895   1.574672  -0.140229  -1.247848  -3.227218
  143  F  11  X  -0.069569   0.009463   0.016154   0.004306  -0.027810
  144  F  11  Y   0.015782   0.036384  -0.007788   0.008427  -0.018816
  145  F  11  Z  -0.054861  -0.026224   0.043797   0.048476  -0.024953
  146  F  11  X  -0.058293  -0.037186   0.010439  -0.009874   0.085562
  147  F  11  Y   0.027700   0.026415   0.015671  -0.010983  -0.045626
  148  F  11  Z  -0.090101   0.020914   0.019825  -0.005665  -0.097944
  149  F  11  X   0.596049  -0.120698  -0.380863   0.792113   0.411088
  150  F  11  Y  -0.261968  -0.182387  -0.321941  -0.056230  -0.383108
  151  F  11  Z   0.834280   0.378580   0.355267   0.134338  -0.696733
  152  F  11 XX   0.001395  -0.000300  -0.001351   0.004298  -0.002186
  153  F  11 YY   0.000738  -0.000123   0.003439   0.000347   0.000022
  154  F  11 ZZ  -0.002133   0.000423  -0.002087  -0.004645   0.002164
  155  F  11 XY  -0.001889   0.001373  -0.002545  -0.001330  -0.003200
  156  F  11 XZ  -0.000092   0.002143   0.005448   0.000146  -0.005754
  157  F  11 YZ  -0.001024   0.000262   0.000845   0.000673   0.003783
  158  F  11 XX  -0.014303  -0.000046   0.009363   0.017839   0.000099
  159  F  11 YY   0.010266  -0.014733  -0.009362  -0.001476  -0.002050
  160  F  11 ZZ   0.004037   0.014779  -0.000001  -0.016363   0.001951
  161  F  11 XY   0.009498   0.007763  -0.005217   0.001339   0.003264
  162  F  11 XZ  -0.005017  -0.011104   0.003854  -0.000845   0.020345
  163  F  11 YZ   0.010741  -0.016469   0.010715  -0.016969  -0.004782

                     61         62         63         64         65
                    0.4341     0.4427     0.4559     0.4642     0.4789
                     A          A          A          A          A   
    1  C   1  S   0.039308   0.020658   0.018349   0.021297   0.014172
    2  C   1  S   0.046809   0.007680  -0.005599  -0.022213   0.014323
    3  C   1  S  -3.828172  -2.004043  -1.117091  -1.041636  -0.819069
    4  C   1  S -12.271191   9.232006   3.414895  -4.211223  -0.985882
    5  C   1  X  -0.029665  -0.050678   0.092086  -0.109163   0.047104
    6  C   1  Y   0.213571  -0.020428  -0.038502   0.096519   0.135504
    7  C   1  Z  -0.274753  -0.033240   0.186151   0.193103   0.002676
    8  C   1  X   0.170724  -0.610702  -0.215473  -1.012744   0.809143
    9  C   1  Y   3.018169   0.300062  -2.243804  -0.571090   2.450155
   10  C   1  Z  -3.423921   0.085612   3.402996   2.053473  -1.754258
   11  C   1  X  -0.357973  -0.550786   0.007190  -0.446485   0.316719
   12  C   1  Y   0.860891   0.974429  -0.505814  -0.099102   0.648854
   13  C   1  Z   0.927501  -2.700664   0.312985   1.785400  -0.309350
   14  C   1 XX  -0.007239   0.018336   0.000190   0.001063  -0.010093
   15  C   1 YY   0.006887  -0.031183   0.002456  -0.007807   0.014763
   16  C   1 ZZ   0.000352   0.012847  -0.002646   0.006744  -0.004670
   17  C   1 XY   0.000711  -0.005820   0.000713  -0.003287   0.007900
   18  C   1 XZ  -0.017597   0.012670   0.017542   0.014365   0.005058
   19  C   1 YZ  -0.016001   0.004020   0.013218   0.002805  -0.005285
   20  C   1 XX  -0.348555   0.182686  -0.198367   0.031533  -1.013695
   21  C   1 YY   0.708496  -0.045273   0.249958   1.173029  -0.179138
   22  C   1 ZZ  -0.359941  -0.137413  -0.051591  -1.204562   1.192833
   23  C   1 XY   0.271073  -0.153908   0.161380   0.659791   0.580588
   24  C   1 XZ  -0.267187   0.172666  -0.695209   0.957239  -0.305764
   25  C   1 YZ  -0.768921  -0.013789   0.873203   0.402446   0.243583
   26  C   2  S   0.051775   0.012648   0.008880  -0.017139   0.022300
   27  C   2  S  -0.019228   0.019761  -0.005352   0.048935  -0.047582
   28  C   2  S  -3.289479  -0.908759  -1.715782   2.467561  -1.891583
   29  C   2  S  16.112428 -11.749751 -11.295747   8.593814  -2.986520
   30  C   2  X   0.085889  -0.084123   0.036327   0.036177   0.034350
   31  C   2  Y   0.128403  -0.021465  -0.105524  -0.050739   0.027215
   32  C   2  Z  -0.117165  -0.125252   0.169873   0.052239   0.008246
   33  C   2  X   0.065972  -0.351572   0.702124   1.941179   0.121729
   34  C   2  Y   1.284418  -0.505470  -1.760763  -0.082681   1.757094
   35  C   2  Z  -1.578212  -0.739769   4.169383   2.254037  -1.247336
   36  C   2  X  -1.338657   0.001961   1.150027  -0.400613   0.986220
   37  C   2  Y  -3.335025   3.945981   0.603185  -1.604120   1.443633
   38  C   2  Z  -0.840346  -2.391674   1.987440   0.870070   0.780133
   39  C   2 XX   0.016657   0.010498  -0.000877  -0.016963  -0.018595
   40  C   2 YY  -0.046555   0.005999   0.007377  -0.018011   0.036575
   41  C   2 ZZ   0.029898  -0.016497  -0.006500   0.034974  -0.017980
   42  C   2 XY  -0.021209   0.026725  -0.010024   0.023783   0.009304
   43  C   2 XZ   0.010774  -0.006653  -0.006403  -0.012047   0.021756
   44  C   2 YZ  -0.007671   0.002567  -0.003787   0.005790   0.005736
   45  C   2 XX   0.397958  -0.220236  -0.442858  -0.394199  -0.010178
   46  C   2 YY   0.597874   0.236036  -0.509593   0.887126   0.003845
   47  C   2 ZZ  -0.995831  -0.015800   0.952451  -0.492928   0.006333
   48  C   2 XY   0.473197  -0.657035  -0.236782  -0.369977   0.663657
   49  C   2 XZ  -0.231996  -0.370416  -0.539570  -0.489484  -0.006233
   50  C   2 YZ  -0.115623  -0.576412  -1.151407  -0.623671   1.541753
   51  C   3  S   0.023990   0.041935   0.031762   0.026073  -0.008476
   52  C   3  S   0.038159  -0.025075   0.023950  -0.024109   0.037123
   53  C   3  S  -2.021317  -2.863874  -4.005683  -1.736980   0.827766
   54  C   3  S  -9.827634  -0.342970   3.868097  -3.926801   4.792845
   55  C   3  X   0.107807  -0.115666  -0.049353   0.010245  -0.004736
   56  C   3  Y   0.005650  -0.072913   0.159524  -0.098102  -0.075609
   57  C   3  Z   0.103928  -0.062006   0.101181   0.035465   0.160087
   58  C   3  X   2.221628  -0.017142   2.216294   0.925219  -0.266454
   59  C   3  Y  -0.267559  -0.151239   0.935522  -1.326936  -0.243641
   60  C   3  Z   0.449237  -0.498042   2.336364   3.146210   0.268394
   61  C   3  X  -0.697661  -0.851490   1.234908   0.184555   0.506344
   62  C   3  Y  -0.572094  -0.730480   1.270222  -0.852161  -0.695528
   63  C   3  Z  -0.244979   0.103933   1.295616   0.199420   0.922872
   64  C   3 XX  -0.010852  -0.009640   0.011299   0.008987  -0.011741
   65  C   3 YY   0.015993   0.007577   0.007408  -0.014496   0.007868
   66  C   3 ZZ  -0.005140   0.002063  -0.018707   0.005509   0.003873
   67  C   3 XY   0.006184  -0.009439   0.001272   0.006497  -0.013709
   68  C   3 XZ   0.009738  -0.010058   0.002005   0.002141   0.003197
   69  C   3 YZ   0.016168   0.007469   0.021218  -0.004898  -0.035692
   70  C   3 XX   0.657642  -0.184655  -0.051486   0.254182  -0.959047
   71  C   3 YY   0.252159  -0.177925  -0.150328  -0.308006   0.770979
   72  C   3 ZZ  -0.909801   0.362581   0.201814   0.053824   0.188068
   73  C   3 XY   0.093447   0.140502  -0.938834   0.101334   0.851464
   74  C   3 XZ  -0.022991   0.345793   1.102898   0.353108   0.371588
   75  C   3 YZ   0.739552  -0.611425   0.555960   0.041008  -0.743703
   76  H   4  S  -0.003273  -0.011974  -0.001081  -0.138936  -0.024336
   77  H   4  S   3.653066  -0.258489  -3.734707   0.267545   0.573327
   78  H   4  S  -0.240939   0.533164  -0.372667  -2.008714   0.338171
   79  H   4  X  -0.001604  -0.008440   0.011198   0.009993   0.011341
   80  H   4  Y   0.001799  -0.004228   0.009408   0.006612   0.003513
   81  H   4  Z   0.001749  -0.003823  -0.006895  -0.001958   0.000816
   82  H   4  X   0.914684   0.477170  -1.774935  -0.339482  -0.577193
   83  H   4  Y  -1.287342  -0.155522   0.627982  -0.986272   0.129340
   84  H   4  Z  -0.086161   0.267535  -0.300525   0.659627  -0.853481
   85  H   5  S  -0.035736   0.070045  -0.059956   0.053655  -0.081923
   86  H   5  S   3.961610   1.327449   0.600835   0.214858   0.404926
   87  H   5  S   1.039301   1.704067  -1.028387   0.022343  -0.717789
   88  H   5  X  -0.001407   0.007461   0.001505  -0.004864  -0.002471
   89  H   5  Y   0.000488  -0.005509   0.003043   0.006811   0.001224
   90  H   5  Z  -0.004190   0.009264  -0.002596   0.009612   0.006340
   91  H   5  X  -1.210699  -0.447641  -0.390630  -0.239489   0.294059
   92  H   5  Y  -0.867072  -0.046476  -0.184724  -0.771747  -0.295388
   93  H   5  Z   0.455631  -1.000220   0.387441  -0.605529  -0.138521
   94  H   6  S   0.071385  -0.098160   0.040847   0.113088   0.053208
   95  H   6  S   2.745857   0.318292  -1.734649  -3.041530   4.193749
   96  H   6  S   1.680396  -0.080084  -0.682835   0.851520   1.699177
   97  H   6  X   0.001377  -0.001089   0.004094  -0.009506  -0.008164
   98  H   6  Y   0.004281   0.015565  -0.002061   0.002599  -0.010431
   99  H   6  Z   0.002703  -0.014041  -0.002576   0.004289  -0.005952
  100  H   6  X   0.405842  -0.126556  -0.492891   0.893578   0.565368
  101  H   6  Y   0.794305   0.114543  -0.030251  -0.622572   1.909994
  102  H   6  Z   0.228190   0.030085  -0.544108  -1.149654   1.416080
  103  H   7  S  -0.113659   0.036168  -0.033065  -0.055662   0.125737
  104  H   7  S  -3.097958   2.863192   4.325674  -3.953774  -2.398267
  105  H   7  S   0.756962  -1.531111   0.430963   0.472428  -1.111110
  106  H   7  X  -0.000261   0.004906   0.001400   0.006097   0.000512
  107  H   7  Y  -0.023466   0.001966   0.007603  -0.011732   0.015355
  108  H   7  Z   0.000848   0.001666   0.005778   0.006858  -0.008176
  109  H   7  X  -0.163786   0.770454   0.322257  -0.018460  -0.555018
  110  H   7  Y   0.715324  -1.188015  -1.003096   1.203178   0.319151
  111  H   7  Z   0.861127   0.600781  -0.402466   0.572948  -0.998018
  112  H   8  S  -0.001699  -0.043848  -0.047401  -0.014603  -0.056372
  113  H   8  S   3.086482   3.279298   6.206853  -0.478905  -0.401889
  114  H   8  S   0.237159  -1.020715   0.562220   0.679310  -0.905969
  115  H   8  X   0.010948   0.001096  -0.017721  -0.007965  -0.002085
  116  H   8  Y   0.003353  -0.009822   0.008924  -0.002296  -0.011830
  117  H   8  Z   0.009423   0.002395  -0.005017  -0.005736   0.002648
  118  H   8  X   1.101512   1.064117   1.937829  -0.092570  -0.643450
  119  H   8  Y  -0.127590   1.883231  -0.912795   0.177902   1.250665
  120  H   8  Z  -0.297182  -0.329833  -0.954088  -0.016788  -0.067668
  121  H   9  S  -0.086076   0.057694  -0.072076   0.028390   0.149431
  122  H   9  S   3.112772  -1.497490   2.469792   6.016221  -0.877731
  123  H   9  S   1.119402   0.456534  -0.165120   1.584512   1.443099
  124  H   9  X  -0.001244  -0.012066  -0.000331   0.001226  -0.007095
  125  H   9  Y   0.006822  -0.002677   0.005020  -0.003466   0.013583
  126  H   9  Z   0.001517  -0.002364   0.015697  -0.011311  -0.010451
  127  H   9  X  -0.782015   1.331477   1.211396  -0.272500   0.241699
  128  H   9  Y  -0.769467   0.469751  -0.760352  -0.958316  -0.932604
  129  H   9  Z  -0.224256  -0.182899   0.443976   2.531289   0.039322
  130  H  10  S   0.019069  -0.015559   0.084386  -0.081866  -0.079372
  131  H  10  S  -2.524513   2.740829   1.091895  -0.102062  -1.179603
  132  H  10  S  -0.977568   0.166907   2.304637  -1.172649  -1.003230
  133  H  10  X  -0.002001   0.005635   0.002284   0.002186   0.006038
  134  H  10  Y  -0.002024  -0.003441  -0.010242   0.008572  -0.007777
  135  H  10  Z  -0.004326  -0.002762  -0.008457   0.004067   0.022117
  136  H  10  X  -0.278316  -1.042988  -0.198723  -0.200949   0.631786
  137  H  10  Y  -0.688052   0.558016   0.790733   0.266595  -0.482452
  138  H  10  Z  -0.213254   0.300088   0.569446  -0.838674  -0.441360
  139  F  11  S  -0.003776   0.005495   0.001985   0.004183   0.002652
  140  F  11  S   0.001188   0.003000  -0.032458   0.010750   0.013846
  141  F  11  S   0.074043  -0.102789  -0.181521  -0.030608  -0.016356
  142  F  11  S  -0.836785   1.205261   1.590628  -0.539699   0.243352
  143  F  11  X  -0.001824  -0.011875   0.023667   0.013532  -0.028775
  144  F  11  Y  -0.044755   0.005494   0.005179  -0.045576   0.054362
  145  F  11  Z  -0.010129  -0.020600  -0.017232   0.041932   0.002273
  146  F  11  X  -0.016590  -0.025925  -0.032113   0.022288  -0.043861
  147  F  11  Y  -0.080075   0.047398   0.037389  -0.058668   0.040490
  148  F  11  Z  -0.028930  -0.036106  -0.015955  -0.041125   0.038920
  149  F  11  X  -0.402733   0.084654  -0.180183   0.108855  -0.137848
  150  F  11  Y  -0.053530  -0.540211  -0.132081   0.179678  -0.056944
  151  F  11  Z  -0.003902  -0.101302   0.482135   0.075379   0.137613
  152  F  11 XX  -0.003260  -0.000310   0.000225   0.001358  -0.003424
  153  F  11 YY   0.002778  -0.000213   0.000104  -0.001933   0.004656
  154  F  11 ZZ   0.000482   0.000523  -0.000330   0.000576  -0.001232
  155  F  11 XY  -0.003222  -0.004398  -0.000429  -0.001609   0.003082
  156  F  11 XZ   0.001205  -0.005041   0.003364   0.001047   0.001135
  157  F  11 YZ  -0.000870  -0.001413  -0.001430   0.001204  -0.000903
  158  F  11 XX   0.006145   0.000355   0.007554   0.010541   0.002245
  159  F  11 YY   0.002620   0.000619   0.002998  -0.002104  -0.004680
  160  F  11 ZZ  -0.008765  -0.000974  -0.010552  -0.008437   0.002435
  161  F  11 XY   0.005964  -0.014010  -0.004398  -0.006309   0.006155
  162  F  11 XZ  -0.004110   0.019764  -0.009239   0.015590  -0.013450
  163  F  11 YZ  -0.004121  -0.011839  -0.005179  -0.011995  -0.007916

                     66         67         68         69         70
                    0.4836     0.4932     0.5089     0.5405     0.5484
                     A          A          A          A          A   
    1  C   1  S  -0.023772  -0.001024   0.013061  -0.041273  -0.069946
    2  C   1  S   0.003766  -0.004000  -0.007955   0.005201  -0.012714
    3  C   1  S   2.019204  -0.728303  -0.130878   4.678848   6.251370
    4  C   1  S   0.748379  -6.385334 -10.932891  -4.091636   5.624738
    5  C   1  X  -0.154262  -0.101087   0.058072   0.015064   0.129571
    6  C   1  Y  -0.074314   0.156984  -0.001221   0.058674   0.040659
    7  C   1  Z  -0.163678   0.016321  -0.056573  -0.028944  -0.046519
    8  C   1  X  -0.177459  -0.455582  -0.316088  -0.408937  -1.176013
    9  C   1  Y   1.612266   1.595974  -0.312323   1.653924   4.124384
   10  C   1  Z  -1.292870   0.566811   0.218615   1.270400  -2.526911
   11  C   1  X  -0.270338   1.240692  -0.335038  -0.480939   0.069980
   12  C   1  Y  -0.062400   0.233945  -0.520695   0.489828   2.356316
   13  C   1  Z  -0.331599   2.136917   2.532066   1.425311  -1.377227
   14  C   1 XX   0.021947  -0.007025  -0.003541  -0.017507  -0.004828
   15  C   1 YY  -0.023919   0.007207  -0.026834  -0.000167  -0.016241
   16  C   1 ZZ   0.001972  -0.000182   0.030375   0.017675   0.021070
   17  C   1 XY  -0.000029   0.005109  -0.005810   0.001756  -0.015421
   18  C   1 XZ   0.027141   0.003267  -0.002620  -0.007606  -0.016579
   19  C   1 YZ  -0.003057   0.004729  -0.002311  -0.002987   0.006909
   20  C   1 XX   1.270077  -0.386443   0.684547   0.068925  -1.003449
   21  C   1 YY  -1.434712   0.094856  -0.122734  -0.055259   0.349723
   22  C   1 ZZ   0.164635   0.291588  -0.561812  -0.013667   0.653726
   23  C   1 XY   0.456069   0.547166   0.278670  -0.411868  -1.154543
   24  C   1 XZ   0.258373   1.247680  -1.078703  -0.510302  -0.592943
   25  C   1 YZ  -0.932170   0.277407   0.761792   0.198599  -1.530542
   26  C   2  S   0.023242  -0.007019  -0.017842  -0.018698   0.044919
   27  C   2  S  -0.048576   0.053453   0.031835  -0.021828   0.025674
   28  C   2  S  -1.736712   0.978205   2.368521   2.972800  -4.634304
   29  C   2  S  -3.590028   8.520624  31.934775  21.432618   5.902234
   30  C   2  X   0.119130  -0.108841  -0.031270  -0.034857  -0.132789
   31  C   2  Y   0.073271  -0.058560   0.036790  -0.092552   0.016918
   32  C   2  Z  -0.011294  -0.180384   0.014790  -0.039751  -0.169789
   33  C   2  X   0.563223  -1.118019   1.198237  -0.421368  -3.000994
   34  C   2  Y   0.928014  -0.040015   2.161952   2.378271  -1.038687
   35  C   2  Z  -2.074474  -1.011740   1.162396   1.412903  -8.172410
   36  C   2  X   1.007520  -1.109190  -2.707011  -2.328222  -2.869797
   37  C   2  Y   2.009174  -2.724748  -5.993623  -2.446145  -0.144562
   38  C   2  Z  -0.116422  -0.442869  -0.926356  -3.470044  -5.236155
   39  C   2 XX   0.010557  -0.014047   0.008042  -0.027359  -0.012903
   40  C   2 YY   0.007822   0.025802   0.019993   0.020949   0.005794
   41  C   2 ZZ  -0.018379  -0.011755  -0.028035   0.006410   0.007109
   42  C   2 XY   0.013695   0.010590  -0.014321  -0.002710   0.010467
   43  C   2 XZ   0.005540  -0.012968   0.024428  -0.002982   0.013958
   44  C   2 YZ  -0.002208   0.002409  -0.002138   0.013526   0.004235
   45  C   2 XX  -0.211726   0.230281  -0.707609  -0.509687   1.091484
   46  C   2 YY   0.385931  -0.159103   0.670191   1.808065  -0.470622
   47  C   2 ZZ  -0.174205  -0.071179   0.037418  -1.298378  -0.620862
   48  C   2 XY   0.547515  -0.731575   0.084912   0.747719  -0.266701
   49  C   2 XZ  -0.062054   0.047366  -0.297171  -0.173499   1.096376
   50  C   2 YZ   0.682910  -0.725646  -0.162794   0.104196   1.607429
   51  C   3  S   0.017382  -0.024401  -0.022809   0.047353   0.073728
   52  C   3  S   0.050631  -0.058744   0.021231  -0.006014   0.003036
   53  C   3  S  -0.800317   3.571132   3.158263  -5.015072  -5.572069
   54  C   3  S   4.174180   0.882170 -15.981542 -15.077342  -9.986478
   55  C   3  X   0.014970  -0.275961  -0.068024   0.090203   0.017160
   56  C   3  Y   0.030287   0.095817  -0.042762   0.045061  -0.116744
   57  C   3  Z   0.129374  -0.198597   0.096493  -0.006953  -0.046658
   58  C   3  X   0.173648  -2.091417   0.056948   2.590604  -3.797903
   59  C   3  Y   0.595789  -0.083243   0.675548   2.321431  -1.430621
   60  C   3  Z   0.312078  -2.328483   1.254340  -1.231916  -2.399497
   61  C   3  X   1.280076  -1.117142  -2.946268  -2.432528  -1.770266
   62  C   3  Y  -0.520986  -0.436007  -0.013331  -0.228543  -0.797364
   63  C   3  Z   1.537515  -0.018742  -3.100462  -2.408566  -2.614987
   64  C   3 XX   0.013969  -0.001018   0.000594  -0.005851   0.010118
   65  C   3 YY  -0.002681  -0.006277   0.009652  -0.003337  -0.008011
   66  C   3 ZZ  -0.011287   0.007296  -0.010247   0.009188  -0.002106
   67  C   3 XY   0.002609  -0.010598   0.003696  -0.000674   0.016540
   68  C   3 XZ  -0.003567   0.014677   0.004234   0.006690  -0.016576
   69  C   3 YZ  -0.008247  -0.007319   0.027850  -0.011334  -0.007894
   70  C   3 XX  -0.955308   0.283711  -1.098518   1.402910  -0.630794
   71  C   3 YY   0.366341   0.820610   0.404235  -0.096655   0.540420
   72  C   3 ZZ   0.588967  -1.104321   0.694283  -1.306255   0.090373
   73  C   3 XY  -0.093562  -1.307663  -0.235569   0.206662   0.358033
   74  C   3 XZ  -0.636295   0.527166   1.415927  -0.201495  -1.352292
   75  C   3 YZ  -0.018532   0.226578  -0.187942  -0.159550  -0.881007
   76  H   4  S  -0.025475  -0.085327   0.134969   0.007117   0.045224
   77  H   4  S  -0.975230  -0.028783  -2.544510  -5.946548  -4.369426
   78  H   4  S   0.071924  -0.373480  -0.542428  -0.914728  -0.004384
   79  H   4  X  -0.013619  -0.000641  -0.000106   0.010194  -0.004783
   80  H   4  Y  -0.013760  -0.001848  -0.001201  -0.005210   0.003998
   81  H   4  Z  -0.012644  -0.004000   0.014598   0.000948   0.025914
   82  H   4  X  -0.143604  -0.586037  -0.159944  -1.718394  -1.274401
   83  H   4  Y   0.986380  -0.032019   0.023744   0.642168  -0.291525
   84  H   4  Z   0.547430   0.928040   0.046737   1.562142   1.025740
   85  H   5  S   0.189309   0.105516  -0.018473  -0.056248  -0.129501
   86  H   5  S  -1.408615  -1.235975   1.450936  -0.735421   2.425563
   87  H   5  S   1.108986  -1.359708  -0.403635   0.511825   0.367264
   88  H   5  X   0.015943  -0.002065   0.010189  -0.008470  -0.000100
   89  H   5  Y  -0.013058   0.007544  -0.000140  -0.008561  -0.002139
   90  H   5  Z   0.014652   0.003856  -0.003745   0.000393  -0.012972
   91  H   5  X  -0.660686   0.655650  -1.144024   0.414534  -0.331130
   92  H   5  Y   0.582503  -0.499637  -0.992028   0.559719   0.029865
   93  H   5  Z   0.577374  -0.854263   1.115859   0.883638   0.062816
   94  H   6  S  -0.164881   0.075447  -0.004063  -0.004517  -0.079206
   95  H   6  S   3.494382   2.679804  -1.743525   1.730446   2.816765
   96  H   6  S  -0.889110   1.175458   0.282192   0.541394   1.879649
   97  H   6  X  -0.016481  -0.008866   0.007866   0.007292   0.020761
   98  H   6  Y   0.015202  -0.010684   0.007352  -0.001482   0.003087
   99  H   6  Z  -0.018736   0.001932  -0.011607  -0.008957  -0.016704
  100  H   6  X   1.268829   0.597028  -0.602217  -0.255397  -0.851324
  101  H   6  Y   0.148569   1.020245  -0.766236   0.142759   0.857847
  102  H   6  Z   0.529904   0.743799   0.209960   1.183839  -0.687533
  103  H   7  S   0.092764   0.022480   0.030000   0.169606   0.044088
  104  H   7  S  -0.851295   0.732738  -7.567202  -8.654201   5.732654
  105  H   7  S  -1.978946   2.007852   2.467036   1.028968   0.655731
  106  H   7  X   0.007493   0.001346  -0.007510  -0.004899  -0.004803
  107  H   7  Y  -0.001631   0.019265   0.005473   0.020001   0.006635
  108  H   7  Z  -0.008139   0.002111   0.001714   0.003431   0.005197
  109  H   7  X  -0.564975   0.737969   0.452806   0.310587   0.146348
  110  H   7  Y  -0.450741  -0.596018   1.734409   1.832976  -3.186960
  111  H   7  Z   0.549573   0.439348   0.743147   1.045704  -0.252665
  112  H   8  S  -0.030970  -0.041535  -0.087643   0.092847   0.086445
  113  H   8  S   1.822363  -3.499501   0.469327   6.679833  -2.293856
  114  H   8  S   0.597123  -1.369641  -1.251618   0.068846  -0.359743
  115  H   8  X  -0.002707   0.003077  -0.015152   0.000664  -0.011335
  116  H   8  Y  -0.002856   0.012765  -0.006701  -0.009195   0.001753
  117  H   8  Z   0.015796  -0.001459  -0.007445   0.002938  -0.008797
  118  H   8  X   0.297081  -0.505779  -1.244040   3.213497  -0.745037
  119  H   8  Y  -0.123900  -1.310525   0.036497  -0.002120   0.168409
  120  H   8  Z  -2.087475   1.504579  -0.042740   0.204335  -0.330162
  121  H   9  S   0.021049  -0.111286  -0.005993   0.034913   0.071511
  122  H   9  S  -1.788939  -2.432565  -2.113680  -1.571279  -0.300443
  123  H   9  S   0.883591  -0.310528  -0.304517  -0.969459  -1.038326
  124  H   9  X  -0.005762  -0.006336  -0.001116  -0.003287   0.014128
  125  H   9  Y   0.005213   0.007360  -0.004302   0.000126  -0.003875
  126  H   9  Z   0.005234  -0.001328   0.004851  -0.020313  -0.001269
  127  H   9  X   0.310841   0.818914   0.819638  -0.800783  -0.395214
  128  H   9  Y   0.007309   0.294820   1.214560   0.289461  -0.297414
  129  H   9  Z  -0.401422  -1.520249  -0.548654  -0.853983   0.606155
  130  H  10  S   0.036957   0.109469   0.027216  -0.027158  -0.057471
  131  H  10  S  -1.056091  -2.064049   1.612829   1.081039   0.258211
  132  H  10  S  -0.122004  -0.465771  -0.655386  -0.209067  -1.661661
  133  H  10  X  -0.006091   0.002297  -0.012255   0.005195  -0.010949
  134  H  10  Y   0.000255  -0.017825  -0.010285   0.000738   0.008331
  135  H  10  Z   0.000242   0.001675  -0.007333   0.009940   0.011492
  136  H  10  X   0.813772   0.654708  -0.199935  -1.717058   0.914129
  137  H  10  Y   0.029151   0.437475   1.381393   0.821121   0.392989
  138  H  10  Z  -0.079548   0.064397  -1.113163  -0.640269  -0.656931
  139  F  11  S  -0.001172  -0.003175  -0.009795  -0.000645  -0.011677
  140  F  11  S   0.009420   0.014177   0.037350  -0.019966   0.030728
  141  F  11  S   0.067663   0.133259   0.367061  -0.090196   0.418500
  142  F  11  S  -0.599015  -1.415357  -2.844799   0.393151  -3.296370
  143  F  11  X   0.007189   0.040744  -0.046906   0.006581   0.049983
  144  F  11  Y   0.020840   0.006939   0.029803   0.045334   0.011782
  145  F  11  Z  -0.007326   0.019029  -0.059361   0.040079  -0.014280
  146  F  11  X   0.036627   0.080285  -0.032956  -0.078770   0.196867
  147  F  11  Y   0.026171   0.003893   0.022562   0.107179   0.009211
  148  F  11  Z  -0.029701   0.001349  -0.054724   0.062954  -0.095343
  149  F  11  X   0.272565   0.263145   0.192356  -0.956090   1.307791
  150  F  11  Y  -0.178290  -0.090558   0.113678  -0.224990  -0.422388
  151  F  11  Z   0.524618  -0.171330  -0.181197   0.469956  -0.372867
  152  F  11 XX   0.002129   0.003179  -0.004965   0.000493   0.007439
  153  F  11 YY   0.001818  -0.000166  -0.000197   0.000158  -0.004221
  154  F  11 ZZ  -0.003947  -0.003013   0.005162  -0.000651  -0.003218
  155  F  11 XY   0.001540   0.001215   0.003366   0.001700   0.000779
  156  F  11 XZ   0.002125  -0.000147  -0.002634   0.006466  -0.003382
  157  F  11 YZ   0.000876   0.002220  -0.001260  -0.007665   0.002938
  158  F  11 XX  -0.008831   0.005189   0.005560   0.019927  -0.035524
  159  F  11 YY  -0.003513   0.002248  -0.006873  -0.009657   0.028941
  160  F  11 ZZ   0.012344  -0.007437   0.001314  -0.010270   0.006583
  161  F  11 XY   0.000029   0.004896   0.002139  -0.023354   0.008679
  162  F  11 XZ   0.007764  -0.005816  -0.002227  -0.016837   0.032650
  163  F  11 YZ   0.009960   0.005099  -0.000001   0.004844   0.008028

                     71         72         73         74         75
                    0.5530     0.5574     0.5647     0.5852     0.5957
                     A          A          A          A          A   
    1  C   1  S  -0.028240  -0.058590  -0.030040   0.012223   0.035722
    2  C   1  S  -0.010779   0.005816  -0.006527   0.008311  -0.000795
    3  C   1  S  -0.528386   5.345500   0.994792  -1.104126  -1.223562
    4  C   1  S  -4.745635  14.048317  -3.626580  -8.793683   0.888926
    5  C   1  X   0.003214   0.017534  -0.064096   0.034638  -0.095313
    6  C   1  Y   0.043772   0.165705   0.061772   0.106166   0.009581
    7  C   1  Z  -0.026712   0.051190  -0.031122   0.023067   0.069656
    8  C   1  X  -4.838907  -0.345394   3.120936   0.658007  -2.998602
    9  C   1  Y  -0.319937  -0.514878  -0.421794  -1.467311   2.223607
   10  C   1  Z  -5.589745  -2.472658  -1.802028  -3.466229   1.770356
   11  C   1  X  -0.094287  -0.407636   0.416853  -0.236862  -0.337081
   12  C   1  Y  -0.047135   1.257662  -0.869799  -0.480875  -0.659157
   13  C   1  Z   0.581405  -4.038467   0.699767   1.692892  -0.264015
   14  C   1 XX  -0.001558  -0.004083   0.000351  -0.005102  -0.003418
   15  C   1 YY   0.001977   0.019979  -0.005907   0.009723  -0.004876
   16  C   1 ZZ  -0.000419  -0.015896   0.005557  -0.004621   0.008294
   17  C   1 XY   0.007133   0.016491   0.004302  -0.002937   0.017492
   18  C   1 XZ  -0.008157   0.015256   0.012786   0.013758  -0.009028
   19  C   1 YZ  -0.004606   0.013094   0.011498   0.004481   0.004199
   20  C   1 XX  -2.229920  -1.410491  -0.455377  -0.984763   1.029518
   21  C   1 YY   0.182595   0.744055  -0.435869   0.445184  -0.109175
   22  C   1 ZZ   2.047324   0.666436   0.891246   0.539579  -0.920343
   23  C   1 XY  -0.143575   0.492523   1.075505  -0.439862   0.603747
   24  C   1 XZ  -0.141151  -0.204592   0.681238   0.716196  -0.769767
   25  C   1 YZ  -1.248796   0.071064  -1.042460   0.425352   0.098199
   26  C   2  S   0.018854   0.025074   0.088465   0.009832   0.010238
   27  C   2  S   0.038194  -0.024483  -0.009502  -0.010796  -0.017379
   28  C   2  S  -0.879751  -2.270348  -9.231436   0.492438  -1.671902
   29  C   2  S  12.179336 -25.893107   1.128808  20.303677  -0.451452
   30  C   2  X  -0.084577   0.017619   0.074699   0.082738  -0.074525
   31  C   2  Y   0.069359  -0.015571  -0.070592   0.046017  -0.167914
   32  C   2  Z  -0.086426  -0.213675   0.039189  -0.037901   0.077318
   33  C   2  X   1.222921  -1.867054   3.789507   2.911752  -0.702148
   34  C   2  Y   7.002594  -0.344442   3.022064   4.581956  -3.121459
   35  C   2  Z  -2.161118  -2.772266   2.912140   0.677875   1.309627
   36  C   2  X  -0.944603   1.916719   1.319680  -2.301329   1.376550
   37  C   2  Y  -1.987204   5.534332   2.081960  -4.788544   1.626771
   38  C   2  Z  -1.479486  -0.872901   1.659567   1.361841   1.819578
   39  C   2 XX  -0.006629   0.009941  -0.008625  -0.006159  -0.009860
   40  C   2 YY   0.016016  -0.011515   0.011315   0.026754  -0.001404
   41  C   2 ZZ  -0.009388   0.001574  -0.002690  -0.020595   0.011264
   42  C   2 XY  -0.018977  -0.000824   0.005542   0.023634  -0.010549
   43  C   2 XZ  -0.002199   0.001569  -0.012623  -0.018390   0.021561
   44  C   2 YZ   0.002207   0.003238   0.010789   0.010126   0.002234
   45  C   2 XX   0.426965   1.370327  -0.876497  -0.352967  -0.240485
   46  C   2 YY  -0.015244  -0.783000   1.859378   0.150625   1.221747
   47  C   2 ZZ  -0.411722  -0.587328  -0.982881   0.202342  -0.981263
   48  C   2 XY  -0.472487   0.577534   0.268009  -0.881858   0.696080
   49  C   2 XZ   0.731677   0.592112  -1.081123  -0.153253  -0.000039
   50  C   2 YZ   0.772935   0.465760  -0.002758   1.214678   1.568825
   51  C   3  S   0.010332   0.012031  -0.047488  -0.005826  -0.012774
   52  C   3  S  -0.010849   0.024363  -0.002046  -0.008400  -0.002511
   53  C   3  S  -2.644466  -2.467414   3.741928  -2.126754   0.453632
   54  C   3  S  -6.884438   6.455126   2.229074  -6.774494   0.031209
   55  C   3  X  -0.050519  -0.046337   0.077531   0.007313   0.202757
   56  C   3  Y   0.016682  -0.092370   0.147223   0.038627   0.021699
   57  C   3  Z  -0.054750   0.006624   0.083254   0.063923  -0.094369
   58  C   3  X  -0.891716   1.613299   2.141100   2.807973   1.603358
   59  C   3  Y  -1.344077   1.176221   1.699060   2.774187   1.567385
   60  C   3  Z   1.940244  -5.256019   5.299639  -0.127765  -1.635856
   61  C   3  X  -1.953154   0.723278   0.308626   0.063503  -0.302146
   62  C   3  Y  -0.401318   0.560838  -0.526575   0.161212  -0.082662
   63  C   3  Z  -0.831362   0.059332   1.864890  -1.911107   0.609315
   64  C   3 XX   0.006399  -0.008112   0.009972   0.007266   0.020220
   65  C   3 YY  -0.004686   0.007423   0.001664  -0.013105  -0.020850
   66  C   3 ZZ  -0.001712   0.000690  -0.011636   0.005839   0.000630
   67  C   3 XY  -0.001003   0.003494  -0.015833  -0.017624  -0.006281
   68  C   3 XZ   0.017786   0.001926  -0.005396   0.012016  -0.005487
   69  C   3 YZ   0.006892  -0.004786  -0.010472  -0.012293   0.003079
   70  C   3 XX   0.685005  -0.921954   0.987610  -0.697611   1.211661
   71  C   3 YY  -0.552371   0.534797  -1.609693  -0.802575  -0.811881
   72  C   3 ZZ  -0.132634   0.387157   0.622083   1.500186  -0.399781
   73  C   3 XY   0.052682   0.446521   0.656787  -0.010945   1.431370
   74  C   3 XZ   0.945919   0.139398   1.902777   0.212122  -0.849812
   75  C   3 YZ  -0.027717  -0.825057   1.547924  -0.740855   0.877793
   76  H   4  S  -0.037384  -0.109382  -0.025893  -0.021125  -0.038234
   77  H   4  S  -0.346880   1.470533   9.515224   6.593201  -8.601349
   78  H   4  S   0.293781   0.921469   0.278011  -1.180660  -0.086705
   79  H   4  X   0.011694   0.026798   0.004011   0.007114   0.010589
   80  H   4  Y  -0.005426   0.013158  -0.003397   0.016112  -0.013811
   81  H   4  Z   0.023427  -0.021169  -0.004873  -0.010775   0.002050
   82  H   4  X  -1.258603  -0.702817   2.562930   2.171943  -1.964008
   83  H   4  Y   0.681685  -0.489017  -0.559419  -2.025468   1.413458
   84  H   4  Z  -0.893909  -0.572771  -2.069429  -1.621036   2.154918
   85  H   5  S  -0.054777  -0.064315   0.037890  -0.044087   0.032493
   86  H   5  S  14.321013   3.131121  -4.969787   0.551641   4.717817
   87  H   5  S   0.193227   0.697862  -0.319912  -0.073244   0.055705
   88  H   5  X   0.008162  -0.012101  -0.003489  -0.004759   0.004193
   89  H   5  Y   0.012160   0.023908   0.009580   0.012758   0.010608
   90  H   5  Z  -0.009643   0.004381   0.023642   0.004243   0.003415
   91  H   5  X  -4.370046  -0.637820   2.478623   0.367588  -2.631610
   92  H   5  Y  -0.211012  -0.989556  -0.578749   0.045912  -0.817999
   93  H   5  Z  -3.283465  -0.469596   0.108290  -0.815264  -0.549276
   94  H   6  S  -0.044666   0.083590  -0.037487   0.052456   0.040445
   95  H   6  S  -4.946916  -5.898596  -1.764433  -5.066923   3.614263
   96  H   6  S   0.214162   0.430048  -0.303155   0.341136  -0.556909
   97  H   6  X   0.007312  -0.015497  -0.014777  -0.004519   0.002833
   98  H   6  Y  -0.015632  -0.019545  -0.007972  -0.019570  -0.004322
   99  H   6  Z   0.012714   0.005643  -0.011623  -0.001253  -0.003162
  100  H   6  X  -1.072143  -0.438785   0.548130   0.077177  -0.046196
  101  H   6  Y  -1.948069  -2.335438  -1.520105  -1.437149   1.838587
  102  H   6  Z  -0.310476  -0.873779  -0.547361   0.446442  -0.298498
  103  H   7  S  -0.027353  -0.004829   0.188813   0.055381   0.150390
  104  H   7  S -10.294846   4.952238  -5.029018  -8.885852   2.006599
  105  H   7  S   0.867986  -1.884030  -1.817813   1.781767  -1.333472
  106  H   7  X  -0.004870   0.009039   0.000418   0.010500  -0.009457
  107  H   7  Y   0.002458   0.002844   0.009563   0.018781   0.010293
  108  H   7  Z  -0.000564  -0.008791   0.002283   0.006259   0.015349
  109  H   7  X   0.516955  -1.065797   0.273423   1.231192  -0.748996
  110  H   7  Y   3.904983  -0.904422   0.099605   2.945624  -1.630044
  111  H   7  Z   0.531225  -0.178291   0.613316  -1.216451  -1.887759
  112  H   8  S   0.019242  -0.049747  -0.021547   0.017849   0.144013
  113  H   8  S  -2.545786   9.930491  -2.828916   9.296438   2.582549
  114  H   8  S  -1.157534   0.025536  -0.078692   0.602864   0.134034
  115  H   8  X   0.002470  -0.001911  -0.012029  -0.013431  -0.012643
  116  H   8  Y   0.004449  -0.013351   0.005763   0.002600   0.003512
  117  H   8  Z  -0.025063   0.014619   0.006512   0.013448  -0.007258
  118  H   8  X  -0.341403   2.588465  -0.778450   3.196836   1.547090
  119  H   8  Y   0.096855   1.123163  -0.637344   0.242941   0.794425
  120  H   8  Z   1.026689  -0.696100   1.333972  -3.047691  -0.341776
  121  H   9  S  -0.066850   0.076475  -0.076444   0.055844  -0.100075
  122  H   9  S   4.990728  -9.488565   5.620256  -8.482449  -1.413615
  123  H   9  S   0.102008  -0.892231   1.323253  -0.141920   0.619893
  124  H   9  X   0.004159  -0.014307   0.005298  -0.006979   0.001806
  125  H   9  Y  -0.007965  -0.005777   0.002992   0.000167  -0.023500
  126  H   9  Z   0.009685  -0.008945  -0.001046  -0.006765  -0.005984
  127  H   9  X   0.198235   0.672189  -0.301825   0.512818  -0.667013
  128  H   9  Y  -0.724415   2.375058  -0.052230   2.535287   1.080010
  129  H   9  Z   1.679061  -2.656269   1.768306  -2.093833  -1.233480
  130  H  10  S   0.006032  -0.079846   0.007824   0.067487  -0.105854
  131  H  10  S   1.860234   0.748626   3.923941   3.215617  -0.559364
  132  H  10  S  -0.204399   1.042319   0.680707  -1.438416   0.636548
  133  H  10  X  -0.007945  -0.006708   0.006280  -0.010283   0.008293
  134  H  10  Y  -0.000338  -0.002948  -0.012578  -0.009293   0.014716
  135  H  10  Z  -0.017356   0.015637  -0.007600   0.006877   0.004167
  136  H  10  X  -0.135113   0.522765  -1.129514   0.138707  -0.377622
  137  H  10  Y   0.649185   0.098735   1.239194   1.576548  -1.058427
  138  H  10  Z   0.582795  -0.425275   0.729939  -0.142418  -0.434821
  139  F  11  S  -0.008907   0.023181   0.001492  -0.006839  -0.006894
  140  F  11  S  -0.003713  -0.045899  -0.002090   0.031400  -0.003740
  141  F  11  S   0.167625  -0.722443  -0.062348   0.326607   0.121525
  142  F  11  S  -1.358650   4.316277   0.423661  -3.952561   0.120479
  143  F  11  X   0.021301  -0.066823   0.012989   0.083541   0.015704
  144  F  11  Y   0.037771  -0.004250   0.034464   0.016560   0.059556
  145  F  11  Z  -0.014248  -0.008601   0.046505   0.002106  -0.000203
  146  F  11  X   0.054041  -0.115123  -0.008654   0.224256   0.015384
  147  F  11  Y   0.041712  -0.000779   0.078569  -0.012527   0.103520
  148  F  11  Z   0.021568   0.019850   0.101765  -0.029041   0.021608
  149  F  11  X  -0.057917  -1.213878  -0.320034   1.074921  -0.124469
  150  F  11  Y   0.060051   0.188115  -0.432889   0.229442  -0.061804
  151  F  11  Z  -0.291563   0.497430  -0.180975  -0.618904  -0.701676
  152  F  11 XX   0.000302  -0.009433  -0.000734   0.008203   0.003574
  153  F  11 YY  -0.004360   0.005713   0.002313  -0.006411  -0.005003
  154  F  11 ZZ   0.004058   0.003720  -0.001579  -0.001792   0.001428
  155  F  11 XY   0.001238   0.003661   0.002084   0.002182   0.005378
  156  F  11 XZ   0.003952   0.005715   0.002756  -0.001485  -0.003781
  157  F  11 YZ  -0.001361   0.005064  -0.002790   0.001886  -0.003902
  158  F  11 XX  -0.002798   0.023127   0.000949  -0.022492  -0.017189
  159  F  11 YY  -0.031679  -0.022048  -0.006849  -0.001611   0.010485
  160  F  11 ZZ   0.034477  -0.001079   0.005899   0.024103   0.006703
  161  F  11 XY  -0.008601  -0.009102  -0.007074   0.008745  -0.004576
  162  F  11 XZ   0.009548  -0.024929  -0.026692   0.016122   0.010913
  163  F  11 YZ  -0.004514   0.024560   0.003197  -0.000515   0.009551

                     76         77         78         79         80
                    0.6194     0.6316     0.6566     0.6745     0.6866
                     A          A          A          A          A   
    1  C   1  S   0.002917  -0.041851  -0.029235  -0.059252   0.011457
    2  C   1  S  -0.008790  -0.026395  -0.011554  -0.032909   0.007833
    3  C   1  S  -0.928807   2.145069   1.389069   6.579931  -2.595333
    4  C   1  S   0.645162   0.503923  -7.133494  -4.313135   8.577200
    5  C   1  X  -0.086773  -0.021283   0.101283  -0.016830   0.107760
    6  C   1  Y   0.055939   0.076777   0.099308   0.033551   0.029292
    7  C   1  Z   0.016805   0.057307  -0.021894  -0.054143   0.020206
    8  C   1  X   2.596072   2.623287  -1.928910   2.656729   1.106012
    9  C   1  Y   1.703633   7.038194   3.923145   1.277478   0.631390
   10  C   1  Z  -2.515692  -1.481310  -0.204377  -8.835648   0.424231
   11  C   1  X   0.464109  -0.235329   0.148411  -0.453224  -0.465114
   12  C   1  Y   0.194988   0.150475  -0.535909  -0.815327   0.109851
   13  C   1  Z  -0.312568  -0.517209   1.287112  -0.425198  -1.900897
   14  C   1 XX   0.008259  -0.011818  -0.021968  -0.003694  -0.017773
   15  C   1 YY   0.004637   0.011024   0.010687   0.017016   0.004736
   16  C   1 ZZ  -0.012896   0.000794   0.011281  -0.013322   0.013037
   17  C   1 XY   0.009851   0.007670   0.001344  -0.006739  -0.009345
   18  C   1 XZ   0.032335   0.013511   0.000642   0.003363  -0.026644
   19  C   1 YZ   0.018716   0.016190   0.019853  -0.006661   0.011954
   20  C   1 XX  -0.423180   0.279575  -0.654175  -0.235502  -0.644940
   21  C   1 YY  -0.405765  -1.379862  -0.353400   0.942311  -0.602755
   22  C   1 ZZ   0.828945   1.100288   1.007575  -0.706809   1.247695
   23  C   1 XY   0.523198   0.705461  -2.742406   0.326410   1.207434
   24  C   1 XZ   0.003510  -0.174155   0.578265   0.245356   0.209839
   25  C   1 YZ  -1.553562  -2.431927  -0.172948  -1.544168  -1.257992
   26  C   2  S   0.020935  -0.016089   0.031102  -0.035378   0.005991
   27  C   2  S   0.015044   0.002207  -0.000641  -0.042532   0.003051
   28  C   2  S  -0.744177   1.615227  -4.679166   5.064218  -1.914807
   29  C   2  S  -1.694031  -6.043655  15.118073   2.499511 -13.915155
   30  C   2  X  -0.011873   0.007792   0.058783  -0.076970  -0.094048
   31  C   2  Y   0.030805   0.131413   0.041991  -0.040750  -0.190098
   32  C   2  Z  -0.048458  -0.109442  -0.067354  -0.280273   0.057378
   33  C   2  X  -3.125557  -2.207608   3.706792  -4.687185  -1.074791
   34  C   2  Y   0.808171   3.131923   3.380287   2.701187   0.893634
   35  C   2  Z  -4.210881  -6.725320  -1.040668  -9.843220  -0.984138
   36  C   2  X   0.627911  -0.155260  -0.911286   1.092640   1.356123
   37  C   2  Y   0.163609  -0.380900  -3.026314   0.197800   5.644541
   38  C   2  Z  -0.085965   0.397255   0.777989   2.804934  -1.143073
   39  C   2 XX  -0.013372   0.015907   0.015002   0.004893   0.003465
   40  C   2 YY   0.011464  -0.010942   0.021406  -0.013401   0.013621
   41  C   2 ZZ   0.001908  -0.004965  -0.036408   0.008508  -0.017086
   42  C   2 XY  -0.000812   0.003035   0.010698   0.008904   0.004885
   43  C   2 XZ  -0.005926   0.013652  -0.010433   0.011527   0.000570
   44  C   2 YZ  -0.003156   0.000569   0.007555   0.017513  -0.014905
   45  C   2 XX   1.140638   0.946219   0.098598   1.554893   0.095515
   46  C   2 YY  -0.885654  -0.930615  -0.567473   0.086398   0.302236
   47  C   2 ZZ  -0.254984  -0.015604   0.468876  -1.641291  -0.397751
   48  C   2 XY   0.451761  -0.421479   0.164624   1.191500  -0.870536
   49  C   2 XZ   0.433659   1.081203   0.805690   2.633642   0.004228
   50  C   2 YZ   1.407598   1.934574  -0.068098   4.429194  -0.989978
   51  C   3  S   0.005749   0.048949  -0.044669   0.071901  -0.025546
   52  C   3  S   0.005008   0.065513  -0.010926   0.027891   0.027252
   53  C   3  S   2.858385  -4.336170   1.675415  -7.483512   1.138706
   54  C   3  S   2.187488   2.258941  -7.332964   2.848343   0.825864
   55  C   3  X  -0.002794   0.018368   0.043172   0.033698   0.054176
   56  C   3  Y   0.042197  -0.109074   0.115865  -0.081862  -0.025582
   57  C   3  Z  -0.005466  -0.051547   0.015718   0.079260  -0.123152
   58  C   3  X  -6.188820  -2.282716   1.133363  -6.218451   4.783245
   59  C   3  Y   3.078863  -3.501031  -0.604326  -2.322561  -4.561202
   60  C   3  Z  -0.697705  -2.005970   1.818806  -3.446813  -0.382233
   61  C   3  X  -0.461840   0.527108  -1.341824  -0.177087  -1.136769
   62  C   3  Y  -0.091289  -0.075428   0.265109   0.627357  -0.257574
   63  C   3  Z   0.717691   0.143340  -1.385312  -0.424035   1.068718
   64  C   3 XX   0.018709  -0.000115  -0.022234  -0.001894  -0.026355
   65  C   3 YY   0.003947  -0.004060   0.002737  -0.004487  -0.003356
   66  C   3 ZZ  -0.022656   0.004174   0.019497   0.006381   0.029711
   67  C   3 XY  -0.011446   0.019484  -0.013266   0.009544   0.042773
   68  C   3 XZ   0.013460  -0.014312   0.006044   0.008355   0.039062
   69  C   3 YZ   0.026604   0.002420   0.008934  -0.025574   0.038330
   70  C   3 XX   0.044373  -1.039739   0.295503   0.187988   1.546509
   71  C   3 YY   0.211353   0.550733  -1.983096   0.535691   0.413381
   72  C   3 ZZ  -0.255726   0.489006   1.687593  -0.723679  -1.959891
   73  C   3 XY   0.295218   0.046824  -2.613124  -1.390436  -3.024123
   74  C   3 XZ  -1.619738  -0.809989   1.089909  -2.112832   0.083031
   75  C   3 YZ  -1.520134   0.450883   0.803915   0.429509  -0.272223
   76  H   4  S  -0.072337  -0.084556   0.016204  -0.012212   0.040628
   77  H   4  S   5.351992   0.098830  -7.834261  12.896782   4.789306
   78  H   4  S   0.468501  -0.098211  -0.043126   0.274293   0.730304
   79  H   4  X   0.004835   0.007245   0.006695  -0.003343  -0.006441
   80  H   4  Y  -0.000183  -0.021676   0.010351   0.009318   0.003599
   81  H   4  Z  -0.018775  -0.009603   0.016555  -0.010500   0.033901
   82  H   4  X   0.964071   0.624263  -2.344361   3.666886   1.114333
   83  H   4  Y   0.018596   2.236878   0.113790  -1.503407   0.550815
   84  H   4  Z  -1.835701   0.363334   2.462709  -2.482534  -2.137921
   85  H   5  S   0.075170  -0.044559  -0.062798   0.013662  -0.081826
   86  H   5  S  -2.356217  -8.487457   1.020110  -0.588497  -2.363857
   87  H   5  S  -0.358806   0.404202  -0.463944   0.323236   0.801172
   88  H   5  X   0.016819  -0.003779  -0.014822   0.000872  -0.021967
   89  H   5  Y   0.006033  -0.001666  -0.000032   0.011699   0.001359
   90  H   5  Z   0.031499   0.009850  -0.019162   0.013806  -0.015105
   91  H   5  X   0.441586   3.260315  -0.246927   0.136046   1.533674
   92  H   5  Y   0.418702   0.977266   1.383756  -0.913750   0.042349
   93  H   5  Z   0.323511   2.198434  -0.070191   1.033984  -0.320080
   94  H   6  S   0.005532   0.040090   0.066717   0.060460   0.042486
   95  H   6  S   3.572718  16.777145   8.468922  -5.378095   3.627684
   96  H   6  S   0.230101  -0.071476   0.019571  -0.208564  -0.356516
   97  H   6  X  -0.024912  -0.013960   0.010855  -0.005697   0.005273
   98  H   6  Y  -0.017492  -0.017350  -0.025530  -0.007299  -0.018897
   99  H   6  Z  -0.010198   0.002149  -0.010557   0.019331   0.016885
  100  H   6  X   0.655732   1.845519  -1.241011  -0.047381   1.386315
  101  H   6  Y   1.573950   6.456180   3.333117  -2.279128   0.844549
  102  H   6  Z  -0.657880   0.054588   1.072283  -0.531592  -1.933826
  103  H   7  S  -0.028262  -0.121898   0.081699   0.115884   0.094984
  104  H   7  S   1.615201  -2.392026  -2.511395  -5.761533   2.811820
  105  H   7  S  -0.228489   0.685857   1.210699  -0.802198  -2.514687
  106  H   7  X   0.003602  -0.001613   0.029297  -0.000501   0.007522
  107  H   7  Y  -0.001381  -0.016498   0.009304   0.004997   0.026430
  108  H   7  Z   0.003307  -0.008187   0.007576   0.020776   0.011447
  109  H   7  X  -0.524000   1.188292  -1.324774   0.217564   0.374854
  110  H   7  Y  -0.346239   2.171878   0.629185   1.635426  -1.359379
  111  H   7  Z  -1.141643   0.360996   0.190101  -1.495449   0.239941
  112  H   8  S   0.027153  -0.038490  -0.067800   0.029649  -0.036892
  113  H   8  S -14.173428   0.006474   0.769573  -8.417202   8.306771
  114  H   8  S  -0.775839   0.036724  -0.390857  -0.316072  -1.183711
  115  H   8  X   0.025650  -0.001802  -0.000487   0.005784   0.020093
  116  H   8  Y   0.002448  -0.000184   0.023993   0.009070   0.010812
  117  H   8  Z  -0.003427   0.000427   0.007225   0.000351  -0.014981
  118  H   8  X  -5.128327  -0.042897  -0.259691  -2.004234   3.315769
  119  H   8  Y   0.107029   0.611083  -2.090440  -1.885073  -1.814484
  120  H   8  Z  -0.030461  -0.404457   0.039236   0.537913  -0.426205
  121  H   9  S  -0.035860  -0.044118  -0.042801   0.144777  -0.153768
  122  H   9  S  -5.880628   2.656620   2.700442   7.296477   6.031622
  123  H   9  S   0.507840   0.119867  -0.089030  -0.004966   0.301242
  124  H   9  X   0.010055   0.006083  -0.006459  -0.019143  -0.003256
  125  H   9  Y  -0.026556  -0.019121  -0.013531   0.012382  -0.010578
  126  H   9  Z   0.014292  -0.000057   0.008413  -0.034641   0.035171
  127  H   9  X  -1.136822   0.510559   1.218599   0.827033   1.319584
  128  H   9  Y   1.376179   0.202371   0.760549  -2.174819  -1.939708
  129  H   9  Z  -1.774155   1.480209   1.203716   3.002069   0.325336
  130  H  10  S   0.061709  -0.139685   0.040346   0.037396  -0.155782
  131  H  10  S   9.012369  -4.737262  -2.651799  -6.854712 -13.743190
  132  H  10  S  -0.129191  -0.104170  -0.017683   0.362706   1.838180
  133  H  10  X   0.004018  -0.006396   0.002813  -0.000146  -0.017100
  134  H  10  Y  -0.001802   0.016049  -0.009606   0.016373   0.018366
  135  H  10  Z   0.009688   0.007441  -0.015478  -0.009662  -0.007210
  136  H  10  X  -3.196407   1.466289  -1.303086  -0.599003   0.740030
  137  H  10  Y   3.884371  -1.165558  -1.372552  -2.775846  -5.580506
  138  H  10  Z   0.370321  -0.686264  -0.320557   0.343205  -3.615027
  139  F  11  S   0.011493   0.007293  -0.000484   0.008961  -0.003900
  140  F  11  S  -0.007785   0.000984   0.017804   0.014892   0.024484
  141  F  11  S  -0.297266  -0.157361   0.106986  -0.150160   0.186185
  142  F  11  S   0.390066   0.677188  -0.547256   1.899404   3.145159
  143  F  11  X  -0.008173  -0.005262  -0.041380  -0.052858  -0.105560
  144  F  11  Y  -0.034395   0.030042  -0.070932   0.022656  -0.034041
  145  F  11  Z  -0.006429  -0.018500  -0.021354   0.014329  -0.008503
  146  F  11  X   0.070309   0.029564  -0.092202  -0.099002  -0.321720
  147  F  11  Y  -0.054770  -0.029172  -0.136778   0.075761  -0.038263
  148  F  11  Z   0.047167  -0.032249  -0.047265   0.035872  -0.025501
  149  F  11  X  -0.549280   0.288722  -0.341391  -0.888849  -0.353615
  150  F  11  Y  -0.204860   0.642623  -0.144802  -0.139123  -0.446552
  151  F  11  Z  -0.232141   0.232559  -0.442566  -0.041736  -0.029754
  152  F  11 XX  -0.001613   0.003105  -0.005637   0.003198  -0.004587
  153  F  11 YY   0.000886  -0.002632   0.003882  -0.000760   0.001238
  154  F  11 ZZ   0.000727  -0.000472   0.001755  -0.002438   0.003349
  155  F  11 XY  -0.003951   0.002245  -0.008326   0.001951  -0.007138
  156  F  11 XZ   0.003108  -0.001375  -0.001580  -0.001727  -0.003756
  157  F  11 YZ  -0.000757  -0.000967   0.003225  -0.000900   0.000315
  158  F  11 XX  -0.013100  -0.021002   0.015407   0.001817   0.032421
  159  F  11 YY  -0.015534   0.008735   0.004722  -0.025995  -0.021046
  160  F  11 ZZ   0.028634   0.012267  -0.020129   0.024178  -0.011374
  161  F  11 XY   0.005520   0.019548   0.024843  -0.006585  -0.009433
  162  F  11 XZ  -0.024789  -0.015203   0.000386  -0.011868   0.015612
  163  F  11 YZ  -0.005058  -0.012342  -0.018014   0.017644  -0.001333

                     81         82         83         84         85
                    0.6900     0.6972     0.7111     0.7328     0.7765
                     A          A          A          A          A   
    1  C   1  S   0.001727   0.002373  -0.053548  -0.014419  -0.008550
    2  C   1  S  -0.019839  -0.023035  -0.040779  -0.042715  -0.048818
    3  C   1  S  -0.656107   0.994365   4.527263   1.346070   0.555613
    4  C   1  S  -4.199768   3.842238  -2.517090   4.426299   5.114930
    5  C   1  X   0.037601   0.200557  -0.076862  -0.118836  -0.149661
    6  C   1  Y   0.062319  -0.064660   0.028384  -0.132299   0.281714
    7  C   1  Z   0.007190   0.001522   0.088641  -0.017959   0.161999
    8  C   1  X  -0.455779   2.527416  -2.334688   3.180936   1.453188
    9  C   1  Y  -0.440187   0.370072   0.189272   1.774841   2.396675
   10  C   1  Z   0.869067   1.631239  -0.866425  -0.818081  -0.871594
   11  C   1  X  -0.833243  -0.689185  -0.290156   2.432586   1.324281
   12  C   1  Y   0.714170   0.973132   0.350240   2.757694  -1.186394
   13  C   1  Z   1.930582  -0.358584   0.082953   0.339497  -2.143709
   14  C   1 XX   0.005479  -0.013046  -0.022874  -0.005649  -0.014464
   15  C   1 YY  -0.009541   0.006707   0.036611  -0.002780   0.043292
   16  C   1 ZZ   0.004061   0.006340  -0.013737   0.008430  -0.028828
   17  C   1 XY   0.004670  -0.015205   0.021185  -0.013683   0.014598
   18  C   1 XZ   0.006484  -0.011814  -0.012451   0.000293   0.054698
   19  C   1 YZ  -0.002118  -0.003402   0.002233  -0.005264  -0.004140
   20  C   1 XX  -1.044272   0.930702   0.842172  -1.008208   0.225306
   21  C   1 YY  -0.135839  -0.520986  -1.743533  -1.876473   1.851751
   22  C   1 ZZ   1.180111  -0.409716   0.901361   2.884681  -2.077057
   23  C   1 XY   2.338694   1.090216   0.996234  -1.938206   0.104878
   24  C   1 XZ  -0.877867  -1.135071  -0.042957   3.297254  -1.435682
   25  C   1 YZ   2.366037   1.017243   1.329159   2.338596  -1.492512
   26  C   2  S  -0.024848  -0.004467   0.068949  -0.005534   0.032055
   27  C   2  S  -0.006962   0.041058   0.037665   0.000910  -0.025225
   28  C   2  S   5.222496   0.269037  -8.067391   1.018348  -2.020757
   29  C   2  S   3.272837  -5.057993  -0.038441   0.841405   2.894447
   30  C   2  X  -0.085615  -0.347572   0.042908   0.131107  -0.063883
   31  C   2  Y   0.078307   0.045154   0.174682   0.142543  -0.253020
   32  C   2  Z   0.040922   0.059361  -0.080081   0.132377   0.065300
   33  C   2  X  -1.684811  -2.940547   1.087220  -0.366291   2.512893
   34  C   2  Y   0.057483  -2.312094   2.757888   0.373673   3.568862
   35  C   2  Z   0.134281   1.285138   3.428705  -0.762957   4.740000
   36  C   2  X   0.345769   1.768370   0.330081  -2.156968  -0.338971
   37  C   2  Y  -2.692263   0.021984  -1.168395  -0.635802   4.041890
   38  C   2  Z   0.612460  -1.219378   1.436320  -4.442382  -1.857269
   39  C   2 XX   0.001580  -0.010039   0.004494  -0.028803  -0.025176
   40  C   2 YY   0.014507   0.000940   0.012615   0.013177   0.002378
   41  C   2 ZZ  -0.016086   0.009099  -0.017110   0.015626   0.022798
   42  C   2 XY  -0.004170  -0.010056  -0.010249   0.008801   0.001997
   43  C   2 XZ   0.000056  -0.002976   0.000971  -0.016467  -0.016445
   44  C   2 YZ  -0.000067   0.001594   0.023413   0.010828   0.007697
   45  C   2 XX   0.695427   2.505303   0.206527   1.566333   2.254136
   46  C   2 YY  -0.011443  -1.682841  -1.732871  -2.202904   3.835762
   47  C   2 ZZ  -0.683984  -0.822462   1.526344   0.636571  -6.089898
   48  C   2 XY   0.367755   2.460687  -3.255378  -1.065160   1.925870
   49  C   2 XZ  -1.004020   0.932371  -1.129497   2.439717  -4.182714
   50  C   2 YZ  -1.421064  -0.718531   0.315677   1.765517  -0.254154
   51  C   3  S   0.004170   0.046696  -0.055098   0.017210  -0.044855
   52  C   3  S  -0.062891   0.009096  -0.072882   0.076962  -0.030299
   53  C   3  S   0.512637  -6.258137   2.935309  -0.471640   7.170586
   54  C   3  S   4.239331   2.147098   2.134913  -6.404077  -4.556197
   55  C   3  X  -0.016600   0.016018  -0.051075   0.199419   0.017320
   56  C   3  Y  -0.077092   0.088987  -0.055072  -0.011730  -0.061584
   57  C   3  Z  -0.065256  -0.108521   0.033276  -0.132278  -0.005321
   58  C   3  X  -0.666137  -2.915207   1.086595  -3.767214   5.905171
   59  C   3  Y  -0.435211   2.835852  -0.694401  -3.318367   0.313597
   60  C   3  Z   0.153455  -3.919185   4.006666   1.482411   4.926450
   61  C   3  X   1.929992  -1.168948   0.131435  -2.407697  -1.396710
   62  C   3  Y   0.289037   0.090793   0.563704  -1.708863  -1.319814
   63  C   3  Z  -0.078869   0.314127   0.270317   1.266819   0.294742
   64  C   3 XX  -0.029404  -0.016510  -0.002194   0.022472  -0.022906
   65  C   3 YY  -0.002924  -0.004028   0.014396  -0.006884  -0.005588
   66  C   3 ZZ   0.032328   0.020538  -0.012202  -0.015588   0.028494
   67  C   3 XY   0.014876  -0.002322  -0.005528   0.030089   0.008881
   68  C   3 XZ  -0.003154   0.015558  -0.008755  -0.009715   0.015349
   69  C   3 YZ  -0.018374   0.011655   0.007110  -0.008917  -0.038365
   70  C   3 XX  -0.044016   2.518192   1.220646   1.043785   3.204697
   71  C   3 YY  -0.895734  -0.301590  -1.488374   0.783978   0.685924
   72  C   3 ZZ   0.939750  -2.216603   0.267727  -1.827763  -3.890621
   73  C   3 XY  -0.645065   0.926253  -1.395609   0.845512   2.080899
   74  C   3 XZ  -2.756255   1.586909   3.073168  -0.631632   2.044348
   75  C   3 YZ   0.654150  -0.872422  -1.653854   0.319911   1.507371
   76  H   4  S   0.043964   0.144231  -0.057089   0.015024  -0.029388
   77  H   4  S  -1.525230   0.013339  -6.707079   5.070922  -1.493677
   78  H   4  S  -1.674169   0.007845  -0.413351   0.439076   2.329080
   79  H   4  X   0.010676  -0.029559   0.029289  -0.005832   0.039206
   80  H   4  Y  -0.006198  -0.002847  -0.002125   0.006348   0.008412
   81  H   4  Z   0.011387   0.025182  -0.031394  -0.001529  -0.058381
   82  H   4  X  -1.322901   0.928564  -1.556696   0.430104  -0.106825
   83  H   4  Y   0.230498   0.511928   0.686801  -1.987698   0.209651
   84  H   4  Z  -1.234536  -0.444977   2.415924  -1.754525   1.238162
   85  H   5  S   0.017813  -0.038095  -0.025866   0.081720   0.142398
   86  H   5  S   3.050098  -6.707804  -0.257619 -11.387117   3.812358
   87  H   5  S  -0.140074  -0.328472  -0.033140  -1.547453  -0.186803
   88  H   5  X   0.002860  -0.011866  -0.005088   0.005261   0.020476
   89  H   5  Y   0.013708   0.002595   0.014112  -0.011000  -0.002824
   90  H   5  Z   0.007000  -0.027505  -0.029739   0.016956   0.037537
   91  H   5  X  -0.463309   2.027242  -0.135249   3.819889  -2.158501
   92  H   5  Y  -2.116622  -0.819854  -0.715947   0.324884   0.744027
   93  H   5  Z  -0.881173   2.244796   0.884351  -0.006831   0.039931
   94  H   6  S   0.066353   0.005066   0.006367  -0.021980   0.213734
   95  H   6  S  -3.630403   2.284515   1.863895   6.263413  -0.442360
   96  H   6  S   0.849806   0.492046   0.564438   1.895026  -1.120779
   97  H   6  X  -0.002597   0.003095  -0.012423   0.002059  -0.015557
   98  H   6  Y  -0.011177  -0.003303  -0.015754   0.015888  -0.086614
   99  H   6  Z  -0.014179  -0.016821   0.002656  -0.004142  -0.005599
  100  H   6  X   0.766069   1.276289   0.965669  -0.294802  -0.945729
  101  H   6  Y  -1.451203   0.882630  -0.080771   1.591819   0.993538
  102  H   6  Z   1.712220   0.871984   1.622378   2.570566  -1.088107
  103  H   7  S  -0.011541  -0.036640  -0.113915  -0.117189   0.145876
  104  H   7  S  -1.138774   5.466557   4.360483   2.938637 -14.648621
  105  H   7  S   1.075161   0.224613   0.235071   0.706857  -2.474951
  106  H   7  X   0.003698   0.010935  -0.013179  -0.008949   0.007536
  107  H   7  Y  -0.000585  -0.006122  -0.007239  -0.018289   0.035385
  108  H   7  Z  -0.021743   0.001795   0.005165  -0.004920  -0.016419
  109  H   7  X   0.148505  -2.453130   1.423676   0.393389   0.297501
  110  H   7  Y   0.408461  -1.094996  -1.429031  -0.324779   3.650489
  111  H   7  Z   1.279328  -0.061142  -0.882318  -0.838642   2.246497
  112  H   8  S   0.055144   0.015403   0.012989   0.003127   0.011826
  113  H   8  S  -5.975963  -2.842284  -2.076096 -10.803601  -3.850375
  114  H   8  S   1.675884  -0.847225  -0.310609  -2.028008  -0.943775
  115  H   8  X   0.008168   0.004997  -0.003099  -0.004208   0.007376
  116  H   8  Y   0.007208  -0.001346  -0.001091  -0.005257  -0.003616
  117  H   8  Z   0.014300  -0.002542  -0.003961  -0.009980   0.006141
  118  H   8  X  -1.871372   0.815844  -0.381557  -3.023805  -0.813093
  119  H   8  Y  -1.348122   1.075432  -0.966204   0.547174   0.176469
  120  H   8  Z  -1.600694   2.740426   1.850786   0.866875   2.494063
  121  H   9  S   0.114537  -0.050323   0.059212  -0.169555   0.058808
  122  H   9  S   1.479985  -3.478704   2.652779   8.933815  13.357053
  123  H   9  S  -0.591137  -0.055774   0.448186   1.675644   0.695825
  124  H   9  X   0.010418   0.002042   0.007461   0.026185  -0.009430
  125  H   9  Y  -0.004884  -0.019602   0.007726  -0.020581   0.030607
  126  H   9  Z  -0.033801  -0.000702  -0.006653   0.029116  -0.032249
  127  H   9  X  -1.411904   0.579874   1.320421  -0.514233  -0.419204
  128  H   9  Y  -0.048472   0.710422  -0.654058  -2.071047  -3.348814
  129  H   9  Z   1.675597  -1.206347   1.291430   1.509572   2.868791
  130  H  10  S   0.015664   0.016844   0.043877  -0.204699  -0.029121
  131  H  10  S  -0.478380  10.185201   2.639692  -1.709986  -1.288042
  132  H  10  S  -1.419283  -0.054932  -0.306877  -0.596070   0.135874
  133  H  10  X   0.002977  -0.014160   0.009238  -0.011302  -0.018608
  134  H  10  Y   0.016727  -0.008113  -0.008753   0.048098  -0.001258
  135  H  10  Z   0.015826  -0.015720  -0.004631   0.023380   0.006470
  136  H  10  X  -0.444133  -0.919630  -1.435579   0.207746   0.754258
  137  H  10  Y  -0.376388   3.635329   0.314739  -0.945775  -0.766912
  138  H  10  Z   1.852904   1.405942  -0.616923  -0.331176  -0.719536
  139  F  11  S  -0.012286  -0.019081   0.009535   0.005399  -0.010493
  140  F  11  S   0.001608  -0.012094  -0.019978   0.006277  -0.010186
  141  F  11  S   0.299043   0.411981  -0.323706  -0.078228   0.198477
  142  F  11  S  -2.049601  -1.129527  -1.257941   0.116263  -2.569742
  143  F  11  X   0.027315   0.040075   0.057435  -0.018278   0.053751
  144  F  11  Y  -0.043812  -0.041346   0.001814   0.004634  -0.049614
  145  F  11  Z  -0.061188   0.031200  -0.063066  -0.005427  -0.084194
  146  F  11  X  -0.009279  -0.021818   0.227253   0.002212   0.023556
  147  F  11  Y  -0.089538  -0.032412  -0.067338   0.009640  -0.119451
  148  F  11  Z  -0.079126   0.117372  -0.163531  -0.075066  -0.195768
  149  F  11  X   0.430489   0.325722   0.484726  -0.066062   0.822314
  150  F  11  Y  -0.261749  -0.332447  -0.316217   0.098712  -0.377534
  151  F  11  Z  -0.013877  -0.016484  -0.290837  -0.158285  -0.756605
  152  F  11 XX  -0.004810   0.001710   0.003439  -0.000496  -0.007211
  153  F  11 YY   0.002386   0.000257  -0.006159  -0.003756   0.002879
  154  F  11 ZZ   0.002424  -0.001968   0.002719   0.004253   0.004332
  155  F  11 XY  -0.005187  -0.002504  -0.002471   0.001931  -0.000860
  156  F  11 XZ  -0.003180   0.008651  -0.002320  -0.000197  -0.004809
  157  F  11 YZ   0.001994   0.009281  -0.003025   0.002173   0.009161
  158  F  11 XX   0.004346  -0.029819  -0.011947  -0.003002  -0.004521
  159  F  11 YY  -0.006328   0.012555   0.001195   0.008208  -0.007240
  160  F  11 ZZ   0.001982   0.017264   0.010753  -0.005206   0.011762
  161  F  11 XY   0.016685   0.017715   0.009932   0.010777   0.012032
  162  F  11 XZ   0.024977   0.003441   0.010685  -0.000975   0.038068
  163  F  11 YZ  -0.031820   0.013038  -0.025640   0.012471  -0.035987

                     86         87         88         89         90
                    0.7821     0.8644     0.8789     0.9224     0.9490
                     A          A          A          A          A   
    1  C   1  S  -0.005566   0.039534   0.033103   0.104520   0.003084
    2  C   1  S  -0.006714   0.000621   0.167745   0.286540   0.027115
    3  C   1  S   1.349821  -2.752317  -0.689094  -1.554510   1.431552
    4  C   1  S   3.193490  13.344931  -7.931504  -9.768334  -2.955418
    5  C   1  X  -0.077355  -0.348976  -0.163253  -0.433499  -0.352256
    6  C   1  Y  -0.183621   0.085985  -0.209146  -0.023117  -0.534129
    7  C   1  Z  -0.131619  -0.355776   0.279383   0.261270  -0.363821
    8  C   1  X  -0.206573   2.619903   0.682500   4.579076   2.270447
    9  C   1  Y   2.327516  -1.119493   0.591085   1.704783   5.944826
   10  C   1  Z  -2.831642   7.136214  -3.172729  -1.865876   2.631736
   11  C   1  X   0.092199   0.949702   0.273770   2.173858   1.035764
   12  C   1  Y   1.566875   1.234210  -0.891860  -1.247904   1.218776
   13  C   1  Z  -0.076861  -1.754662   0.605402   1.721381   1.447368
   14  C   1 XX   0.034983   0.083295   0.019934  -0.085313   0.124603
   15  C   1 YY   0.017277  -0.041928  -0.080644   0.046877  -0.235263
   16  C   1 ZZ  -0.052260  -0.041367   0.060710   0.038436   0.110660
   17  C   1 XY   0.016911   0.004001  -0.009343   0.045232  -0.045852
   18  C   1 XZ   0.071473   0.025893   0.051915   0.169370   0.015234
   19  C   1 YZ   0.010918   0.038254  -0.098560  -0.125430   0.007930
   20  C   1 XX  -0.808840  -0.119862  -0.582976  -0.069258  -0.893382
   21  C   1 YY  -2.705249   1.102868   2.080556  -0.687084   1.851340
   22  C   1 ZZ   3.514089  -0.983006  -1.497580   0.756342  -0.957958
   23  C   1 XY   1.324439  -0.176974   0.500309  -0.831175   0.445117
   24  C   1 XZ  -2.900644   0.086093  -1.011583  -0.059242  -0.301639
   25  C   1 YZ   0.156335  -0.050087  -0.791462  -0.010145  -0.142888
   26  C   2  S  -0.004468  -0.036117   0.019106   0.007877   0.000705
   27  C   2  S   0.015425  -0.017640  -0.015206   0.048363  -0.042006
   28  C   2  S   1.447503   1.022961  -2.172572   0.510383  -0.032924
   29  C   2  S  -9.060294 -20.579808   8.290562  -8.274611   8.181833
   30  C   2  X  -0.109151   0.066859  -0.051262  -0.283762   0.030056
   31  C   2  Y   0.126792   0.233097   0.269716   0.069182  -0.339765
   32  C   2  Z  -0.064307   0.205529   0.075298   0.022010  -0.204510
   33  C   2  X  -2.750573  -3.188013   1.594533  -2.538913   1.121532
   34  C   2  Y   0.619550  -6.180767   0.987041  -1.625782   4.343548
   35  C   2  Z  -2.744816   1.294889  -1.161103  -4.212666   2.695866
   36  C   2  X   1.631330   1.306636   0.416115   2.312592  -0.852694
   37  C   2  Y   0.603177   2.074563  -0.849870   0.460325   0.042051
   38  C   2  Z   0.438045  -1.901437   0.387669   4.041123  -0.075303
   39  C   2 XX   0.009762  -0.012921   0.034209   0.063488   0.010650
   40  C   2 YY  -0.033769  -0.073053  -0.021959  -0.065747   0.081506
   41  C   2 ZZ   0.024007   0.085974  -0.012250   0.002259  -0.092155
   42  C   2 XY   0.013870   0.019759   0.008337  -0.004752  -0.003250
   43  C   2 XZ   0.035294   0.067665   0.004640  -0.019247  -0.006232
   44  C   2 YZ  -0.006023  -0.022873   0.065155  -0.031458  -0.027255
   45  C   2 XX   0.295503   0.643795  -0.308292   0.563372   1.244780
   46  C   2 YY  -2.353114   0.303614   1.758911  -0.777373   1.385576
   47  C   2 ZZ   2.057611  -0.947409  -1.450619   0.214001  -2.630356
   48  C   2 XY   3.876611  -0.357665   0.808380   0.861749  -0.716414
   49  C   2 XZ  -2.204066   0.501591  -1.420653   1.952746  -1.156184
   50  C   2 YZ   5.072137  -3.342405  -1.080257   0.577200  -0.943584
   51  C   3  S   0.043685   0.051024   0.072939  -0.041517   0.044906
   52  C   3  S   0.070818   0.046908   0.194374  -0.148868   0.157240
   53  C   3  S  -1.348398  -2.280554   1.006366  -3.491732  -0.268618
   54  C   3  S   3.306213   6.540768  -3.717713  14.696103  -4.026662
   55  C   3  X  -0.002649   0.271996   0.356100  -0.184908  -0.139999
   56  C   3  Y  -0.051013  -0.362138  -0.240248   0.206325   0.122646
   57  C   3  Z   0.098092   0.357453  -0.308572   0.233806   0.082399
   58  C   3  X  -1.679696  -0.538380  -1.713539   0.909606   4.936686
   59  C   3  Y   0.365695   3.078601   4.306053  -3.399154  -1.193806
   60  C   3  Z  -2.553334  -6.122982   2.701894  -5.586558   1.182883
   61  C   3  X   0.134502  -0.128226  -2.321069   3.482515   0.311273
   62  C   3  Y   0.384793   1.821143   0.413517  -0.477728  -0.728537
   63  C   3  Z   0.344410  -0.037470   0.564393   2.250334  -0.651503
   64  C   3 XX   0.022415  -0.025872   0.051434  -0.042237  -0.050589
   65  C   3 YY  -0.040417   0.019851  -0.055819   0.059842   0.026212
   66  C   3 ZZ   0.018002   0.006021   0.004386  -0.017605   0.024376
   67  C   3 XY   0.022642   0.004871   0.064865  -0.032647   0.014690
   68  C   3 XZ  -0.002871  -0.094553   0.028505  -0.042848   0.089547
   69  C   3 YZ  -0.052721  -0.089902   0.001380   0.030991   0.129269
   70  C   3 XX  -1.381472   1.925247   0.123609   0.080419   1.355704
   71  C   3 YY   2.766403  -0.940837  -0.585555   0.499341  -0.897335
   72  C   3 ZZ  -1.384931  -0.984410   0.461946  -0.579760  -0.458368
   73  C   3 XY   0.307121  -1.360098  -0.826648  -0.269608   0.112641
   74  C   3 XZ  -0.334250   1.366697   0.912268  -1.140428   1.062853
   75  C   3 YZ   1.713189  -0.778633   0.024692  -0.096483  -0.730105
   76  H   4  S  -0.028803   0.191082  -0.304634  -0.576126   0.059025
   77  H   4  S  -7.778096  -0.690194   4.895328   7.970849  -2.726449
   78  H   4  S  -0.109794   0.871973   1.096724   1.557079  -0.596795
   79  H   4  X  -0.005716  -0.040305   0.084703   0.195331  -0.047461
   80  H   4  Y   0.001112   0.009202  -0.075055  -0.101080   0.011139
   81  H   4  Z  -0.027627  -0.005357  -0.065802  -0.128263   0.034010
   82  H   4  X  -2.714001  -0.424347   0.557062   0.916153  -1.317407
   83  H   4  Y   1.809746   0.329480  -0.746774  -0.436464  -0.867598
   84  H   4  Z   0.025057  -0.589273  -0.398653  -1.531515   0.788479
   85  H   5  S   0.133120   0.273693  -0.221245  -0.311307   0.040012
   86  H   5  S   7.734180  -6.104112   6.184440  -4.564860  -3.414743
   87  H   5  S  -1.067830  -1.110652  -0.196809  -2.200215  -1.244420
   88  H   5  X   0.050836   0.140600  -0.031876  -0.032572   0.146617
   89  H   5  Y  -0.002970   0.009384  -0.029394  -0.010727   0.002587
   90  H   5  Z   0.042412   0.079016   0.008696   0.055531   0.073385
   91  H   5  X  -2.472421   1.351876  -1.605793   1.656188   0.855191
   92  H   5  Y  -0.566006   0.419892  -0.585114   0.307674  -0.858397
   93  H   5  Z  -1.962705   0.165143  -0.042493   1.273322   0.788960
   94  H   6  S   0.024873   0.150423  -0.460837  -0.269080  -0.162868
   95  H   6  S   6.777363   0.057700  -4.715298   6.453441   6.096533
   96  H   6  S   1.350071   0.267744  -0.050808   0.360735   1.971504
   97  H   6  X  -0.005981  -0.017421   0.017672  -0.004452   0.038247
   98  H   6  Y   0.015508  -0.001038   0.139640   0.060088   0.229057
   99  H   6  Z   0.003429  -0.050072   0.041072   0.049526   0.032701
  100  H   6  X  -0.068635  -0.520171  -0.626981  -0.464703   0.054082
  101  H   6  Y   1.537910   0.800356  -2.215296   1.355371   2.078275
  102  H   6  Z   0.131843  -1.281343  -0.411900   0.223865  -0.338657
  103  H   7  S  -0.088387  -0.079079  -0.099395  -0.067504   0.054742
  104  H   7  S  -0.378447  10.770490  -4.385231   5.458692  -9.285304
  105  H   7  S  -0.242284  -0.047538  -0.056984  -0.427654  -0.755326
  106  H   7  X   0.014487  -0.020682   0.001252   0.008105   0.013092
  107  H   7  Y  -0.042202  -0.066850  -0.075420  -0.036262   0.093334
  108  H   7  Z   0.000652  -0.031373  -0.015791  -0.014018   0.061731
  109  H   7  X  -1.461967  -0.410833  -0.197473  -1.012691   0.759420
  110  H   7  Y   1.481810  -2.934128   1.354752  -1.608339   2.526199
  111  H   7  Z  -2.002464   0.800535   0.994042  -0.125775   0.404855
  112  H   8  S   0.030538   0.145098  -0.225150   0.300842  -0.143066
  113  H   8  S   2.169882   4.449095  -1.219047   4.410231   4.520277
  114  H   8  S   0.087412   0.005827  -1.982869   1.849554   0.973504
  115  H   8  X  -0.016574  -0.041651  -0.051785  -0.008931   0.108468
  116  H   8  Y   0.006466  -0.020255   0.000449   0.008318   0.013436
  117  H   8  Z  -0.008587   0.057187  -0.011366   0.006807  -0.021171
  118  H   8  X   0.475902   2.972430   0.013905   2.043017   1.297300
  119  H   8  Y  -0.572212  -1.135108  -1.519877   0.589012   0.347867
  120  H   8  Z   0.799138   1.976788   0.261283  -0.068819   0.492284
  121  H   9  S   0.070525   0.257783  -0.257911   0.190870  -0.148351
  122  H   9  S   3.203259  -8.228177  -0.594037  -2.658509   2.648841
  123  H   9  S  -0.032034  -2.015481   0.871658   0.886332   0.247876
  124  H   9  X  -0.006578   0.012975  -0.006906   0.018134  -0.024883
  125  H   9  Y   0.010915   0.078434  -0.077858   0.059876  -0.056553
  126  H   9  Z  -0.044072  -0.130667   0.035212  -0.031878   0.040702
  127  H   9  X   0.428166   1.419270   0.990563  -0.231777  -0.128004
  128  H   9  Y  -1.284472   1.396179   0.391929   0.138541  -0.170391
  129  H   9  Z   0.427009  -1.972521  -0.705937  -0.394719   1.115242
  130  H  10  S  -0.086789   0.066119  -0.366515   0.511916  -0.137063
  131  H  10  S  -7.978313   3.705305   7.617410  -9.930342   0.694612
  132  H  10  S   0.289663   1.344219   1.181771  -1.219826  -0.803683
  133  H  10  X  -0.006972   0.006706  -0.067862   0.047013  -0.037391
  134  H  10  Y   0.012911   0.041768   0.135835  -0.122220  -0.037267
  135  H  10  Z   0.020401   0.060100   0.060998  -0.041687  -0.071118
  136  H  10  X   2.171002  -0.874395  -0.899829   1.200267  -0.173037
  137  H  10  Y  -2.610171   0.931633   1.972755  -2.657055   0.332315
  138  H  10  Z  -1.304100   0.017586   0.548518  -1.030905  -0.225865
  139  F  11  S   0.003428  -0.002246   0.000868  -0.012512  -0.000756
  140  F  11  S   0.010453  -0.008193  -0.011965   0.008323   0.005896
  141  F  11  S  -0.017422   0.024752  -0.063116   0.353689   0.059011
  142  F  11  S  -0.389340   1.871811  -0.822711   0.929040  -1.057834
  143  F  11  X   0.055186  -0.037760   0.023088  -0.024668  -0.017631
  144  F  11  Y  -0.058845   0.027316   0.019100  -0.001611  -0.034497
  145  F  11  Z   0.039633  -0.002260  -0.029116  -0.073865  -0.028673
  146  F  11  X   0.186890  -0.089431   0.125903  -0.177889  -0.050400
  147  F  11  Y  -0.222437   0.062722  -0.032048  -0.018254   0.017252
  148  F  11  Z   0.166947  -0.023930   0.007925   0.111269  -0.081476
  149  F  11  X   0.301242  -0.393050   0.213599  -0.185148   0.372068
  150  F  11  Y   0.002055   0.150685  -0.103035  -0.059586  -0.211871
  151  F  11  Z  -0.327225   0.230572  -0.143339   0.091337   0.022174
  152  F  11 XX   0.009593  -0.002434   0.003072   0.000325  -0.003635
  153  F  11 YY   0.005588  -0.002861   0.000447  -0.000926   0.001372
  154  F  11 ZZ  -0.015182   0.005295  -0.003519   0.000600   0.002263
  155  F  11 XY  -0.009560   0.004167   0.001952  -0.006866   0.002788
  156  F  11 XZ   0.003601  -0.001155  -0.001255  -0.003483   0.001678
  157  F  11 YZ   0.002453  -0.002063   0.002658   0.001527   0.002139
  158  F  11 XX  -0.069921   0.008595  -0.096357  -0.021465   0.015819
  159  F  11 YY   0.026720   0.034792   0.034964  -0.029290  -0.032519
  160  F  11 ZZ   0.043202  -0.043387   0.061393   0.050754   0.016700
  161  F  11 XY   0.045234   0.022553   0.054451   0.025581  -0.054986
  162  F  11 XZ  -0.012782  -0.000584  -0.019855  -0.050368   0.046645
  163  F  11 YZ  -0.045791   0.029326  -0.027769  -0.048835   0.053119

                     91         92         93         94         95
                    0.9685     0.9770     1.0190     1.0800     1.0885
                     A          A          A          A          A   
    1  C   1  S  -0.093442  -0.040184  -0.138739   0.173488  -0.045832
    2  C   1  S  -0.257844  -0.088399  -0.316870   0.327758  -0.117866
    3  C   1  S  -1.258285   2.049996   2.081246  -4.142993  -2.519628
    4  C   1  S   8.024484  -2.223195   1.424731   7.211604  -0.658804
    5  C   1  X  -0.470842   0.070050  -0.038004   0.110158   0.030649
    6  C   1  Y   0.336579  -0.054974  -0.134988   0.462498  -0.110902
    7  C   1  Z   0.087031  -0.085505   0.054301  -0.596660  -0.214246
    8  C   1  X   3.325553  -1.209024   0.808055  -1.773182  -1.161010
    9  C   1  Y  -8.706270   2.189703   2.120661 -10.089266  -3.077334
   10  C   1  Z   2.321903  -0.544979   0.425864  15.695926   5.539044
   11  C   1  X   1.456255   0.125744  -0.053472  -0.668842  -0.045463
   12  C   1  Y  -0.444356  -0.159193   0.112152  -1.137447   0.082468
   13  C   1  Z  -1.703478   0.795207  -0.388932   0.292067   1.202050
   14  C   1 XX   0.054583   0.069484   0.147783   0.017165  -0.051218
   15  C   1 YY   0.087538  -0.077402  -0.125400  -0.054880   0.093052
   16  C   1 ZZ  -0.142122   0.007918  -0.022383   0.037716  -0.041834
   17  C   1 XY   0.054079   0.008162  -0.073982   0.006905  -0.022568
   18  C   1 XZ   0.140336   0.025132   0.015370   0.016583  -0.084036
   19  C   1 YZ   0.093120   0.050581   0.144154  -0.030158   0.028252
   20  C   1 XX   0.584828  -0.619322  -0.818517   2.017773   1.088801
   21  C   1 YY  -1.582011   1.136509   2.839788   0.733455  -1.375211
   22  C   1 ZZ   0.997183  -0.517187  -2.021271  -2.751228   0.286410
   23  C   1 XY  -0.801531   0.898098   0.206239   0.389466  -0.793137
   24  C   1 XZ  -0.211805  -1.135532  -0.227957  -0.639521   2.471101
   25  C   1 YZ   1.918401  -0.977932  -2.416381   3.340063   1.382983
   26  C   2  S  -0.005965  -0.011787   0.061778  -0.034606   0.003317
   27  C   2  S   0.025708   0.014465   0.097202  -0.064385  -0.043306
   28  C   2  S   1.441784   2.696933  -8.914481   4.124989  -2.591878
   29  C   2  S  -8.846990  -2.778268   5.400763  -6.850180   9.400060
   30  C   2  X  -0.144417   0.160190  -0.270702   0.012588  -0.691746
   31  C   2  Y  -0.001329   0.088030   0.526391   0.296437  -0.219342
   32  C   2  Z  -0.296502  -0.139740   0.017105  -0.382224  -0.226404
   33  C   2  X   0.834429  -3.218604   5.077327   3.904996  13.630545
   34  C   2  Y  -3.065211  -0.107413  -2.043104  -9.685953   3.864795
   35  C   2  Z   4.560635  -3.917218   3.680320  17.972127  11.426286
   36  C   2  X   0.010062   0.903815  -0.445397   0.577949  -0.519379
   37  C   2  Y   1.134488  -0.366771  -0.455876   0.903830  -0.918671
   38  C   2  Z   0.049767   1.048326  -0.833003   0.476910   0.089535
   39  C   2 XX   0.012726   0.050949   0.036276  -0.152125  -0.091051
   40  C   2 YY   0.028515  -0.079977  -0.000201  -0.006353   0.069873
   41  C   2 ZZ  -0.041241   0.029028  -0.036075   0.158478   0.021178
   42  C   2 XY   0.007532  -0.022532  -0.077803  -0.000150  -0.054928
   43  C   2 XZ  -0.013618   0.098310  -0.155941  -0.036567  -0.080123
   44  C   2 YZ  -0.011632  -0.066454  -0.023285  -0.217860   0.013753
   45  C   2 XX  -2.082325   0.671308  -0.287063  -1.062982  -3.341369
   46  C   2 YY  -2.786402   0.832330   3.961010   1.273144   0.770430
   47  C   2 ZZ   4.868727  -1.503637  -3.673947  -0.210163   2.570939
   48  C   2 XY  -0.399843   0.061549   1.123743   0.091372  -2.564734
   49  C   2 XZ   1.240401  -0.930319  -1.520109  -2.737921  -2.100455
   50  C   2 YZ  -1.689192   0.723594   0.187212  -2.826054  -1.838863
   51  C   3  S   0.095161  -0.019210  -0.084979   0.074268  -0.093003
   52  C   3  S   0.196519  -0.137676  -0.126788   0.216818  -0.220771
   53  C   3  S  -4.003313   1.819727   0.620813   3.197573   9.421779
   54  C   3  S   1.313805   7.399318  -8.549513  -1.887537  -4.191216
   55  C   3  X   0.077448   0.510224  -0.437865  -0.121221   0.112125
   56  C   3  Y   0.149237   0.613463   0.077846   0.055495  -0.302600
   57  C   3  Z  -0.198446  -0.163927  -0.332316  -0.102751  -0.183715
   58  C   3  X  -2.165271  -4.364526  12.319447   7.854502   5.293606
   59  C   3  Y  -0.097374  -6.256862   0.604016   2.013598   4.691279
   60  C   3  Z   1.382713   0.207295   4.790731   5.617886  11.200587
   61  C   3  X   0.461541  -0.794020  -0.212994   0.478734  -0.145243
   62  C   3  Y  -0.274668  -1.253540  -0.296402   0.484289   0.259193
   63  C   3  Z   0.120610   2.534438  -0.315443   0.222693  -0.038221
   64  C   3 XX   0.007881   0.108573  -0.018200   0.041488   0.234361
   65  C   3 YY  -0.054895   0.026897   0.011377  -0.031122  -0.173996
   66  C   3 ZZ   0.047013  -0.135470   0.006823  -0.010366  -0.060365
   67  C   3 XY   0.071369  -0.015375  -0.030568   0.052392   0.056110
   68  C   3 XZ   0.124709  -0.151048  -0.001547   0.080144  -0.011596
   69  C   3 YZ   0.099839   0.060345   0.032049   0.032791   0.005570
   70  C   3 XX  -2.050608  -0.069499   1.356029   1.292134  -2.504442
   71  C   3 YY  -0.209293   0.906387  -0.271782  -0.506438  -0.894618
   72  C   3 ZZ   2.259901  -0.836888  -1.084247  -0.785696   3.399059
   73  C   3 XY  -0.911537   0.188571   0.987492   0.868893   0.093431
   74  C   3 XZ  -0.749961  -0.286877   1.275210   1.447002   2.150219
   75  C   3 YZ  -0.730728  -0.532550   1.437877   0.949458   0.509368
   76  H   4  S   0.235867  -0.012881   0.391590  -0.510671  -0.040599
   77  H   4  S   2.480696  -2.386353   1.510191 -10.176031  -2.397450
   78  H   4  S   1.567552   0.020994  -0.208660  -0.843296  -1.039736
   79  H   4  X   0.065593  -0.036007  -0.077368   0.020453  -0.042688
   80  H   4  Y  -0.012253   0.018262   0.047731  -0.054535   0.039340
   81  H   4  Z  -0.092250   0.037221   0.059146   0.011212   0.044859
   82  H   4  X   0.357388  -0.732485   0.553860  -2.078346  -0.290874
   83  H   4  Y  -0.148098   0.278034  -0.456738   1.331868  -0.344429
   84  H   4  Z  -1.429751   0.493873   0.228837   1.490318   0.534132
   85  H   5  S   0.256860   0.143647   0.308511  -0.314203  -0.263211
   86  H   5  S  -7.209563   4.947110   0.048479  -3.051541  -6.568982
   87  H   5  S  -1.131059  -0.601949   0.124386  -0.047082  -0.236078
   88  H   5  X   0.164253   0.034188   0.105393  -0.056718  -0.018973
   89  H   5  Y   0.053543   0.016009   0.010766  -0.043226   0.012375
   90  H   5  Z   0.052209   0.022604   0.020799   0.015602  -0.011548
   91  H   5  X   1.360606  -1.398621  -0.175192   0.564373   1.845269
   92  H   5  Y   0.637142  -0.415823  -0.120249   0.438184   0.606527
   93  H   5  Z   1.298583  -0.699138   0.493550  -0.127108  -0.103960
   94  H   6  S   0.354703   0.021778   0.028708  -0.553938   0.195807
   95  H   6  S  -7.822707  -0.565826  -3.281584  -8.167651  -0.524134
   96  H   6  S  -1.247363  -0.012747  -0.150728  -1.719577   0.067153
   97  H   6  X  -0.028421  -0.014990   0.003993  -0.008090  -0.013596
   98  H   6  Y  -0.155584   0.028292   0.028097   0.015274  -0.004547
   99  H   6  Z  -0.036474  -0.000792  -0.050897   0.048621   0.033509
  100  H   6  X  -0.889252   0.251053  -0.509797  -0.247505   0.464474
  101  H   6  Y  -2.302417  -0.081904  -0.711022  -1.775665  -0.321216
  102  H   6  Z   1.044481  -0.974504  -2.028199  -1.109548   0.789131
  103  H   7  S   0.086457  -0.045413  -0.085888   0.040024  -0.054801
  104  H   7  S  10.042764  -1.026872  -6.144092   6.595616  -8.985617
  105  H   7  S  -0.066527   0.416377  -0.015496   0.474964  -0.480463
  106  H   7  X   0.039129   0.005350  -0.042615   0.001868  -0.030245
  107  H   7  Y   0.038101  -0.049360  -0.178928  -0.051007   0.116555
  108  H   7  Z   0.008138   0.014522  -0.012466  -0.025189   0.031855
  109  H   7  X  -0.858106   0.502943  -0.505477  -0.550377   0.940012
  110  H   7  Y  -2.825497   0.385628   1.727993  -1.894609   2.565084
  111  H   7  Z  -1.084158   0.200028   0.131707  -0.696156   0.442174
  112  H   8  S  -0.200177   0.069863   0.208715   0.003664   0.446914
  113  H   8  S   3.165019  -8.327202  14.614936   6.396152   4.609050
  114  H   8  S   0.212142  -2.579435   0.818541   1.090069   0.231135
  115  H   8  X   0.020310  -0.230766   0.035714   0.054050  -0.240197
  116  H   8  Y   0.010605  -0.013229  -0.001164   0.012947  -0.028446
  117  H   8  Z  -0.004033   0.101971  -0.004736  -0.011003   0.071115
  118  H   8  X   0.534231  -1.085743   4.093535   1.479405   0.090601
  119  H   8  Y   0.205260   0.963306   0.395075   0.191352  -0.185922
  120  H   8  Z  -1.586870   0.714869  -1.130799   0.088120  -2.318900
  121  H   9  S  -0.193012   0.182321   0.106799   0.015641   0.150243
  122  H   9  S  -3.501646   6.622355   7.136422   6.458060  -1.383091
  123  H   9  S   0.193482   2.216919   0.587091  -0.383976   0.293721
  124  H   9  X  -0.012467   0.008162   0.003920  -0.010855   0.032544
  125  H   9  Y  -0.117024  -0.037056  -0.009878  -0.053723   0.060406
  126  H   9  Z   0.076775   0.096801   0.048502   0.026198  -0.033990
  127  H   9  X   0.079332   0.798534  -0.621210  -0.270061   0.239324
  128  H   9  Y   1.060586  -1.417378  -1.501384  -1.266805   0.423905
  129  H   9  Z  -0.777065   2.114621   0.924081   1.315350  -0.368520
  130  H  10  S  -0.300095   0.457333   0.172085  -0.192610   0.276055
  131  H  10  S   5.371012  -7.808344  -8.773363   2.150177   7.465806
  132  H  10  S   0.130640  -0.287476  -0.285144   1.378008   0.188741
  133  H  10  X  -0.067701   0.024281   0.072117   0.012841  -0.017455
  134  H  10  Y   0.027490  -0.122009  -0.031059  -0.003510   0.044580
  135  H  10  Z  -0.044652  -0.043379  -0.006712   0.023464   0.015432
  136  H  10  X   0.451388   1.714284  -0.385292  -0.520523  -0.741192
  137  H  10  Y   1.706287  -1.516268  -3.118651   0.104546   2.430482
  138  H  10  Z   1.543187  -1.611422  -2.776905   0.125894   0.968286
  139  F  11  S  -0.011856   0.021100  -0.009312  -0.001047   0.004900
  140  F  11  S   0.000892   0.051020  -0.041845  -0.004654  -0.035643
  141  F  11  S   0.316437  -0.178351  -0.082643  -0.003771  -0.385955
  142  F  11  S   0.233261   0.298320   0.696210   0.762101  -1.998889
  143  F  11  X   0.015933  -0.118682  -0.002078  -0.037549   0.035768
  144  F  11  Y   0.056257   0.010645  -0.020954   0.026719  -0.024813
  145  F  11  Z   0.018127  -0.043027  -0.095126  -0.017340  -0.123090
  146  F  11  X  -0.077742   0.053323  -0.059849  -0.039556   0.228192
  147  F  11  Y   0.043280  -0.028335   0.016921   0.049238  -0.073526
  148  F  11  Z   0.216748  -0.039574  -0.159238  -0.111320  -0.150532
  149  F  11  X   0.245271  -0.020499  -0.793694  -0.015231   0.403256
  150  F  11  Y   0.352666   0.062050  -0.155356  -0.019084  -0.044601
  151  F  11  Z   0.148213  -0.010881  -0.183691  -0.112252  -0.220545
  152  F  11 XX   0.003380  -0.006566  -0.001769  -0.005679  -0.006237
  153  F  11 YY  -0.000226   0.003111  -0.005456  -0.002207  -0.000997
  154  F  11 ZZ  -0.003155   0.003455   0.007225   0.007886   0.007234
  155  F  11 XY   0.003041   0.000450  -0.002531   0.006974  -0.004845
  156  F  11 XZ   0.006465  -0.001273  -0.012308  -0.003943  -0.010681
  157  F  11 YZ  -0.001263  -0.002096   0.000349  -0.001212   0.003690
  158  F  11 XX  -0.092277  -0.065098   0.113027   0.062030  -0.146283
  159  F  11 YY  -0.034157   0.052449  -0.047541  -0.046513   0.137528
  160  F  11 ZZ   0.126434   0.012650  -0.065486  -0.015517   0.008755
  161  F  11 XY   0.014381   0.024617   0.048235   0.052559   0.083120
  162  F  11 XZ  -0.081136  -0.089833   0.009164   0.072716  -0.008427
  163  F  11 YZ  -0.024290   0.038975  -0.031993   0.076054   0.054381

                     96         97         98         99        100
                    1.1206     1.1787     1.2052     1.2630     1.2753
                     A          A          A          A          A   
    1  C   1  S  -0.007013  -0.024480  -0.042413   0.012104  -0.059642
    2  C   1  S  -0.034869  -0.071134  -0.089766   0.046467  -0.105224
    3  C   1  S  -2.570794  -7.261836   2.562532   0.137545   5.459922
    4  C   1  S   1.198980   2.301917   3.231914   2.778419   0.898220
    5  C   1  X   0.005376   0.316055   0.167613  -0.198698  -0.007123
    6  C   1  Y  -0.114325  -0.224885  -0.262258  -0.093707   0.024792
    7  C   1  Z  -0.022509   0.135636  -0.108720  -0.252157  -0.172204
    8  C   1  X   0.385262  -3.305440  -2.989534   3.984935   0.312041
    9  C   1  Y  -0.656705  -0.625734   4.266237   3.798801   2.558132
   10  C   1  Z   4.669891   7.788742   1.051306   2.326455  -1.109536
   11  C   1  X  -0.356226  -0.435366  -1.016364   1.364187  -0.011136
   12  C   1  Y   0.557242   0.843864   1.108853   0.778219   0.028295
   13  C   1  Z   0.469413   0.255125  -0.909064   0.385330   0.072299
   14  C   1 XX   0.000263   0.022618  -0.085517  -0.269528  -0.094060
   15  C   1 YY   0.024462   0.046035   0.273167   0.264481   0.196183
   16  C   1 ZZ  -0.024726  -0.068653  -0.187650   0.005047  -0.102123
   17  C   1 XY   0.046079   0.045719   0.128287   0.027064   0.085085
   18  C   1 XZ   0.202416  -0.041362   0.374287  -0.179705  -0.070342
   19  C   1 YZ   0.037374   0.162210  -0.095100   0.018957  -0.053057
   20  C   1 XX   0.851875   0.887959   0.220525   1.450462   0.404955
   21  C   1 YY  -1.079084   0.061248  -0.415873  -1.511489   0.001449
   22  C   1 ZZ   0.227210  -0.949208   0.195349   0.061027  -0.406404
   23  C   1 XY  -0.231536  -0.531700  -1.034690  -0.170291  -0.311332
   24  C   1 XZ  -2.008707   1.314212  -2.309097   1.732596  -0.300261
   25  C   1 YZ   1.038950   0.305110  -0.257377  -0.767955  -0.910300
   26  C   2  S  -0.020624  -0.016184   0.025689  -0.054038  -0.051805
   27  C   2  S   0.005937  -0.034708   0.044977  -0.118573  -0.113940
   28  C   2  S  -3.353398  -0.703240  -1.408497   0.543263   1.262149
   29  C   2  S  -1.009934  -1.638096   2.241874  -7.185316   3.094295
   30  C   2  X   0.446621  -0.099956   0.096171  -0.112088  -0.025915
   31  C   2  Y  -0.166872   0.241119  -0.029148   0.145930  -0.006285
   32  C   2  Z  -0.388120  -0.428279   0.144795   0.142370   0.051728
   33  C   2  X  -0.266034   3.075627  -1.735416  -1.082712  -1.305062
   34  C   2  Y  -1.253706  -6.907867   0.458250  -3.353933   1.341159
   35  C   2  Z   8.146418  10.615547  -3.788048  -4.221141  -2.295287
   36  C   2  X   0.611668  -0.416804  -0.807481   0.882481   0.082191
   37  C   2  Y   0.193125   0.134111   0.009514   1.360606   1.069172
   38  C   2  Z  -0.108188  -1.158217  -1.987959  -0.779822  -0.470806
   39  C   2 XX   0.023517   0.183377  -0.106600  -0.135033   0.246535
   40  C   2 YY   0.048739  -0.032457  -0.115615   0.159276  -0.361787
   41  C   2 ZZ  -0.072255  -0.150920   0.222215  -0.024243   0.115252
   42  C   2 XY   0.053841   0.040566   0.104513   0.085550  -0.196440
   43  C   2 XZ  -0.198380   0.159545  -0.108824   0.077360  -0.011204
   44  C   2 YZ  -0.046729   0.034816   0.080936   0.062963  -0.144030
   45  C   2 XX  -0.596752  -1.492669   0.488912   0.700490   0.273744
   46  C   2 YY  -0.379952   2.011204   0.340327  -0.965192   3.329304
   47  C   2 ZZ   0.976704  -0.518535  -0.829238   0.264702  -3.603048
   48  C   2 XY   1.816845  -0.853876  -0.013372  -0.602712   2.112459
   49  C   2 XZ   0.401326  -1.966554   1.150173   0.527548   0.264696
   50  C   2 YZ  -1.265817  -3.992560  -1.098551   0.412142   2.828373
   51  C   3  S  -0.136577   0.011661   0.098790  -0.052042   0.019946
   52  C   3  S  -0.292270   0.065402   0.200513  -0.107360   0.060411
   53  C   3  S  -0.417996   8.234379  -5.291973   2.034048  -2.593609
   54  C   3  S  -0.467825  -0.160682  -6.324509   4.260806  -1.690115
   55  C   3  X  -0.071100   0.140580  -0.091365   0.034883  -0.075713
   56  C   3  Y  -0.477852  -0.022672   0.146367   0.190362  -0.089452
   57  C   3  Z  -0.485387   0.406344   0.020049  -0.226641  -0.039764
   58  C   3  X   1.518541   3.112271   1.481341  -4.924640  -0.978323
   59  C   3  Y   6.010848   1.704171  -0.933469  -4.071367   3.008261
   60  C   3  Z   4.298410   0.737475  -2.948162   1.902664  -1.362103
   61  C   3  X  -0.810843   0.120332  -1.160699  -0.208622  -0.560128
   62  C   3  Y   1.018290  -0.106678   0.185758  -0.939403  -0.290042
   63  C   3  Z   1.095417  -0.277273  -1.668533   2.330828   0.027376
   64  C   3 XX  -0.070885  -0.275417   0.224260  -0.172716  -0.274608
   65  C   3 YY   0.093111   0.033265  -0.117614   0.126936   0.246276
   66  C   3 ZZ  -0.022226   0.242152  -0.106645   0.045780   0.028332
   67  C   3 XY  -0.104990   0.025606   0.063160  -0.095004  -0.018152
   68  C   3 XZ  -0.005756   0.210991  -0.031163   0.124481   0.068330
   69  C   3 YZ  -0.065422  -0.051300  -0.020759  -0.233733   0.219561
   70  C   3 XX   1.701912   2.907423  -0.986353   0.400640   2.020640
   71  C   3 YY  -1.383241  -0.410619  -0.067507   0.368610  -0.909529
   72  C   3 ZZ  -0.318671  -2.496804   1.053860  -0.769250  -1.111111
   73  C   3 XY   1.273620   0.708578  -1.221175   0.355737   1.745251
   74  C   3 XZ   1.854574  -0.462409   0.203578  -1.507474  -1.272314
   75  C   3 YZ   0.529785   1.254565  -0.987827   1.007022  -0.488900
   76  H   4  S  -0.277650  -0.195469  -0.638001   0.013174  -0.105342
   77  H   4  S  -6.657213  -6.537174  -7.145266   2.426155  -0.187442
   78  H   4  S  -0.504452  -0.912580  -0.201789   0.518717  -0.071085
   79  H   4  X   0.061020  -0.082704  -0.003935   0.069059  -0.000141
   80  H   4  Y   0.003062   0.094744   0.053386   0.076608  -0.025936
   81  H   4  Z  -0.004823  -0.031262  -0.029507   0.051969   0.056331
   82  H   4  X  -1.270665  -1.169452  -0.994755   0.532823   0.148009
   83  H   4  Y   1.041708   0.183044   0.321451  -0.043533  -0.005252
   84  H   4  Z   0.684458   2.119860   0.861245  -0.400735  -0.112209
   85  H   5  S   0.072045   0.004101   0.406859  -0.678078  -0.199285
   86  H   5  S  -2.251502  -0.799120   2.794725  -9.501244   1.501980
   87  H   5  S  -0.139438   0.322380   0.951056  -1.047101   0.034221
   88  H   5  X   0.022882  -0.137878   0.032319  -0.010692   0.008194
   89  H   5  Y   0.027017   0.020191   0.052514   0.069574   0.002907
   90  H   5  Z   0.040489   0.031028   0.062748  -0.006572  -0.006819
   91  H   5  X   0.475542   0.551007  -0.613583   2.199723  -0.793772
   92  H   5  Y  -0.156024   0.432174  -0.285484   0.268136   0.001804
   93  H   5  Z   1.167579  -0.775758   0.382893   0.900769  -0.523111
   94  H   6  S   0.107097   0.131887   0.627547   0.420505   0.250950
   95  H   6  S   3.675982   1.896896   2.672496   8.924245  -1.360523
   96  H   6  S   0.278942   0.487725   0.434921   0.291497   0.003511
   97  H   6  X   0.011588  -0.050418  -0.061280   0.067550  -0.026957
   98  H   6  Y   0.003802   0.017994  -0.016407  -0.020316  -0.046376
   99  H   6  Z  -0.007195  -0.011391   0.064165   0.127468   0.031417
  100  H   6  X  -0.167199   0.387041  -0.089043   0.408771  -0.439916
  101  H   6  Y   1.203631   0.541185   0.332875   2.584243  -0.939183
  102  H   6  Z   0.408303  -0.253829   0.101380  -0.537280  -0.292273
  103  H   7  S  -0.057660   0.097014  -0.050326   0.372393  -0.629345
  104  H   7  S   1.000419   5.223253   2.185763   5.854700  -6.183782
  105  H   7  S  -0.672369   0.206090   0.103559  -0.872626  -0.880174
  106  H   7  X   0.045040   0.052852   0.059892   0.042932   0.002730
  107  H   7  Y   0.011256  -0.046334  -0.017376   0.027284  -0.067960
  108  H   7  Z  -0.035244  -0.017191  -0.091604  -0.083848  -0.011485
  109  H   7  X  -0.818627  -0.015918  -0.272126  -0.087911  -0.661731
  110  H   7  Y  -0.299184  -2.115699  -1.186142  -1.627695   0.764658
  111  H   7  Z  -0.267836   0.665466   0.921080   0.206841  -0.343358
  112  H   8  S  -0.046196  -0.272921   0.233954  -0.422473  -0.449570
  113  H   8  S  -0.409689  -1.033884   6.985375 -10.975485  -2.429515
  114  H   8  S  -0.897422   0.540500  -0.417520  -0.629790  -0.111556
  115  H   8  X  -0.041687   0.113526  -0.007049   0.053151   0.175517
  116  H   8  Y   0.021062   0.032006  -0.024181  -0.037484  -0.052304
  117  H   8  Z   0.038440  -0.095311   0.007460   0.006017  -0.088850
  118  H   8  X   0.444396   0.933349   1.448981  -2.995041   0.297399
  119  H   8  Y  -0.466912  -0.178629  -0.026239   0.264888   0.542620
  120  H   8  Z   0.554633   1.219255  -0.585461   0.005960   0.262258
  121  H   9  S   0.308783   0.223547  -0.328224   0.472027  -0.272907
  122  H   9  S  -0.863348   0.666570  -3.324829   6.431510   0.611036
  123  H   9  S   0.193426  -0.671728  -0.763620   1.377678   0.171659
  124  H   9  X  -0.019975   0.018949  -0.003993  -0.114568   0.024244
  125  H   9  Y   0.100035   0.069891  -0.086163   0.024079  -0.025742
  126  H   9  Z   0.008225  -0.103320   0.043916   0.032694   0.024612
  127  H   9  X  -0.268608  -1.192459   0.607478  -0.423774  -0.677480
  128  H   9  Y  -0.046613  -0.457577   0.956313  -1.026950  -0.200447
  129  H   9  Z  -1.051523  -0.734607  -0.526247   1.259704   0.300085
  130  H  10  S   0.580499  -0.008433  -0.332308  -0.011617   0.265965
  131  H  10  S   9.739346   0.752328   0.013673  -3.559822   2.402565
  132  H  10  S   1.646565  -0.227340   0.133745  -0.031983   0.079641
  133  H  10  X  -0.100787  -0.068189   0.089034   0.088551  -0.051234
  134  H  10  Y  -0.007426  -0.023093   0.025802  -0.034967  -0.026373
  135  H  10  Z   0.016610  -0.051424   0.032765   0.157353  -0.004577
  136  H  10  X  -1.274865  -0.047070  -0.261553   0.556682  -1.160335
  137  H  10  Y   2.582479   0.165247   0.030709  -0.998827   0.293881
  138  H  10  Z   0.874579   0.418580  -0.182436  -0.660418  -0.331964
  139  F  11  S  -0.001217  -0.003037  -0.013813  -0.006245  -0.007890
  140  F  11  S   0.066418  -0.005777  -0.010944  -0.046939  -0.012546
  141  F  11  S   0.545279   0.110224   0.280292  -0.232079   0.150636
  142  F  11  S   1.161307  -0.641473   0.155549  -0.260180   0.107190
  143  F  11  X  -0.057486   0.043922   0.006411   0.070229   0.092225
  144  F  11  Y   0.057269   0.077800   0.115207  -0.062356   0.135791
  145  F  11  Z   0.076591  -0.055344  -0.188060   0.047118   0.013285
  146  F  11  X  -0.336993  -0.001001  -0.173011   0.133490  -0.082690
  147  F  11  Y   0.131027   0.001350  -0.051358  -0.037690  -0.027269
  148  F  11  Z   0.285023  -0.027183   0.149896  -0.178040   0.017597
  149  F  11  X  -0.308528   0.580100  -0.157040   0.229814  -0.103936
  150  F  11  Y   0.253623  -0.163355   0.000332  -0.261511   0.003921
  151  F  11  Z   0.333259   0.110691  -0.360026  -0.169515   0.033884
  152  F  11 XX  -0.004362   0.004716  -0.008363   0.003651   0.011922
  153  F  11 YY   0.003596  -0.005358  -0.001054  -0.001377  -0.010596
  154  F  11 ZZ   0.000766   0.000642   0.009416  -0.002274  -0.001325
  155  F  11 XY   0.007247   0.004750   0.003016  -0.005235   0.001906
  156  F  11 XZ   0.012563  -0.001524  -0.007534  -0.001869  -0.002124
  157  F  11 YZ  -0.003716  -0.001885  -0.000793   0.003006   0.001400
  158  F  11 XX  -0.004074  -0.239793   0.154405   0.111439  -0.073514
  159  F  11 YY  -0.135557  -0.042694  -0.094138  -0.047768   0.409160
  160  F  11 ZZ   0.139631   0.282487  -0.060267  -0.063671  -0.335645
  161  F  11 XY  -0.172757   0.059615   0.101711   0.064955  -0.084165
  162  F  11 XZ  -0.098113  -0.004558   0.051789   0.174376  -0.440833
  163  F  11 YZ  -0.024853  -0.137137  -0.100912  -0.308388  -0.118167

                    101        102        103        104        105
                    1.3051     1.3264     1.3476     1.4110     1.4249
                     A          A          A          A          A   
    1  C   1  S   0.082840  -0.010534  -0.011916  -0.002829   0.123952
    2  C   1  S   0.125592  -0.010624  -0.019992   0.004992   0.276304
    3  C   1  S  -6.396542  -4.988773   1.555519   1.072027   0.007648
    4  C   1  S   0.745995  -0.570678   4.273856  -3.248788  -2.213910
    5  C   1  X  -0.103597  -0.041720  -0.001383   0.036069   0.029931
    6  C   1  Y  -0.181438  -0.038418   0.038685  -0.042075   0.021678
    7  C   1  Z   0.228626  -0.006158  -0.043744  -0.000831  -0.101908
    8  C   1  X   2.597848   1.313361  -0.397370  -0.371862  -1.754461
    9  C   1  Y  -0.153557  -0.536967  -0.446511   0.326571   0.969394
   10  C   1  Z   3.660510   5.607582  -0.009073  -2.322370  -3.084283
   11  C   1  X   0.461634   0.130986  -0.644649  -0.396957  -0.223537
   12  C   1  Y   0.315931   0.265272   1.056577  -0.060868   0.383112
   13  C   1  Z  -0.132649   0.892354  -0.730957   0.896104   0.625976
   14  C   1 XX  -0.041969  -0.088416  -0.031462   0.146264   0.028790
   15  C   1 YY   0.118974   0.213826  -0.116292  -0.053774  -0.035650
   16  C   1 ZZ  -0.077005  -0.125410   0.147754  -0.092490   0.006860
   17  C   1 XY   0.110951  -0.076769   0.131488   0.010576  -0.040420
   18  C   1 XZ  -0.221237  -0.054379   0.102524  -0.044976   0.216761
   19  C   1 YZ   0.067141   0.121512   0.104661  -0.174675  -0.114396
   20  C   1 XX   0.752380   1.376595  -0.042352  -0.973591  -0.756415
   21  C   1 YY  -0.505731  -1.276870  -0.380060  -0.134387  -0.720491
   22  C   1 ZZ  -0.246650  -0.099725   0.422412   1.107979   1.476906
   23  C   1 XY   0.163529   0.520423  -0.403237  -0.135816  -0.599089
   24  C   1 XZ   0.281043  -0.570885  -1.138827   0.083592  -0.286060
   25  C   1 YZ   0.258409   0.401881   0.377147   0.583429   0.132218
   26  C   2  S   0.162124  -0.191103  -0.127527  -0.034001   0.029663
   27  C   2  S   0.392855  -0.410263  -0.234141  -0.090725   0.061167
   28  C   2  S  -3.250503   3.107906   4.718261  -1.789658  -1.189858
   29  C   2  S  -2.646370   2.721601 -10.549563   6.714400   0.824664
   30  C   2  X   0.336154   0.025911   0.014483  -0.038669   0.057813
   31  C   2  Y  -0.059053   0.139003   0.039622  -0.200572  -0.031272
   32  C   2  Z  -0.388079  -0.071508   0.055799   0.047391   0.174824
   33  C   2  X   0.203973  -1.642014  -4.794307   1.801935  -2.334438
   34  C   2  Y  -0.889856  -3.368311  -4.684289   5.212835   1.323804
   35  C   2  Z   8.751886   5.090883  -5.662633   0.414122  -5.834123
   36  C   2  X  -0.027925  -0.230689   1.376144   0.210513  -1.093522
   37  C   2  Y   0.807187  -0.793905   0.816078  -0.163232  -1.198444
   38  C   2  Z  -0.436506  -0.992576  -0.170550  -0.277895  -0.062639
   39  C   2 XX  -0.104679   0.141449  -0.150769   0.047112  -0.060456
   40  C   2 YY   0.064169  -0.089970   0.380908  -0.096820   0.210758
   41  C   2 ZZ   0.040510  -0.051479  -0.230139   0.049708  -0.150302
   42  C   2 XY  -0.014224  -0.151439  -0.064942  -0.220241  -0.037028
   43  C   2 XZ   0.210224  -0.217706   0.072578   0.045974  -0.173993
   44  C   2 YZ   0.042148   0.221322   0.049686  -0.085999   0.008136
   45  C   2 XX   0.168305  -0.995078   1.339174   0.043928   0.524818
   46  C   2 YY   1.061821   0.626567  -3.824999  -0.180053  -3.141772
   47  C   2 ZZ  -1.230126   0.368511   2.485825   0.136126   2.616954
   48  C   2 XY   0.932566   1.253491   0.616953   0.719189  -1.142185
   49  C   2 XZ  -1.902341  -0.679348   1.200183  -0.134555   2.952571
   50  C   2 YZ  -3.190868  -2.954205   1.250901   0.161630   0.984576
   51  C   3  S   0.140559  -0.057438  -0.071385  -0.065922   0.145190
   52  C   3  S   0.247341  -0.091021  -0.152325  -0.130149   0.297517
   53  C   3  S   1.039284   3.525760  -3.622018   0.850232  -8.762439
   54  C   3  S  -1.502496  -1.440339   6.908820  -1.941979  -2.163718
   55  C   3  X  -0.190797   0.080781   0.053336  -0.009594  -0.077405
   56  C   3  Y  -0.046427   0.070068  -0.140569  -0.050034   0.110750
   57  C   3  Z  -0.063397   0.141664   0.075846  -0.069825  -0.047308
   58  C   3  X   6.331785   0.080945  -7.019240   0.951147  -2.906654
   59  C   3  Y   1.583703  -0.121025   0.785617   0.258260  -3.944011
   60  C   3  Z   2.127718  -0.346207  -5.619459   1.916665  -0.458748
   61  C   3  X   0.502343  -0.555838   0.582769  -0.474590   0.339390
   62  C   3  Y  -0.086021   0.036734   0.759565  -0.482044  -0.140731
   63  C   3  Z   0.432017   0.114391   0.241842   0.068228  -0.314312
   64  C   3 XX   0.098981  -0.044482   0.020743  -0.061871  -0.204904
   65  C   3 YY  -0.138287  -0.096065   0.129608   0.043948   0.053432
   66  C   3 ZZ   0.039306   0.140546  -0.150351   0.017923   0.151472
   67  C   3 XY   0.143364  -0.040028  -0.202790   0.280914  -0.007725
   68  C   3 XZ  -0.031550  -0.066493  -0.046915  -0.055472  -0.063268
   69  C   3 YZ  -0.179454  -0.106585   0.331091  -0.056846  -0.228532
   70  C   3 XX   2.089364   1.176624  -1.776806   0.516316   0.269246
   71  C   3 YY  -0.209471   0.420179   1.114132  -0.607396  -0.287899
   72  C   3 ZZ  -1.879893  -1.596803   0.662674   0.091081   0.018653
   73  C   3 XY  -0.647913  -0.276293   1.068034  -1.417567  -1.554293
   74  C   3 XZ   1.793263   0.067400  -1.557825   1.166493   0.060054
   75  C   3 YZ   1.152194   1.021960  -2.101694   0.490093   0.082120
   76  H   4  S   0.155845  -0.240778  -0.253362   0.121138  -0.154997
   77  H   4  S  -0.445611  -3.566722  -2.941648   0.080183   0.742763
   78  H   4  S   0.156046  -0.254504  -0.270061  -0.418480  -0.654707
   79  H   4  X   0.029179   0.042899   0.054683  -0.071643  -0.015257
   80  H   4  Y   0.003370   0.026586   0.032252  -0.019274   0.042854
   81  H   4  Z  -0.045031  -0.007594   0.023591  -0.023697  -0.053594
   82  H   4  X  -0.277999  -0.804817  -0.689706  -0.315822   0.259067
   83  H   4  Y   0.121718   1.083886   0.201361  -0.249674  -0.037494
   84  H   4  Z   0.356088   0.344002   0.183611  -0.180879  -0.649233
   85  H   5  S  -0.394210  -0.347784   0.067017   0.161811   0.393522
   86  H   5  S  -2.279182  -3.087119   0.950741   1.644175   0.948411
   87  H   5  S   0.013391  -0.163855   0.153881   0.089627   0.153713
   88  H   5  X   0.016604  -0.023033  -0.008028  -0.004317  -0.010274
   89  H   5  Y   0.063107   0.043967   0.095020  -0.070696  -0.015893
   90  H   5  Z  -0.148245  -0.051949   0.021687   0.016646   0.008182
   91  H   5  X   0.236371   0.447177  -0.199547  -0.159394   0.292784
   92  H   5  Y   0.197167   0.026400  -0.142031  -0.166667  -0.155155
   93  H   5  Z   0.131844   0.548643   0.159693  -0.363483   0.139532
   94  H   6  S   0.180424   0.187085   0.132000  -0.145690  -0.007970
   95  H   6  S   2.798189   3.400652   0.728908   0.073348   3.550529
   96  H   6  S   0.100711  -0.046209   0.778025   0.275063   0.432645
   97  H   6  X  -0.011021   0.051697  -0.055439  -0.067375   0.017125
   98  H   6  Y   0.019685   0.021011  -0.012189  -0.002340  -0.017365
   99  H   6  Z  -0.014851  -0.036079   0.020619   0.047173   0.096745
  100  H   6  X  -0.125750   0.233436  -0.122140  -0.142726   0.212655
  101  H   6  Y   0.694071   0.841543   0.287889  -0.092151   1.041344
  102  H   6  Z   0.181232   0.171751  -0.055347   0.757342   0.120258
  103  H   7  S  -0.129660   0.103956   0.724020  -0.284721   0.317981
  104  H   7  S   0.040831   2.123323   9.514260  -5.518851   4.831023
  105  H   7  S  -0.441586   0.449819  -0.537653  -0.232983   1.002090
  106  H   7  X  -0.060345  -0.116337  -0.001975   0.103666  -0.252735
  107  H   7  Y  -0.053033   0.065600   0.064489   0.033085   0.067794
  108  H   7  Z  -0.039206  -0.010618   0.036674  -0.045608   0.031225
  109  H   7  X  -0.097853  -0.480729  -0.970218  -0.359915   0.352608
  110  H   7  Y  -0.108032  -1.017117  -1.809375   1.344528  -0.765846
  111  H   7  Z   1.196492   1.264053  -1.068779   0.245447  -0.818539
  112  H   8  S   0.478040  -0.157123  -0.274345   0.056199  -0.078938
  113  H   8  S   3.464794  -2.548668  -4.571432   0.290379   0.420671
  114  H   8  S   0.779603  -0.206000   0.007369  -0.256928   0.521707
  115  H   8  X  -0.013223   0.023175   0.052557  -0.028181   0.110726
  116  H   8  Y   0.009127   0.028450   0.063709  -0.097207   0.101178
  117  H   8  Z  -0.004208   0.045210   0.026640   0.026947   0.020860
  118  H   8  X   0.874782  -0.361592  -1.442434   0.175539   0.419951
  119  H   8  Y  -0.808135  -0.374816   0.990168  -0.949042  -0.551370
  120  H   8  Z   0.948188   0.979520  -0.062783   0.302181   0.135274
  121  H   9  S   0.227333   0.166282  -0.602306   0.299966   0.429929
  122  H   9  S   3.913313   1.034981  -7.281755   1.102404   2.880391
  123  H   9  S   0.117209  -0.280031  -0.445498   0.444250  -0.093858
  124  H   9  X   0.151903   0.049122   0.009702   0.007317   0.092791
  125  H   9  Y   0.005215  -0.020816   0.053299  -0.016248  -0.116166
  126  H   9  Z   0.006409  -0.017105   0.070410  -0.037159  -0.015240
  127  H   9  X  -0.257070  -0.390510   0.070862   0.572935   0.479007
  128  H   9  Y  -0.765815  -0.369933   0.395053   0.181207  -0.018920
  129  H   9  Z   0.425178  -0.384360  -1.365560   0.170395   0.675848
  130  H  10  S  -0.169624  -0.273376   0.386495  -0.169316  -0.186080
  131  H  10  S   1.921528  -0.692090   2.044646   0.459567  -1.771374
  132  H  10  S   0.309151   0.419638  -0.314695  -0.275306  -0.178873
  133  H  10  X   0.018289   0.061582   0.071745  -0.020131  -0.086489
  134  H  10  Y  -0.022558   0.059441   0.141414  -0.079096  -0.058109
  135  H  10  Z  -0.013045   0.036054  -0.075285   0.040595   0.063851
  136  H  10  X  -1.014348   0.053496   0.329517  -0.566863   0.209133
  137  H  10  Y   0.891294   0.118324   0.365079   0.464970  -0.410750
  138  H  10  Z   0.356508   0.182621   0.431318   0.025871  -0.447665
  139  F  11  S   0.038715  -0.033667  -0.001449  -0.001887  -0.021706
  140  F  11  S   0.150880  -0.061612  -0.018134  -0.000139  -0.058976
  141  F  11  S   0.269957   0.392886  -0.157062   0.072049   0.115352
  142  F  11  S   1.032687   0.823232  -0.074436  -0.231625   0.032730
  143  F  11  X  -0.141045   0.019322  -0.030640  -0.017289   0.315136
  144  F  11  Y   0.029563   0.026240  -0.170013  -0.370561  -0.108021
  145  F  11  Z   0.107431   0.054236  -0.028675   0.242192   0.157858
  146  F  11  X  -0.217258  -0.202766   0.143339   0.002644  -0.337218
  147  F  11  Y   0.046030   0.003557   0.086256   0.475187   0.113026
  148  F  11  Z   0.078076   0.063893   0.013320  -0.251720  -0.177620
  149  F  11  X  -0.347679  -0.527257   0.108804  -0.283542   0.703737
  150  F  11  Y  -0.262246   0.119128  -0.396887  -0.792001   0.049509
  151  F  11  Z   0.195083   0.515769   0.039250   0.395353   0.335456
  152  F  11 XX  -0.010578   0.000823  -0.004365   0.003949   0.011883
  153  F  11 YY   0.005275   0.000269   0.003882   0.000692  -0.008407
  154  F  11 ZZ   0.005303  -0.001092   0.000483  -0.004641  -0.003476
  155  F  11 XY   0.006279  -0.005806  -0.009108  -0.002815  -0.007025
  156  F  11 XZ   0.017784  -0.005528  -0.000739   0.004273   0.000972
  157  F  11 YZ  -0.005522  -0.002137   0.002035   0.002815   0.001397
  158  F  11 XX   0.009219   0.348763   0.149826   0.229783  -0.668024
  159  F  11 YY   0.301341  -0.399894  -0.011925  -0.515720   0.476882
  160  F  11 ZZ  -0.310560   0.051131  -0.137902   0.285937   0.191141
  161  F  11 XY   0.379924  -0.053456   0.575333   0.409740   0.160516
  162  F  11 XZ  -0.111821  -0.359905  -0.141346  -0.347364  -0.218991
  163  F  11 YZ   0.097015   0.632051  -0.011723  -0.305405   0.118366

                    106        107        108        109        110
                    1.4371     1.4520     1.4949     1.5204     1.5502
                     A          A          A          A          A   
    1  C   1  S   0.077831   0.054022  -0.052919  -0.076105   0.154994
    2  C   1  S   0.152096   0.088171  -0.116365  -0.141797   0.323843
    3  C   1  S   1.319822   4.923129  -1.340758   2.580426  -0.092379
    4  C   1  S  -5.841275   0.442221   3.675427   1.983269  -2.185032
    5  C   1  X   0.014421  -0.001174  -0.028161   0.022923   0.020966
    6  C   1  Y  -0.002091  -0.052428  -0.017185  -0.003446   0.034073
    7  C   1  Z   0.108428   0.031642   0.065923  -0.005434  -0.122210
    8  C   1  X  -1.568182   1.545890   0.321081   0.912961  -1.549477
    9  C   1  Y   3.140959   4.364574   0.645157   1.390805   1.959078
   10  C   1  Z  -5.355340  -4.138876   2.638029  -1.060019  -2.098231
   11  C   1  X  -0.079403  -0.474742  -0.103418  -0.004703   0.139694
   12  C   1  Y  -0.920262   0.307407   0.051805  -0.234724   0.743586
   13  C   1  Z   0.479116  -0.497911  -0.844079  -0.487293   0.561237
   14  C   1 XX  -0.133060  -0.336156   0.128365  -0.159829   0.354573
   15  C   1 YY   0.088239   0.140294   0.137385   0.277378  -0.116043
   16  C   1 ZZ   0.044821   0.195862  -0.265750  -0.117549  -0.238530
   17  C   1 XY   0.209782   0.098568   0.142217  -0.633197   0.230350
   18  C   1 XZ   0.020225  -0.134782  -0.062074   0.003786  -0.075986
   19  C   1 YZ   0.018413   0.146636  -0.097428  -0.042200  -0.190863
   20  C   1 XX   0.012391   1.063534  -0.534117   0.537232  -1.735175
   21  C   1 YY  -0.545941   0.151373   0.638082  -0.634041  -0.101459
   22  C   1 ZZ   0.533550  -1.214907  -0.103965   0.096809   1.836634
   23  C   1 XY  -1.258484   0.408720  -0.502758   3.344069  -1.412233
   24  C   1 XZ  -0.103974  -0.896546  -0.532512  -0.378389   1.574379
   25  C   1 YZ  -1.774552  -2.331899   0.336691  -0.786448   0.575849
   26  C   2  S   0.152727   0.195436   0.032918  -0.026566   0.134786
   27  C   2  S   0.325609   0.402453   0.086492  -0.032095   0.270364
   28  C   2  S  -4.588981  -1.262554   1.288653   1.589952  -0.195737
   29  C   2  S   8.761512  -3.310744  -6.733510  -6.823093   7.521123
   30  C   2  X  -0.065588  -0.006157   0.054040   0.196589  -0.226826
   31  C   2  Y  -0.114621   0.094559   0.090492  -0.016937  -0.155905
   32  C   2  Z   0.106589   0.226823  -0.117375  -0.092366   0.152268
   33  C   2  X   2.946980  -2.571104  -0.421160  -2.867777   2.648491
   34  C   2  Y   4.840534  -0.473573  -2.887421   0.881163   3.642291
   35  C   2  Z  -3.900499  -8.070316   1.577538  -1.262398  -2.676869
   36  C   2  X  -0.118467   0.241609   0.568604   1.393641  -1.593175
   37  C   2  Y  -0.108005   0.587005   1.971274   2.822722  -1.508299
   38  C   2  Z   0.964273   0.393385  -0.233924   0.714604  -1.970290
   39  C   2 XX   0.120857  -0.150392  -0.364905   0.097379   0.108208
   40  C   2 YY  -0.147166   0.042847   0.007094  -0.291171  -0.087547
   41  C   2 ZZ   0.026310   0.107545   0.357811   0.193792  -0.020661
   42  C   2 XY  -0.171899  -0.067199  -0.380478   0.261059   0.368039
   43  C   2 XZ   0.106868   0.181856   0.094201  -0.229162   0.188086
   44  C   2 YZ  -0.204823  -0.219293   0.324158   0.014566   0.094163
   45  C   2 XX  -1.439370   0.406459   0.291939  -0.194850  -0.156848
   46  C   2 YY   2.064861   1.599773   1.786080   2.210896  -0.210000
   47  C   2 ZZ  -0.625491  -2.006232  -2.078018  -2.016046   0.366848
   48  C   2 XY   0.351373   2.049172   1.867918   0.144747  -2.572845
   49  C   2 XZ   0.035664  -1.200109  -0.203990  -1.208352   0.745537
   50  C   2 YZ   3.166261   4.011780  -1.804082   1.398454   0.875086
   51  C   3  S  -0.039754   0.145624  -0.073316  -0.094947   0.202401
   52  C   3  S  -0.063669   0.261744  -0.154948  -0.180655   0.357047
   53  C   3  S   1.208916  -4.121722   0.555840   3.010060  -2.723104
   54  C   3  S  -2.731785   1.292082   3.669757   6.206449  -6.463979
   55  C   3  X  -0.028497  -0.112436  -0.080855  -0.010129  -0.110792
   56  C   3  Y  -0.036844   0.016655   0.039004   0.077168   0.061315
   57  C   3  Z  -0.203459  -0.000053   0.083743   0.116275  -0.143332
   58  C   3  X  -0.458920  -0.639162   1.970960   0.173872   0.154796
   59  C   3  Y  -0.803178   1.731420   1.000461  -0.664939  -3.966114
   60  C   3  Z   4.714076  -3.708317  -2.246384  -1.705853   3.422673
   61  C   3  X  -0.940558   1.475264   0.612869   0.912749  -0.500810
   62  C   3  Y  -0.557770   0.363739  -0.233058  -0.463055  -0.611854
   63  C   3  Z   0.549208  -0.531174   0.562744   1.065672  -0.444167
   64  C   3 XX  -0.345677   0.157414  -0.001483  -0.009550   0.057243
   65  C   3 YY   0.209592   0.134621   0.359749  -0.023942  -0.120284
   66  C   3 ZZ   0.136084  -0.292036  -0.358266   0.033492   0.063041
   67  C   3 XY   0.059829   0.014620  -0.105274  -0.260940  -0.580599
   68  C   3 XZ   0.044807   0.031703   0.311688   0.050143   0.276179
   69  C   3 YZ   0.114685   0.126015  -0.073241   0.089031  -0.078840
   70  C   3 XX   0.756968  -1.718917   0.658676   0.517966  -0.757686
   71  C   3 YY  -0.892514   0.762656  -0.968613   0.344729   0.084850
   72  C   3 ZZ   0.135546   0.956261   0.309937  -0.862694   0.672836
   73  C   3 XY  -0.260112   0.892463   0.746621   1.417490   1.649786
   74  C   3 XZ  -0.429772  -1.439478  -2.011400  -1.213272  -1.564482
   75  C   3 YZ   0.852085  -0.259684   0.932511  -0.361680  -0.146791
   76  H   4  S  -0.091949   0.230556  -0.152578   0.281406   0.065194
   77  H   4  S   1.447310   0.460800  -1.663886   1.296906   0.755081
   78  H   4  S   0.353110  -0.358741   0.333792   0.227211  -0.366077
   79  H   4  X  -0.028858   0.004335  -0.102292   0.033243  -0.059979
   80  H   4  Y  -0.075439  -0.006025  -0.100580   0.013140  -0.080177
   81  H   4  Z   0.000954   0.059778  -0.071564   0.047169  -0.066990
   82  H   4  X   0.720878   0.606777  -0.479203   0.054828  -0.433680
   83  H   4  Y  -0.119233   0.212136   0.124906   1.280009  -0.933492
   84  H   4  Z   0.030524   0.648672   0.012516  -0.478401  -0.352022
   85  H   5  S   0.273736  -0.148514   0.135467  -0.273972   0.195296
   86  H   5  S   4.569480   2.828512   0.370949   0.663385   0.452473
   87  H   5  S   0.423465   0.643026   0.343885   0.123043   0.209642
   88  H   5  X  -0.035729  -0.030712   0.024719   0.057007  -0.004382
   89  H   5  Y  -0.027324   0.116843  -0.009726  -0.151517   0.018047
   90  H   5  Z   0.091466   0.095607  -0.006195   0.004780  -0.069271
   91  H   5  X  -1.264696  -1.594613   0.176113  -0.525481   0.649657
   92  H   5  Y   0.796775   0.081598   0.083968  -1.141330   0.393068
   93  H   5  Z  -0.703589   0.140705  -0.331174  -0.194004  -0.881661
   94  H   6  S   0.176993   0.334114  -0.044396  -0.028808  -0.021609
   95  H   6  S   2.973396   1.830465  -0.183968  -0.231047   3.256041
   96  H   6  S  -0.544164   0.179032  -0.336586  -0.105462   0.709833
   97  H   6  X  -0.044490   0.012248   0.022244   0.238186  -0.088340
   98  H   6  Y   0.018864   0.016163   0.005292  -0.047879   0.023853
   99  H   6  Z  -0.139945  -0.029620  -0.000804  -0.042209   0.022939
  100  H   6  X  -0.320747   0.011324  -0.500854   1.308211  -0.275135
  101  H   6  Y   0.530216   0.223114   0.061726  -0.547360   1.155695
  102  H   6  Z  -0.100362  -0.680208   0.039307  -0.392397   0.843767
  103  H   7  S  -0.542366  -0.219130  -0.173305  -0.413793  -0.134003
  104  H   7  S  -7.429621  -1.606397   1.195019  -2.946154  -3.811659
  105  H   7  S  -0.554465  -0.461161  -1.015482  -1.748943   0.828001
  106  H   7  X  -0.023492   0.060167  -0.283180   0.019449   0.163918
  107  H   7  Y  -0.037023  -0.089621  -0.002752  -0.023936  -0.019455
  108  H   7  Z  -0.057759  -0.078918   0.159081  -0.031093  -0.114678
  109  H   7  X   0.306174  -0.415646  -0.786208   0.763866   1.310881
  110  H   7  Y   1.377099   0.171774  -0.762952   0.134683   1.145756
  111  H   7  Z  -0.480104  -0.479426   0.802293   0.073250   0.532281
  112  H   8  S  -0.276407   0.152920  -0.178031  -0.164107  -0.052168
  113  H   8  S  -2.983095   3.202611   2.100586  -2.111377  -0.590692
  114  H   8  S  -0.856454   1.557355   0.123861   0.311200   0.148343
  115  H   8  X   0.074168   0.058588   0.020775  -0.001318  -0.007400
  116  H   8  Y  -0.058655  -0.016982   0.165468   0.153019   0.115014
  117  H   8  Z   0.098731  -0.008005  -0.029289  -0.075825  -0.170121
  118  H   8  X  -0.350573   0.173454   1.269421  -0.178200  -0.454848
  119  H   8  Y  -0.558770   0.358574  -0.031948   0.776610   1.343571
  120  H   8  Z  -0.386684  -1.125315  -1.056318   0.237993  -1.327263
  121  H   9  S   0.372665  -0.521571  -0.042743  -0.289107   0.202160
  122  H   9  S   7.037023  -1.811937  -1.920396   0.644139   5.398423
  123  H   9  S   1.125894  -0.542712   0.073248   0.468442   0.223997
  124  H   9  X  -0.053787   0.017784   0.024401   0.052443  -0.064890
  125  H   9  Y  -0.061470   0.015585   0.046911  -0.059651  -0.110824
  126  H   9  Z  -0.041759   0.048792  -0.033035  -0.094997  -0.059702
  127  H   9  X   0.029716   0.001866  -1.077416  -0.639440  -1.289744
  128  H   9  Y  -1.151130   0.034812   0.880736  -0.499651  -0.967503
  129  H   9  Z   1.698201   0.326414  -0.160510   0.390010   1.734202
  130  H  10  S   0.204775   0.184411  -0.036800   0.185385   0.364947
  131  H  10  S  -4.575296  -3.256198  -0.550187  -3.840433  -2.804540
  132  H  10  S   0.069537  -0.315485  -0.073729  -0.292372  -0.679276
  133  H  10  X   0.075642  -0.035757  -0.213321   0.011223   0.171544
  134  H  10  Y  -0.008711  -0.018718  -0.094716   0.035376   0.077678
  135  H  10  Z   0.004667   0.058064   0.231465   0.028113   0.221124
  136  H  10  X  -1.151740   0.404893   0.657023   0.196668   0.463819
  137  H  10  Y  -1.898501  -1.384577  -0.412669  -1.443103  -0.950857
  138  H  10  Z  -1.166089  -0.412250   0.559907  -0.758309  -0.770767
  139  F  11  S  -0.001256   0.022196   0.018969   0.007778   0.002462
  140  F  11  S  -0.010025   0.038185   0.075891   0.025692  -0.009314
  141  F  11  S  -0.068198  -0.318735   0.286395  -0.006944  -0.229530
  142  F  11  S   0.110176  -0.102119   0.494988   0.880516  -1.084609
  143  F  11  X   0.100173  -0.007666  -0.117145   0.015594  -0.165406
  144  F  11  Y   0.034534   0.119074  -0.264586  -0.191062   0.023287
  145  F  11  Z  -0.144040   0.334491  -0.145772  -0.092429   0.168707
  146  F  11  X  -0.031196   0.148908  -0.038097  -0.105085   0.348665
  147  F  11  Y  -0.039674  -0.202590   0.432117   0.411727  -0.080309
  148  F  11  Z   0.228936  -0.525860   0.270731   0.134087  -0.455709
  149  F  11  X  -0.176012   0.211065  -0.010049  -0.060940   0.070737
  150  F  11  Y  -0.238845   0.049695  -0.203087  -0.415607   0.134228
  151  F  11  Z  -0.606327   0.538927  -0.064027   0.016679   0.135478
  152  F  11 XX   0.009830  -0.000423  -0.003685  -0.002932  -0.010912
  153  F  11 YY  -0.003330   0.005019   0.001087  -0.000441   0.001871
  154  F  11 ZZ  -0.006499  -0.004596   0.002599   0.003374   0.009040
  155  F  11 XY  -0.002581   0.005445   0.000658   0.005685  -0.001673
  156  F  11 XZ  -0.000609   0.002269   0.001421  -0.004047  -0.001371
  157  F  11 YZ  -0.004434  -0.002775   0.002534  -0.005028  -0.001524
  158  F  11 XX   0.021539  -0.425978  -0.013439  -0.211991   0.051360
  159  F  11 YY  -0.027328  -0.249719  -0.022125   0.025042  -0.004750
  160  F  11 ZZ   0.005789   0.675697   0.035564   0.186948  -0.046610
  161  F  11 XY   0.378878  -0.081313  -0.163301   0.370300   0.082753
  162  F  11 XZ   0.546489  -0.064031   0.086430   0.165623  -0.151623
  163  F  11 YZ   0.464345   0.194750   0.018473   0.007767   0.205070

                    111        112        113        114        115
                    1.5715     1.6274     1.6369     1.6430     1.6662
                     A          A          A          A          A   
    1  C   1  S   0.040052   0.052970   0.621991  -0.174233  -0.184093
    2  C   1  S   0.103311   0.113274   1.181671  -0.325443  -0.347581
    3  C   1  S   1.184920  -1.536861  -7.756222   2.313670   1.258662
    4  C   1  S   5.987982   0.685436  -2.089371  -0.420294   5.026186
    5  C   1  X  -0.004282   0.013184   0.077414  -0.026334  -0.043933
    6  C   1  Y   0.120338   0.068593  -0.016770  -0.006588  -0.089558
    7  C   1  Z  -0.133014  -0.028853  -0.024064  -0.018008  -0.033494
    8  C   1  X   2.742195  -0.831764  -0.148256   0.336617   1.960177
    9  C   1  Y   0.463440  -0.949470   0.724076   0.030774   2.017701
   10  C   1  Z   1.045557   0.755222  -0.178192  -0.018809   3.024842
   11  C   1  X   0.107312  -0.727348  -0.080734   0.141401   0.408619
   12  C   1  Y   0.241350  -0.655037   0.277890  -0.052569   0.834461
   13  C   1  Z  -1.456132  -0.555328  -0.088296   0.350497  -0.332385
   14  C   1 XX  -0.135583  -0.082306  -0.055108   0.096190   0.388430
   15  C   1 YY   0.117605  -0.088705   0.089914  -0.075664   0.065895
   16  C   1 ZZ   0.017978   0.171012  -0.034806  -0.020526  -0.454325
   17  C   1 XY   0.254895  -0.082704  -0.308320   0.111913  -0.091324
   18  C   1 XZ  -0.119209   0.164286  -0.123098   0.024104  -0.198281
   19  C   1 YZ   0.056055   0.231404  -0.060404  -0.034314  -0.394395
   20  C   1 XX   0.817215   0.375029   0.047973  -0.248756  -1.469720
   21  C   1 YY   0.355377   1.269212  -0.426840  -0.032311  -0.182185
   22  C   1 ZZ  -1.172592  -1.644240   0.378867   0.281067   1.651905
   23  C   1 XY  -0.478004   0.311372   1.380590  -0.680355   0.578250
   24  C   1 XZ  -0.717250  -0.606006  -0.075245   0.402695   0.360840
   25  C   1 YZ  -0.916056  -0.811129   0.384052   0.111159   1.401679
   26  C   2  S   0.019236   0.106935   0.505097  -0.206614  -0.009834
   27  C   2  S   0.048036   0.207532   1.017124  -0.412248  -0.002270
   28  C   2  S   0.860626   1.138576  -4.141971   1.585902   0.670941
   29  C   2  S  -5.128708  -1.276983  -3.148643   2.240109 -12.154707
   30  C   2  X   0.210823   0.047764  -0.159651   0.056110   0.074847
   31  C   2  Y   0.041611  -0.022423  -0.135902   0.036299   0.043360
   32  C   2  Z  -0.060961   0.028463  -0.045711   0.025848  -0.118836
   33  C   2  X  -1.888996   0.208943  -0.587122  -0.357143  -2.356375
   34  C   2  Y  -1.846126  -0.779014  -1.928827   0.490982  -2.420374
   35  C   2  Z   1.246088   0.161349   1.381643  -1.285014   0.255381
   36  C   2  X  -0.125743   0.253775   0.635756  -0.101149   0.837167
   37  C   2  Y   3.323652   1.007391  -0.018643  -0.683789   1.847698
   38  C   2  Z  -1.732926   0.119935  -0.077644   0.189933  -0.181878
   39  C   2 XX   0.235291   0.048713  -0.176389   0.124447  -0.166912
   40  C   2 YY  -0.123016  -0.245134  -0.028688  -0.010185  -0.020176
   41  C   2 ZZ  -0.112275   0.196421   0.205077  -0.114262   0.187088
   42  C   2 XY  -0.399546   0.015685  -0.175045   0.113253  -0.179966
   43  C   2 XZ   0.082107  -0.028173  -0.058941  -0.020752   0.078842
   44  C   2 YZ   0.118290   0.216346   0.040157  -0.034714   0.247933
   45  C   2 XX   0.780941  -0.633482   1.048314  -0.223781   1.688510
   46  C   2 YY   2.001525   1.896245  -0.761342  -0.497724  -0.684288
   47  C   2 ZZ  -2.782466  -1.262762  -0.286971   0.721505  -1.004223
   48  C   2 XY   3.048367  -0.069621   0.477935  -0.391748   0.803096
   49  C   2 XZ  -0.943385   0.170120  -1.087862   0.920135  -0.308056
   50  C   2 YZ   0.838804  -1.746694  -0.289469   0.267141  -1.028944
   51  C   3  S   0.151760   0.291102   0.482995  -0.134820  -0.263266
   52  C   3  S   0.282749   0.573609   0.922224  -0.260100  -0.528805
   53  C   3  S  -2.108601  -4.070922  -4.388708   0.443040   4.570785
   54  C   3  S  -2.268588  -0.611916   0.477678  -0.567473   6.266315
   55  C   3  X   0.009462   0.069122   0.135537  -0.044315  -0.118340
   56  C   3  Y   0.008696  -0.019028  -0.059385  -0.017817   0.096349
   57  C   3  Z  -0.109450  -0.019743  -0.045356   0.002028  -0.015892
   58  C   3  X   2.378861   1.043853  -1.344702  -0.644843   1.443034
   59  C   3  Y   1.217656   0.892444   1.152563  -0.477271  -2.669296
   60  C   3  Z  -1.534107   0.744036   1.076003  -1.022531  -2.448928
   61  C   3  X  -0.520778   0.265569  -0.144518  -0.241616   0.780257
   62  C   3  Y  -0.696225   0.097563  -0.116820   0.275069  -0.152967
   63  C   3  Z   0.042716  -0.037744   1.130791  -0.412280   1.069290
   64  C   3 XX   0.155816   0.209139  -0.070971   0.009375   0.026206
   65  C   3 YY  -0.522720  -0.004465   0.006576   0.002086   0.052602
   66  C   3 ZZ   0.366904  -0.204673   0.064395  -0.011461  -0.078808
   67  C   3 XY  -0.358703  -0.039666  -0.072080   0.091742  -0.084393
   68  C   3 XZ  -0.213163   0.332402  -0.085259  -0.028101  -0.064021
   69  C   3 YZ   0.271366  -0.223922   0.120219  -0.089037   0.104701
   70  C   3 XX   0.389759  -0.234652   0.815512  -0.308370   0.731522
   71  C   3 YY   2.402194  -0.983803   0.114595  -0.086309   0.556230
   72  C   3 ZZ  -2.791953   1.218455  -0.930107   0.394680  -1.287752
   73  C   3 XY   2.452424   0.166772   1.052268  -0.657587  -0.338011
   74  C   3 XZ   1.171186  -1.436694   0.619026   0.018585  -0.424211
   75  C   3 YZ  -0.015692   0.276504  -0.031608  -0.001520   0.041713
   76  H   4  S  -0.112046  -0.054086   0.271507  -0.027910  -0.108185
   77  H   4  S   1.472050   1.182521   1.206134  -0.162087  -1.900857
   78  H   4  S   0.567294   0.025147   0.235267  -0.106892  -0.072103
   79  H   4  X  -0.035679   0.075144  -0.173778  -0.392630  -0.090882
   80  H   4  Y  -0.033955  -0.071494  -0.098614  -0.461915   0.013199
   81  H   4  Z  -0.056641   0.092328  -0.266142  -0.177371  -0.114321
   82  H   4  X   0.781826   0.644051   0.238566   0.240550  -1.564959
   83  H   4  Y  -0.025965   0.356681   0.351495   0.204963   0.029415
   84  H   4  Z  -0.273961  -0.167971  -0.096456   0.249382  -0.448284
   85  H   5  S  -0.181700   0.040913   0.222461  -0.141524  -0.184691
   86  H   5  S  -1.396052   2.209288   2.931968  -1.857838  -3.896976
   87  H   5  S   0.593857   0.932050   0.327560  -0.373021  -0.573186
   88  H   5  X  -0.036450  -0.065490  -0.174366  -0.179551   0.086676
   89  H   5  Y   0.044188  -0.082397   0.086094   0.552485  -0.038781
   90  H   5  Z   0.066294   0.093708   0.123103   0.255168  -0.138047
   91  H   5  X   0.099893  -0.662583  -0.746484   0.828125   1.707577
   92  H   5  Y   0.590625   0.031077  -0.804444  -0.306619  -0.460015
   93  H   5  Z   0.340697   0.147485  -0.892395  -0.049779  -0.176791
   94  H   6  S   0.068727  -0.033739   0.249544  -0.040735  -0.194770
   95  H   6  S  -0.491895  -3.682207   3.127233   0.188705   4.303427
   96  H   6  S  -0.121724  -0.840112   0.306904   0.041818   0.599223
   97  H   6  X  -0.027638   0.043207   0.154805   0.628644  -0.022316
   98  H   6  Y   0.069600   0.064819   0.061379  -0.143002  -0.050938
   99  H   6  Z  -0.105246  -0.317502  -0.157455   0.021928   0.075095
  100  H   6  X  -0.442278  -0.076068   0.703211  -1.014488   0.272600
  101  H   6  Y  -0.365148  -0.994843   0.969374   0.225140   1.551027
  102  H   6  Z  -0.769851  -0.447630   0.552313   0.073229   0.298772
  103  H   7  S  -0.237658  -0.065635   0.348191   0.021772   0.294502
  104  H   7  S  -2.570065  -1.283245   4.627040  -0.291295   4.752173
  105  H   7  S  -1.518839  -0.500556   0.011694   0.353236  -0.505662
  106  H   7  X  -0.229307  -0.139568   0.028985   0.021539   0.099344
  107  H   7  Y  -0.000391   0.005085  -0.067713   0.033402  -0.008715
  108  H   7  Z  -0.065386   0.128919  -0.065252   0.029057  -0.085651
  109  H   7  X  -0.586075   0.296189  -0.698208   0.247247  -0.754290
  110  H   7  Y   0.264909  -0.026899  -1.247623   0.190674  -1.115779
  111  H   7  Z   0.522682   0.830138  -0.102882  -0.212816   0.553003
  112  H   8  S   0.326245  -0.022203   0.036651   0.002386  -0.061113
  113  H   8  S   3.296473   2.715261  -1.843071  -0.079878  -1.493012
  114  H   8  S  -0.300548   0.345377  -0.353249  -0.028276  -0.041776
  115  H   8  X   0.008135   0.133941   0.225329  -0.069703   0.017537
  116  H   8  Y   0.009657  -0.466773   0.140814  -0.076008  -0.241746
  117  H   8  Z   0.119977  -0.032681   0.342579  -0.123196   0.182567
  118  H   8  X   0.700845   0.681736  -0.283453  -0.139415  -0.394673
  119  H   8  Y   1.777550   0.387690   0.499097  -0.316923   0.089553
  120  H   8  Z   1.132650  -1.480060   0.537819   0.206763   0.403522
  121  H   9  S  -0.081229   0.000330   0.285323  -0.117137  -0.155268
  122  H   9  S   2.377117   0.090036   2.452184  -1.173839   2.061460
  123  H   9  S   0.271885  -0.092788   0.881807  -0.364673   0.115204
  124  H   9  X  -0.135861  -0.424552  -0.046533   0.054975  -0.218696
  125  H   9  Y  -0.169955   0.151967   0.089623   0.001676   0.194762
  126  H   9  Z  -0.112338   0.216743   0.176127  -0.009155   0.079388
  127  H   9  X   0.035071  -0.235901  -0.069655   0.211899   0.318914
  128  H   9  Y  -1.517354   0.153816  -0.658598   0.341279  -1.021621
  129  H   9  Z  -0.146647   0.232247   0.396350  -0.265178   0.350154
  130  H  10  S   0.046144   0.335915   0.123472   0.012768   0.144110
  131  H  10  S  -0.694758   2.571271   5.754750  -1.747632  -8.175536
  132  H  10  S   0.258394   0.419559   0.246162   0.093017   0.056645
  133  H  10  X   0.183331   0.296873  -0.185386   0.084498   0.207560
  134  H  10  Y   0.132531   0.106779   0.025124  -0.019694   0.234610
  135  H  10  Z  -0.044533  -0.218344  -0.059386   0.008961  -0.224453
  136  H  10  X   1.045206  -0.958849   0.100791  -0.195993   0.388355
  137  H  10  Y  -0.155853   0.391200   1.905840  -0.563335  -3.135665
  138  H  10  Z  -0.870283   1.327226   0.814795  -0.235738  -1.140394
  139  F  11  S   0.019145  -0.009764  -0.004321  -0.002085   0.030301
  140  F  11  S   0.074826  -0.005592  -0.022110  -0.004588   0.090014
  141  F  11  S   0.179925   0.178630  -0.066800   0.001716  -0.002644
  142  F  11  S   1.291641   0.936648  -1.069867   0.424309   1.955987
  143  F  11  X   0.140608   0.043396  -0.168847   0.059099   0.355616
  144  F  11  Y  -0.236740  -0.165583   0.195321  -0.037937   0.291745
  145  F  11  Z   0.000034  -0.002998  -0.097649  -0.027882   0.152483
  146  F  11  X  -0.463924  -0.277706   0.422293  -0.117108  -0.908621
  147  F  11  Y   0.426013   0.360609  -0.354668   0.070136  -0.586389
  148  F  11  Z   0.116911  -0.015892   0.139286   0.060991  -0.312164
  149  F  11  X  -0.028276  -0.224257   0.240592  -0.280442  -0.130033
  150  F  11  Y  -0.268881  -0.202534  -0.043322   0.006785  -0.014793
  151  F  11  Z   0.185092   0.180380  -0.142132  -0.061142   0.214401
  152  F  11 XX  -0.006988  -0.012035   0.005129   0.000419  -0.016349
  153  F  11 YY   0.004779   0.004907  -0.002725   0.000717   0.006246
  154  F  11 ZZ   0.002210   0.007128  -0.002404  -0.001136   0.010103
  155  F  11 XY  -0.002191   0.000887   0.002252  -0.000992  -0.002254
  156  F  11 XZ  -0.003412  -0.010550  -0.001764  -0.001610  -0.000809
  157  F  11 YZ  -0.000459  -0.000736  -0.003133   0.000378   0.003705
  158  F  11 XX  -0.040846  -0.019113   0.146637  -0.027870   0.019590
  159  F  11 YY  -0.086210   0.081527  -0.123604   0.056550  -0.111389
  160  F  11 ZZ   0.127056  -0.062414  -0.023033  -0.028680   0.091799
  161  F  11 XY  -0.196926   0.034858   0.028967   0.046681   0.150265
  162  F  11 XZ   0.144668  -0.106234  -0.179966   0.012055   0.152989
  163  F  11 YZ  -0.311574   0.051565  -0.188658   0.023520  -0.004607

                    116        117        118        119        120
                    1.6996     1.7173     1.7391     1.7767     1.8016
                     A          A          A          A          A   
    1  C   1  S  -0.189489   0.415944   0.197267  -0.016645  -0.280682
    2  C   1  S  -0.378866   0.837776   0.388427  -0.001971  -0.528752
    3  C   1  S   2.215962  -5.287983  -0.226367  -0.227245   4.420814
    4  C   1  S   1.266419  -0.247862   0.023204   0.189850   2.793571
    5  C   1  X   0.006090  -0.040824   0.033318   0.020308  -0.009382
    6  C   1  Y  -0.028566   0.143499   0.161886   0.109287   0.198916
    7  C   1  Z   0.029062  -0.279500  -0.055440  -0.119971  -0.135841
    8  C   1  X  -2.254924   0.542100  -0.912541  -0.011486  -3.185258
    9  C   1  Y  -0.159760  -0.260659   0.883039  -1.153089  -2.983779
   10  C   1  Z   1.506426   2.721491  -0.537135   0.092635   3.125884
   11  C   1  X  -1.230989  -0.203613   0.033099   0.168113  -0.604272
   12  C   1  Y   0.271925   0.109971   0.692756  -0.671069  -0.297185
   13  C   1  Z   0.022095  -0.069804   0.095730  -0.227268  -0.374769
   14  C   1 XX  -0.066036   0.223263  -0.017259  -0.205199  -0.008671
   15  C   1 YY   0.084385  -0.074419   0.322709   0.107535   0.102808
   16  C   1 ZZ  -0.018349  -0.148844  -0.305451   0.097664  -0.094136
   17  C   1 XY  -0.478537  -0.120556   0.041931   0.133705   0.011578
   18  C   1 XZ   0.187104   0.107544  -0.070449   0.022600   0.195803
   19  C   1 YZ   0.063266   0.026156  -0.166773   0.253704   0.376662
   20  C   1 XX   0.423323  -0.055362  -0.058225  -0.094797   0.582133
   21  C   1 YY  -0.740916   0.051707  -1.304334   2.135284   0.590676
   22  C   1 ZZ   0.317593   0.003655   1.362560  -2.040487  -1.172809
   23  C   1 XY   2.337617   0.413694  -0.116210  -0.017314  -0.511198
   24  C   1 XZ  -2.484694  -0.624501   0.392823   0.354502   0.065734
   25  C   1 YZ   0.409102  -0.041640   0.585939  -1.009022   0.133881
   26  C   2  S  -0.090469   0.255663   0.276697  -0.105990   0.175287
   27  C   2  S  -0.178186   0.515963   0.544271  -0.214931   0.405541
   28  C   2  S   0.268995  -2.033324  -4.025720  -0.541026  -1.118726
   29  C   2  S   1.041197  -6.700448  -1.128973   1.682096   1.332704
   30  C   2  X   0.068985   0.143770  -0.009170   0.057958  -0.246290
   31  C   2  Y  -0.029354   0.004490   0.066115  -0.104483  -0.170807
   32  C   2  Z   0.001322   0.201549   0.074697   0.151982   0.048262
   33  C   2  X  -0.015346  -2.368718  -0.584058   0.966500   3.984600
   34  C   2  Y   0.963520  -4.623346  -1.683474   1.908703   1.704554
   35  C   2  Z   2.677653  -1.987432  -1.956721   1.172631   3.672619
   36  C   2  X   0.351677   0.790627   0.119295  -0.064724  -0.587424
   37  C   2  Y  -0.326302   0.330996  -0.499859   0.362975   0.567546
   38  C   2  Z   0.100123   0.507356  -0.350697  -0.559285  -0.565959
   39  C   2 XX  -0.117193   0.439463   0.160979  -0.480293   0.158382
   40  C   2 YY   0.293548  -0.241422   0.032570   0.023931  -0.013396
   41  C   2 ZZ  -0.176355  -0.198041  -0.193549   0.456362  -0.144985
   42  C   2 XY  -0.225457  -0.216721   0.331582   0.261157   0.188940
   43  C   2 XZ   0.447159   0.027568   0.063389   0.038395  -0.104210
   44  C   2 YZ  -0.075626   0.283522  -0.168654   0.553492   0.165806
   45  C   2 XX  -0.028635  -0.408385  -0.519159   1.252834  -1.249101
   46  C   2 YY  -0.080096  -0.837949  -0.443187   1.864860   2.026460
   47  C   2 ZZ   0.108731   1.246334   0.962347  -3.117694  -0.777358
   48  C   2 XY   1.097772   0.279530  -0.897853  -1.228792  -2.317726
   49  C   2 XZ  -2.127852   0.451285   0.373616  -0.628508  -0.065942
   50  C   2 YZ   0.255479  -1.626578   1.925163  -2.775289  -1.614686
   51  C   3  S  -0.004082   0.259178  -0.038426  -0.323562   0.252988
   52  C   3  S  -0.024134   0.470798  -0.091435  -0.649659   0.469126
   53  C   3  S   0.272791  -5.259193  -0.735162   5.974642  -1.919916
   54  C   3  S  -1.338056   2.570165   0.524000   0.224859  -3.683445
   55  C   3  X  -0.069592   0.011084  -0.033627  -0.208711   0.035496
   56  C   3  Y  -0.009217  -0.027651  -0.134062  -0.067228   0.203184
   57  C   3  Z  -0.147105  -0.195835  -0.047764  -0.101094   0.067075
   58  C   3  X   2.347425  -0.624810  -2.400424   1.564841   5.618851
   59  C   3  Y   1.326228   0.687447   3.719854   0.368334  -1.717157
   60  C   3  Z   1.608672  -1.358225  -1.829974   1.888361   1.802024
   61  C   3  X   0.036605   0.784124  -0.166703  -0.624375   0.387827
   62  C   3  Y   0.262253   0.416038   0.361015  -0.064751   0.169413
   63  C   3  Z  -0.439498   0.379183  -0.062485   0.212124  -1.082294
   64  C   3 XX   0.041494   0.124591  -0.283728  -0.184480  -0.145783
   65  C   3 YY   0.024904   0.062704  -0.004756  -0.156268   0.341085
   66  C   3 ZZ  -0.066398  -0.187296   0.288483   0.340749  -0.195302
   67  C   3 XY   0.012996   0.230081   0.090021   0.122950  -0.059805
   68  C   3 XZ   0.119472   0.057762  -0.090988  -0.033586  -0.024482
   69  C   3 YZ   0.185407   0.323435   0.015240   0.246268   0.106169
   70  C   3 XX  -0.284104  -0.950336  -0.189032   1.989502  -0.032303
   71  C   3 YY   0.051233  -0.268256  -0.409885  -0.532020  -1.276778
   72  C   3 ZZ   0.232871   1.218591   0.598917  -1.457482   1.309082
   73  C   3 XY   0.453326  -1.029321   0.507134  -0.008989  -0.960975
   74  C   3 XZ   0.544036  -0.278295   0.039428   1.518807   0.921377
   75  C   3 YZ   0.037526  -0.593661  -0.840087  -0.905006  -0.351091
   76  H   4  S  -0.351366  -0.024275  -0.024073   0.125573  -0.427581
   77  H   4  S  -7.758733   0.111560  -0.956297   3.931600  -3.620370
   78  H   4  S  -1.016388   0.064573  -0.096133   0.520335  -0.360247
   79  H   4  X  -0.149140   0.178574  -0.113283  -0.022767  -0.041133
   80  H   4  Y   0.400061   0.099097   0.132162  -0.033408   0.088102
   81  H   4  Z  -0.400879   0.009692  -0.161531   0.041679  -0.066613
   82  H   4  X  -1.483017  -0.344273  -0.375881   1.218061  -0.396110
   83  H   4  Y   1.551183   0.355737  -0.082761  -0.417263   0.305758
   84  H   4  Z   1.285127  -0.501550  -0.152763  -0.383739   0.926221
   85  H   5  S   0.075954  -0.094165   0.049978   0.078545  -0.105893
   86  H   5  S   4.383145   0.682990   0.740761   0.931904   0.658818
   87  H   5  S   0.628110   0.055790  -0.112857   0.060228   0.586915
   88  H   5  X  -0.143122   0.010194   0.098525  -0.032536  -0.001817
   89  H   5  Y  -0.154197   0.103837   0.017298   0.057437   0.161305
   90  H   5  Z   0.292136  -0.175222  -0.151833   0.059012  -0.173084
   91  H   5  X  -1.292915   0.014113  -0.127754  -0.432050  -0.181600
   92  H   5  Y  -1.003924  -0.163399  -0.175531   0.326965   0.246492
   93  H   5  Z  -0.412834  -0.047962  -0.738824   0.100908   0.063781
   94  H   6  S  -0.054866   0.219916   0.129400  -0.527026  -0.375574
   95  H   6  S  -0.646887   1.890987   1.983064  -5.025723  -6.225955
   96  H   6  S   0.059865   0.262378   0.589491  -0.559855  -0.601770
   97  H   6  X   0.122475   0.092917   0.004717  -0.020790   0.093545
   98  H   6  Y  -0.056778   0.067214   0.065861   0.107265   0.109622
   99  H   6  Z   0.094278  -0.029463   0.314128  -0.035023  -0.007949
  100  H   6  X   0.905516   0.205334   0.145462  -0.255980  -0.360245
  101  H   6  Y  -0.264001   0.562141   0.188873  -1.285225  -2.147008
  102  H   6  Z  -0.220697  -0.500253   0.651791  -1.129324  -0.496485
  103  H   7  S  -0.173673   0.656070   0.138205  -0.218917  -0.657544
  104  H   7  S  -2.688439   9.346222   5.325863  -4.595834  -1.812273
  105  H   7  S   0.005594   0.081627   0.224424  -0.181242  -0.138000
  106  H   7  X   0.009439   0.225630  -0.129695   0.277848   0.067119
  107  H   7  Y  -0.026773  -0.011911  -0.089127  -0.207752  -0.095288
  108  H   7  Z   0.021301   0.277942   0.252283   0.456324  -0.155152
  109  H   7  X  -0.280827  -0.879963   0.307416   0.674322   0.913120
  110  H   7  Y   1.109555  -2.837472  -1.818673   1.287322  -0.198062
  111  H   7  Z   0.124548   0.027135  -1.368869   1.664363   0.646493
  112  H   8  S   0.154999   0.213974   0.000965  -0.153559   0.567552
  113  H   8  S   3.041377   3.754178  -0.115699  -3.751010   9.769309
  114  H   8  S   0.280477   0.522939  -0.042425  -0.682085   1.018092
  115  H   8  X  -0.042384  -0.068622   0.038345   0.003291  -0.115043
  116  H   8  Y  -0.142020  -0.093781  -0.300588  -0.010227   0.101573
  117  H   8  Z  -0.011731  -0.258715   0.061485   0.230387   0.080953
  118  H   8  X   0.656550   0.802396   0.231205  -0.631681   2.773448
  119  H   8  Y   0.267196  -0.352751   0.231587  -0.106571  -0.023599
  120  H   8  Z  -0.227084  -0.647682   0.058163   1.022962  -0.799283
  121  H   9  S   0.073390   0.258672  -0.564687   0.108742   0.154779
  122  H   9  S   0.284756  -3.728684  -5.993474  -0.060440   1.058095
  123  H   9  S  -0.126348   0.021227  -0.184432  -0.049079  -0.804484
  124  H   9  X  -0.096103   0.279145   0.101800   0.012325  -0.027778
  125  H   9  Y  -0.181726   0.046587   0.133675  -0.230807   0.246889
  126  H   9  Z  -0.194437  -0.016476   0.211688  -0.134044   0.135002
  127  H   9  X  -0.045746   0.009063   0.215157   0.219596   0.433047
  128  H   9  Y   0.050299   0.735682   1.029643  -0.143941   0.090523
  129  H   9  Z   0.317788  -0.737021  -1.757352  -0.380873   0.743773
  130  H  10  S   0.104028   0.216981   0.283364   0.130707  -0.466443
  131  H  10  S   1.057149   1.163895   4.436663   3.351935  -0.929807
  132  H  10  S  -0.080774   0.155763  -0.128207   0.137543   0.179021
  133  H  10  X   0.181415   0.070668   0.070503  -0.084857  -0.308755
  134  H  10  Y   0.006497  -0.117299   0.013273  -0.135562   0.132854
  135  H  10  Z   0.181829   0.331160  -0.216018  -0.065453  -0.153846
  136  H  10  X  -0.143587  -0.631240  -0.850012  -0.627047   0.063494
  137  H  10  Y   0.270592   0.430477   1.209434   1.290624  -0.679814
  138  H  10  Z  -0.269171  -0.226810   0.397325  -0.255186   0.089021
  139  F  11  S   0.036372  -0.023827  -0.034324  -0.006438  -0.039462
  140  F  11  S   0.099606  -0.059101  -0.097023  -0.020350  -0.102965
  141  F  11  S  -0.042948   0.072990  -0.060528   0.000980   0.101753
  142  F  11  S  -0.832906   1.450938  -0.925900  -0.674435  -0.249239
  143  F  11  X  -0.111684   0.179215  -0.279436   0.026391   0.097376
  144  F  11  Y   0.039248   0.040651  -0.312639   0.063336  -0.147668
  145  F  11  Z   0.184241  -0.062142  -0.050581   0.089698   0.337955
  146  F  11  X   0.171161  -0.371996   0.703194  -0.070009  -0.109897
  147  F  11  Y  -0.162514  -0.086325   0.592200  -0.115629   0.382608
  148  F  11  Z  -0.260575   0.171475   0.048657  -0.316471  -0.723246
  149  F  11  X   0.148319  -0.268138   0.158107   0.143894   0.169357
  150  F  11  Y  -0.049775  -0.031736  -0.175022  -0.070461  -0.115328
  151  F  11  Z  -0.098130   0.227308  -0.258015  -0.018641   0.162696
  152  F  11 XX  -0.004928   0.000499   0.001924  -0.003573   0.011422
  153  F  11 YY   0.009590  -0.004281  -0.003154  -0.000963  -0.005672
  154  F  11 ZZ  -0.004661   0.003782   0.001229   0.004536  -0.005749
  155  F  11 XY  -0.002616  -0.005684  -0.001461   0.004855   0.006893
  156  F  11 XZ   0.008230  -0.002744   0.002238  -0.003927   0.001568
  157  F  11 YZ  -0.000018   0.000348  -0.001142   0.000249  -0.003283
  158  F  11 XX   0.149339  -0.001816  -0.211839  -0.000793   0.145304
  159  F  11 YY   0.066364  -0.073871   0.077580   0.039912   0.115321
  160  F  11 ZZ  -0.215703   0.075688   0.134259  -0.039119  -0.260625
  161  F  11 XY  -0.089631   0.076475  -0.221152   0.046625  -0.062896
  162  F  11 XZ  -0.042445   0.143483   0.083743  -0.096292   0.247899
  163  F  11 YZ   0.104480  -0.010531   0.213919  -0.033332  -0.032074

                    121        122        123        124        125
                    1.8316     1.8516     1.8984     1.9141     1.9583
                     A          A          A          A          A   
    1  C   1  S   0.503290   0.045213   0.099343   0.102247   0.431611
    2  C   1  S   1.005930   0.051172   0.219381   0.226795   0.831902
    3  C   1  S  -5.762609  -2.094005   0.713458   0.388600  -9.292776
    4  C   1  S  -4.927490   1.235547  -4.389330   0.252050  -0.874915
    5  C   1  X  -0.034733   0.028034  -0.181204  -0.138042   0.086486
    6  C   1  Y   0.106654  -0.203220   0.162049   0.112656  -0.011651
    7  C   1  Z  -0.225793   0.196256   0.070076  -0.092624   0.159374
    8  C   1  X   1.077122  -0.033878   0.287455   3.931615  -1.197996
    9  C   1  Y  -0.203605  -0.005571   0.749684   0.195824  -0.007651
   10  C   1  Z  -3.390539  -0.502108  -6.011708  -2.292960  -0.163190
   11  C   1  X   0.143395   0.011342   0.251795   0.453392  -0.093168
   12  C   1  Y  -1.259969  -0.069597  -0.472078  -0.522908  -0.119106
   13  C   1  Z   0.224104  -0.638235   0.470770  -0.469505  -0.521757
   14  C   1 XX  -0.009742   0.076948  -0.242553  -0.078860  -0.464851
   15  C   1 YY  -0.180406  -0.330872   0.178468   0.015282   0.020101
   16  C   1 ZZ   0.190148   0.253924   0.064085   0.063578   0.444750
   17  C   1 XY  -0.021881  -0.042975   0.167408   0.136709  -0.026484
   18  C   1 XZ   0.065467  -0.086571   0.467889  -0.065311  -0.167957
   19  C   1 YZ   0.068162  -0.143077  -0.285381  -0.033136  -0.411104
   20  C   1 XX  -0.258627  -0.220222  -0.715263  -0.044331   0.208607
   21  C   1 YY  -0.288002   0.792637   0.249741   0.610722   0.212721
   22  C   1 ZZ   0.546629  -0.572416   0.465522  -0.566391  -0.421328
   23  C   1 XY   0.273958  -0.117650   0.507708   0.933477  -0.451017
   24  C   1 XZ  -0.141684   0.436556  -0.224633  -0.479130   0.273200
   25  C   1 YZ  -0.526001  -0.312142  -0.572429  -0.918156   0.234012
   26  C   2  S  -0.067477   0.195109   0.078587  -0.035764  -0.000964
   27  C   2  S  -0.101576   0.323095   0.062159  -0.045984  -0.076518
   28  C   2  S   2.989181  -4.295104  -4.393735   2.195055  -3.254114
   29  C   2  S  -1.618743  -1.547351   6.279377  -9.676971  -2.822760
   30  C   2  X  -0.077305   0.094621   0.087386   0.054049  -0.047753
   31  C   2  Y  -0.298989   0.299848   0.045364   0.186695   0.198162
   32  C   2  Z  -0.107877  -0.026744   0.030124   0.035508  -0.470021
   33  C   2  X   1.368201   1.431040   2.214264  -5.831119   0.626719
   34  C   2  Y   6.228220  -1.388162   5.131384  -1.395329   0.001732
   35  C   2  Z   0.027908   2.830206  -2.523206  -6.022993   3.582547
   36  C   2  X   1.217449  -0.090102  -0.330550   0.871955   0.295293
   37  C   2  Y   1.575022   1.515926  -0.886726   1.736028   0.676413
   38  C   2  Z   2.909516   0.270571   0.307775   1.553104   0.220147
   39  C   2 XX   0.080230   0.045323  -0.055619   0.390341  -0.055493
   40  C   2 YY   0.253652  -0.351601   0.054437  -0.374874   0.066173
   41  C   2 ZZ  -0.333882   0.306278   0.001182  -0.015467  -0.010680
   42  C   2 XY  -0.170585   0.044094   0.094883   0.208557  -0.033652
   43  C   2 XZ   0.043142  -0.175105   0.422074   0.201952  -0.186092
   44  C   2 YZ   0.096346  -0.306323   0.059253   0.111339   0.344855
   45  C   2 XX  -0.686652  -0.296715   0.277326   0.582643  -0.550017
   46  C   2 YY   0.812619   2.124812  -0.024414  -0.368421   0.023480
   47  C   2 ZZ  -0.125967  -1.828097  -0.252912  -0.214222   0.526537
   48  C   2 XY   1.279160   0.049138  -0.227094   0.163819  -1.488549
   49  C   2 XZ  -0.468918  -0.421624  -1.260434   0.801181   0.946827
   50  C   2 YZ   0.530303  -0.264517   1.085181   0.281338  -3.449616
   51  C   3  S  -0.308661   0.208950   0.004165  -0.336665   0.093546
   52  C   3  S  -0.599809   0.435189   0.016234  -0.701891   0.161225
   53  C   3  S   5.289915   0.208322   1.640700  -0.328929  -0.510294
   54  C   3  S   5.764427  -0.802443  -1.514733   8.490626   0.474441
   55  C   3  X  -0.033793   0.113796  -0.023056  -0.233670   0.003409
   56  C   3  Y   0.034072  -0.094496   0.022325  -0.049092   0.303323
   57  C   3  Z   0.172359   0.019923  -0.253669  -0.198880   0.015290
   58  C   3  X   1.521690   4.032630  -0.077654  -1.721166   1.495632
   59  C   3  Y  -0.898758   0.436821  -2.787615  -2.097134  -2.058213
   60  C   3  Z  -0.694970   1.934863   5.868237  -6.041668   2.266155
   61  C   3  X   1.121178   0.315227  -0.246144   1.486071  -0.154334
   62  C   3  Y  -0.095860  -0.318387  -0.349664   0.114733  -0.128597
   63  C   3  Z   0.801727   0.147940   0.371509   0.895769   0.580814
   64  C   3 XX  -0.044904   0.124422  -0.038372   0.185199  -0.075196
   65  C   3 YY   0.196492  -0.205597  -0.144043  -0.100683   0.182690
   66  C   3 ZZ  -0.151588   0.081176   0.182416  -0.084516  -0.107494
   67  C   3 XY  -0.238606   0.026251   0.070686  -0.015489  -0.077815
   68  C   3 XZ  -0.008422   0.231994   0.060372  -0.108070  -0.170648
   69  C   3 YZ  -0.367950   0.003171   0.174108  -0.229746   0.158156
   70  C   3 XX  -0.595126   0.674308  -0.172394  -0.863156   1.026792
   71  C   3 YY  -0.052665   0.030131   0.183739   0.561095  -1.080223
   72  C   3 ZZ   0.647791  -0.704439  -0.011345   0.302061   0.053432
   73  C   3 XY  -0.497543   1.067239  -0.472625  -0.991054  -1.212852
   74  C   3 XZ  -0.384575  -0.346691   0.518981  -0.981465   1.295157
   75  C   3 YZ   0.677472   0.591330   0.750619  -0.928252   0.007711
   76  H   4  S   0.389320   0.135473   0.596889   0.481016   0.224002
   77  H   4  S   5.349126   2.532186   4.056134   6.549834   1.881281
   78  H   4  S   0.522186   0.007833   0.405562   0.541270   0.463974
   79  H   4  X   0.124825   0.133687  -0.059163  -0.273895  -0.131338
   80  H   4  Y   0.117627   0.418190   0.032716   0.179405  -0.077505
   81  H   4  Z  -0.034808  -0.007939   0.321650  -0.226616  -0.039235
   82  H   4  X   1.049878   0.550689   0.964784   1.565579   0.740587
   83  H   4  Y  -0.186099  -0.787607  -0.517210  -0.397956  -0.394602
   84  H   4  Z  -1.206153  -0.334149  -0.880856  -1.146500  -0.047203
   85  H   5  S   0.126609   0.121736   0.140838  -0.293518   0.597226
   86  H   5  S   3.492394   1.122155   3.887889  -1.618305   1.547740
   87  H   5  S  -0.058591   0.251256  -0.164294  -0.084851   0.501408
   88  H   5  X  -0.100210   0.006838   0.048117  -0.331951   0.073421
   89  H   5  Y   0.100328   0.515406  -0.169627  -0.276212  -0.005868
   90  H   5  Z   0.008798   0.006312  -0.073069   0.542671   0.186547
   91  H   5  X  -0.911927  -0.356187  -1.103527   0.523134  -0.602892
   92  H   5  Y   0.132665  -0.368488  -0.220943  -0.058265  -0.052332
   93  H   5  Z  -0.689816  -0.261436  -0.295090   0.383985  -0.002478
   94  H   6  S   0.126902   0.095680  -0.195611  -0.028664   0.401222
   95  H   6  S   1.567437  -2.278212  -1.505037  -0.844968   1.162797
   96  H   6  S  -0.310936   0.120023  -0.195884  -0.246606  -0.186832
   97  H   6  X   0.011002  -0.014012   0.356982  -0.325732  -0.159076
   98  H   6  Y  -0.113373  -0.128105   0.050272   0.120045   0.032537
   99  H   6  Z   0.401031   0.432931   0.067660  -0.075526   0.063527
  100  H   6  X   0.113291  -0.241148  -0.125031   0.254642   0.159967
  101  H   6  Y   0.539844  -0.599863  -0.634858  -0.427410   0.371274
  102  H   6  Z  -0.328782  -0.612158   0.220390  -0.648988   0.500380
  103  H   7  S  -1.176810   0.077449  -0.063100   0.264666   0.082206
  104  H   7  S  -8.152182  -0.727867  -6.221074   4.207699   2.711576
  105  H   7  S  -1.270439  -0.823603   0.138542  -0.756343  -0.409663
  106  H   7  X  -0.070338  -0.089913  -0.395634   0.021988   0.542708
  107  H   7  Y  -0.237559   0.098741   0.071325   0.167408  -0.088885
  108  H   7  Z   0.293368   0.337826   0.040858   0.056959  -0.002823
  109  H   7  X  -0.102374   0.203084   0.706529   0.182487   0.070842
  110  H   7  Y   2.439528  -0.667668   1.882249  -1.352585  -0.800962
  111  H   7  Z   0.211436  -0.055403   0.362376  -0.180921   0.762885
  112  H   8  S   0.067968   0.171872  -0.085882  -0.071010   0.073089
  113  H   8  S   0.972092   3.108216  -4.516128   0.654087   0.779519
  114  H   8  S   0.267355   0.227620  -0.349867   0.288613  -0.419078
  115  H   8  X  -0.129476  -0.012340  -0.128970  -0.074630  -0.035364
  116  H   8  Y  -0.032674   0.248359   0.263597   0.260766  -0.214303
  117  H   8  Z  -0.028344   0.101215  -0.314430   0.097181  -0.264858
  118  H   8  X   0.097933   0.845445  -1.554369   0.236316   0.490362
  119  H   8  Y  -0.102426   0.397294  -0.577024  -0.352889  -0.206909
  120  H   8  Z  -0.400454  -0.752654   0.022612  -0.053656   0.656298
  121  H   9  S  -0.273301   0.117949   0.697654  -0.538628   0.613895
  122  H   9  S  -1.249117   3.149711   8.322236  -4.913136   1.910131
  123  H   9  S   0.426949   0.338672   0.555162  -0.021532   0.525914
  124  H   9  X   0.061308  -0.425678   0.127100   0.149795   0.093587
  125  H   9  Y  -0.037654   0.060156   0.366752   0.340856   0.076149
  126  H   9  Z   0.106685  -0.072448  -0.021205   0.304686  -0.137959
  127  H   9  X  -0.028567  -0.492451  -0.059814   0.286983   0.291994
  128  H   9  Y   0.703531  -0.899427  -1.819174   0.652583  -0.003681
  129  H   9  Z  -0.274833   0.548731   2.200191  -1.028109   0.395966
  130  H  10  S  -0.385302   0.167155  -0.176344  -0.217965  -0.354106
  131  H  10  S  -3.478632  -1.772602  -2.375328  -5.392993   2.342720
  132  H  10  S   0.306578   0.099789  -0.126953   0.096844   0.369504
  133  H  10  X   0.196252  -0.186937   0.064958  -0.172929   0.068704
  134  H  10  Y   0.168965  -0.107889   0.149475  -0.134585   0.384863
  135  H  10  Z  -0.039173  -0.076588  -0.354341   0.034652  -0.070056
  136  H  10  X   0.438908  -0.031298   0.310557   0.821857  -0.417269
  137  H  10  Y  -1.208299  -0.673841  -0.648117  -1.530394   0.567748
  138  H  10  Z   0.114629  -0.374669  -0.134231  -0.560201   0.481788
  139  F  11  S   0.058081   0.031838  -0.055273   0.043721   0.040861
  140  F  11  S   0.159731   0.083218  -0.144161   0.109774   0.112349
  141  F  11  S   0.005007  -0.039811  -0.005303  -0.114278   0.075060
  142  F  11  S   1.404607   0.862766  -1.577273   1.914089   1.456750
  143  F  11  X   0.078131   0.153282  -0.004600   0.190210   0.086182
  144  F  11  Y   0.179718  -0.070932   0.126475  -0.035751  -0.248440
  145  F  11  Z  -0.173270   0.072237   0.025582  -0.009408   0.020904
  146  F  11  X  -0.356289  -0.390881   0.174292  -0.459783  -0.392841
  147  F  11  Y  -0.349170   0.244654  -0.356957   0.120461   0.573016
  148  F  11  Z   0.468466  -0.145668  -0.123834   0.130537   0.029269
  149  F  11  X  -0.292588  -0.146652   0.301457  -0.232050  -0.314446
  150  F  11  Y   0.082352  -0.107305  -0.148795   0.112243   0.110596
  151  F  11  Z  -0.074847  -0.018199  -0.179260   0.229160   0.201689
  152  F  11 XX  -0.004155   0.006182   0.003351   0.005313  -0.004897
  153  F  11 YY  -0.001233  -0.001803  -0.004341   0.004518   0.008103
  154  F  11 ZZ   0.005389  -0.004379   0.000991  -0.009831  -0.003206
  155  F  11 XY   0.000955   0.007805   0.001876   0.006019  -0.009389
  156  F  11 XZ   0.001127   0.002500  -0.002428   0.004012  -0.002608
  157  F  11 YZ  -0.002764   0.005816  -0.004085   0.002485   0.008121
  158  F  11 XX   0.076065   0.207316   0.120882   0.042086   0.030333
  159  F  11 YY  -0.228786  -0.038583  -0.169642   0.006151   0.173407
  160  F  11 ZZ   0.152721  -0.168733   0.048760  -0.048237  -0.203740
  161  F  11 XY   0.157799  -0.006959   0.041854   0.027004  -0.233745
  162  F  11 XZ  -0.078844   0.040100  -0.115099  -0.008368  -0.043251
  163  F  11 YZ  -0.134417   0.115154  -0.014612   0.077582   0.179207

                    126        127        128        129        130
                    1.9841     2.0047     2.0366     2.0671     2.1358
                     A          A          A          A          A   
    1  C   1  S   0.083096   0.368992  -0.021877   0.173359   0.022823
    2  C   1  S   0.134238   0.723738  -0.047052   0.307332   0.076177
    3  C   1  S  -4.174080  -5.246504   1.028835  -4.914804   1.243113
    4  C   1  S   1.684821  -1.483819   4.266457  -0.439819  -1.527002
    5  C   1  X  -0.341163   0.109643  -0.177034  -0.009814  -0.141351
    6  C   1  Y  -0.204896  -0.168672   0.219032   0.226490   0.265543
    7  C   1  Z   0.073023  -0.108562   0.070694   0.144312   0.134703
    8  C   1  X   5.298579  -2.147310   6.216191  -1.453084   0.702090
    9  C   1  Y   1.072196   5.962626  -2.096654  -3.848256  -0.795762
   10  C   1  Z   4.644663   1.863989   0.003670   1.738704  -3.815955
   11  C   1  X   0.674218  -0.488181   0.546210  -0.054795  -0.254261
   12  C   1  Y   0.196260   0.496524   0.153353  -0.250305   0.146111
   13  C   1  Z  -0.260812   0.159469  -0.799786   0.123918   0.092732
   14  C   1 XX   0.073984  -0.200336  -0.044415  -0.016947  -0.210249
   15  C   1 YY  -0.225779   0.007604   0.247525   0.149054   0.159946
   16  C   1 ZZ   0.151794   0.192732  -0.203110  -0.132107   0.050303
   17  C   1 XY   0.023229  -0.050197  -0.007852   0.084174  -0.102773
   18  C   1 XZ   0.404133   0.025786   0.214577   0.164599   0.004345
   19  C   1 YZ  -0.224269  -0.283278   0.071332  -0.121248  -0.409593
   20  C   1 XX   1.245440   0.339120   0.302793   0.058237  -0.838756
   21  C   1 YY   0.331644   0.289805  -1.279574   0.447855   0.415373
   22  C   1 ZZ  -1.577084  -0.628925   0.976782  -0.506093   0.423383
   23  C   1 XY   0.429282  -0.184730   0.980123   0.343359   0.490254
   24  C   1 XZ   0.902543  -0.521784   0.571455  -0.197975  -0.232643
   25  C   1 YZ  -0.218183  -0.821952   0.490181   0.880550   0.226987
   26  C   2  S   0.079921  -0.144787  -0.126435  -0.095881   0.207641
   27  C   2  S   0.193978  -0.376481  -0.296000  -0.098308   0.330894
   28  C   2  S   0.358413  -1.242225   1.180143   2.546252  -3.999090
   29  C   2  S  -0.271222   2.486801 -13.131558   2.111258   3.858124
   30  C   2  X  -0.098989   0.086795   0.259874  -0.049961  -0.070718
   31  C   2  Y   0.074090   0.213573  -0.098408   0.222104   0.043452
   32  C   2  Z  -0.397728  -0.126608   0.253259  -0.138613  -0.242473
   33  C   2  X   0.768357   0.933926  -3.694739  -1.304442   2.856415
   34  C   2  Y  -2.997805  -0.613658  -1.063559  -3.840214   1.322020
   35  C   2  Z   5.074862   1.676463   0.610354   3.310645  -0.289798
   36  C   2  X  -0.289326  -0.509432   1.260346  -0.229115  -0.095805
   37  C   2  Y   0.455941  -0.337727   2.172358  -0.886823  -1.165587
   38  C   2  Z  -0.583904  -0.384820   0.948991  -0.153194  -0.132444
   39  C   2 XX  -0.009276   0.131157  -0.087356   0.315517   0.096323
   40  C   2 YY  -0.180550   0.199600   0.411840  -0.205190   0.023821
   41  C   2 ZZ   0.189826  -0.330757  -0.324484  -0.110327  -0.120144
   42  C   2 XY   0.366324   0.118691  -0.065669  -0.275503  -0.288777
   43  C   2 XZ   0.040427   0.199932  -0.176624   0.344759  -0.280250
   44  C   2 YZ   0.027262   0.116566  -0.175402  -0.073842   0.217126
   45  C   2 XX  -0.073297   0.113906   0.321102   0.149465   0.309589
   46  C   2 YY   2.045571   2.024665  -1.684600  -0.891774  -0.203275
   47  C   2 ZZ  -1.972274  -2.138571   1.363498   0.742309  -0.106315
   48  C   2 XY  -0.393272  -0.055863   1.580814   0.055925   0.739894
   49  C   2 XZ  -1.738697  -1.128487   0.561206  -0.505539  -0.901050
   50  C   2 YZ  -2.441071  -0.677602   1.579503  -1.145944   0.962040
   51  C   3  S   0.001913   0.012506   0.348236  -0.314446   0.140939
   52  C   3  S  -0.027562  -0.020963   0.670825  -0.721193   0.307428
   53  C   3  S   4.616394   0.887088  -8.638671   1.317277   0.145355
   54  C   3  S  -0.862951  -1.901741   5.221152  -1.618369  -1.646004
   55  C   3  X  -0.087083  -0.120226   0.088646  -0.415261   0.301269
   56  C   3  Y   0.161470  -0.071527   0.051224   0.014469  -0.229824
   57  C   3  Z   0.063105   0.105922   0.036213   0.136975   0.265760
   58  C   3  X   2.310853   6.861658   0.910083   2.447074   0.811679
   59  C   3  Y   1.229879   2.094691   0.912349  -0.857463   4.426536
   60  C   3  Z  -0.207394  -2.500458  -1.659296  -2.367083   0.793286
   61  C   3  X  -0.148722   0.602679   1.293548  -0.225139   0.315432
   62  C   3  Y  -0.118598   0.223091   0.104799   0.112529   0.206068
   63  C   3  Z  -0.091765  -0.762579   1.125545  -0.657867  -0.670828
   64  C   3 XX  -0.168505  -0.163566   0.074886  -0.010739  -0.027925
   65  C   3 YY   0.317958  -0.087496  -0.040987   0.157405   0.063051
   66  C   3 ZZ  -0.149453   0.251062  -0.033899  -0.146666  -0.035126
   67  C   3 XY  -0.046613   0.046885   0.069577  -0.109940  -0.418372
   68  C   3 XZ  -0.233068   0.340861   0.212763  -0.387316   0.098732
   69  C   3 YZ   0.208571   0.093988   0.182726  -0.241261  -0.199469
   70  C   3 XX   1.202607   0.112672   0.282591   0.748990  -1.463364
   71  C   3 YY  -0.162181   0.282883   0.375395   0.536863  -0.056042
   72  C   3 ZZ  -1.040426  -0.395555  -0.657986  -1.285853   1.519406
   73  C   3 XY   0.219649   0.616670   0.528254  -0.221196   1.641523
   74  C   3 XZ   0.656803   0.004663  -0.239447   0.547951   0.095310
   75  C   3 YZ  -0.009978  -0.259834   0.378463   0.540883  -0.393082
   76  H   4  S   0.564328  -0.224923   0.758588   0.223756   0.324315
   77  H   4  S   3.127865  -5.214317   5.564801  -1.090207   3.020277
   78  H   4  S   0.379586  -0.443549   0.402259   0.138626  -0.222984
   79  H   4  X  -0.238757   0.074009  -0.391984   0.100470  -0.232634
   80  H   4  Y   0.055252  -0.408442  -0.075885   0.169942   0.115360
   81  H   4  Z   0.089334   0.085016  -0.045212   0.253468   0.201465
   82  H   4  X   1.054769  -0.950498   1.072161  -0.192723   0.671611
   83  H   4  Y  -0.456540   0.497927   0.049589   0.019985  -0.576463
   84  H   4  Z  -0.310960   1.330458  -1.467476   0.136350  -0.737232
   85  H   5  S  -0.970758   0.295659  -0.775771   0.242979   0.237499
   86  H   5  S  -8.306159   3.235375  -7.870500   3.086430   1.908056
   87  H   5  S  -0.353644   0.573457  -0.349210  -0.167110   0.080352
   88  H   5  X  -0.284181   0.168528  -0.088908   0.083395  -0.041208
   89  H   5  Y   0.056727  -0.362181  -0.023483   0.071241   0.127194
   90  H   5  Z  -0.275238  -0.150163  -0.142266  -0.037811   0.139252
   91  H   5  X   2.063040  -1.130383   2.223585  -1.029887  -0.419178
   92  H   5  Y   0.202918   0.041590   0.040793  -0.190332  -0.514618
   93  H   5  Z   1.401653  -0.291782   0.959595  -0.594095  -0.217282
   94  H   6  S   0.515172   0.809585  -0.208517  -0.362772  -0.258376
   95  H   6  S   2.676072   7.249789   1.547324  -3.542446  -3.483056
   96  H   6  S   0.124159   0.477757  -0.134272  -0.218648   0.286033
   97  H   6  X  -0.154722   0.198666  -0.268984   0.329767  -0.125094
   98  H   6  Y  -0.117475  -0.205855   0.161396   0.277866   0.234785
   99  H   6  Z  -0.257596  -0.157677   0.152134  -0.101744  -0.020626
  100  H   6  X   0.236079   0.301038   0.366980  -0.289317  -0.059232
  101  H   6  Y   1.099301   2.405083   0.284011  -0.963644  -1.162476
  102  H   6  Z  -0.094791   0.058863   0.080322  -0.284491   0.413637
  103  H   7  S   0.034382  -0.126388  -0.077719   0.468336   0.231155
  104  H   7  S   0.374848  -3.326018   3.573065   3.709280  -2.816867
  105  H   7  S  -0.289493  -0.051935  -0.945359   0.720050   0.395859
  106  H   7  X  -0.329506  -0.064371   0.194904   0.327532  -0.128194
  107  H   7  Y   0.058561  -0.091887  -0.178809   0.295102  -0.043378
  108  H   7  Z   0.231489   0.105203  -0.167700   0.118322  -0.085409
  109  H   7  X   0.515206   0.395609  -0.575621  -0.274620  -0.391410
  110  H   7  Y  -0.617653   0.907353  -0.306805  -0.961448   1.096191
  111  H   7  Z   0.808295   0.530540  -0.927371  -0.203259  -0.051087
  112  H   8  S   0.044098   0.911395   0.506026   0.193744   0.260531
  113  H   8  S   0.374297   9.792979   4.037423   2.927947   2.578281
  114  H   8  S   0.076078   0.809676   0.747709   0.080938   0.673411
  115  H   8  X   0.065546  -0.244276  -0.041841  -0.113643  -0.125461
  116  H   8  Y  -0.248412   0.003959  -0.125495  -0.037079  -0.380458
  117  H   8  Z   0.234580   0.276143  -0.059325   0.085925  -0.345884
  118  H   8  X   0.341396   2.673415   1.317339   0.891327   0.176038
  119  H   8  Y   0.100277   0.542110   0.308381  -0.021162   0.820206
  120  H   8  Z   0.551871  -1.129703  -0.121512   0.564158  -0.884578
  121  H   9  S  -0.068714  -0.537793   0.226919  -0.013111  -0.537404
  122  H   9  S  -0.479631  -4.418768   0.694434  -0.661920  -4.319872
  123  H   9  S   0.023664  -0.537581   0.336963  -0.465515  -0.275211
  124  H   9  X   0.038667  -0.243202  -0.477038  -0.506420   0.231373
  125  H   9  Y  -0.210284   0.021486  -0.057456  -0.235403  -0.509030
  126  H   9  Z  -0.150460   0.171522  -0.150995   0.059180   0.005362
  127  H   9  X   0.065591  -0.310527  -0.172185   0.154940  -0.367666
  128  H   9  Y   0.091007   0.543734  -0.216175   0.179026   0.914457
  129  H   9  Z  -0.266477  -1.376948   0.232064  -0.655890  -0.816152
  130  H  10  S  -0.136739   0.061486   0.044733  -0.519095   0.637572
  131  H  10  S   1.504264  -2.770574   0.347123  -2.314798   4.747318
  132  H  10  S  -0.168565  -0.282474   0.497909  -0.054916  -0.695923
  133  H  10  X   0.150162  -0.312684  -0.332151  -0.224174  -0.146232
  134  H  10  Y   0.199772  -0.202626  -0.155870   0.199860  -0.328254
  135  H  10  Z   0.312292   0.193706   0.006418   0.168441  -0.240416
  136  H  10  X  -0.220810   0.124227   0.072256   0.882683  -0.368808
  137  H  10  Y   0.356913  -0.765127   0.109505  -0.743057   1.357989
  138  H  10  Z  -0.155187  -0.877182   0.144704  -0.310223   0.714639
  139  F  11  S  -0.008977  -0.015792   0.088528  -0.102286  -0.112584
  140  F  11  S  -0.013255  -0.047071   0.207701  -0.233337  -0.268472
  141  F  11  S   0.102586  -0.025045  -0.299423   0.487671   0.313964
  142  F  11  S  -0.525503  -0.119803   2.636011  -1.280474  -1.886472
  143  F  11  X  -0.044194   0.158768   0.112931  -0.232189   0.015347
  144  F  11  Y  -0.013121  -0.025727  -0.031137   0.065422   0.142644
  145  F  11  Z   0.119785   0.119539  -0.346434  -0.025537   0.228537
  146  F  11  X   0.019349  -0.266234  -0.282580   0.521784   0.073878
  147  F  11  Y   0.071464   0.091901   0.103207  -0.142685  -0.386180
  148  F  11  Z  -0.321094  -0.359981   0.930633   0.045244  -0.524827
  149  F  11  X   0.218868   0.016506  -0.436499   0.343876   0.303062
  150  F  11  Y  -0.084419  -0.013525   0.160414  -0.004417  -0.056036
  151  F  11  Z  -0.005605   0.159239   0.412172  -0.136168  -0.206231
  152  F  11 XX  -0.006661   0.013024   0.006361  -0.013697   0.025401
  153  F  11 YY  -0.000759  -0.009021  -0.004835   0.009914  -0.009745
  154  F  11 ZZ   0.007420  -0.004003  -0.001526   0.003783  -0.015656
  155  F  11 XY   0.001319   0.005258   0.007054   0.010936  -0.000094
  156  F  11 XZ   0.002159  -0.002666  -0.003676  -0.006779   0.009795
  157  F  11 YZ  -0.006283   0.000629   0.010115   0.000151  -0.000595
  158  F  11 XX   0.086273   0.173940  -0.115818  -0.266629   0.252716
  159  F  11 YY  -0.045879  -0.020730  -0.038803   0.198307  -0.079957
  160  F  11 ZZ  -0.040395  -0.153210   0.154621   0.068322  -0.172759
  161  F  11 XY  -0.089518  -0.063318   0.027838   0.092697   0.158664
  162  F  11 XZ   0.090166   0.000501  -0.304570  -0.031242   0.288248
  163  F  11 YZ  -0.059315   0.075866   0.161646  -0.028861  -0.129216

                    131        132        133        134        135
                    2.1528     2.1747     2.1970     2.2490     2.2628
                     A          A          A          A          A   
    1  C   1  S  -0.160152   0.032683  -0.195029   0.204903  -0.140544
    2  C   1  S  -0.284951   0.079126  -0.324245   0.305227  -0.187946
    3  C   1  S   5.825214  -0.534961   6.015335  -6.988834   3.160522
    4  C   1  S  -2.405309  -4.195645  -0.804196  -0.494138  -2.354245
    5  C   1  X  -0.051258  -0.446737  -0.269749   0.022458   0.186383
    6  C   1  Y  -0.125007  -0.119837  -0.017608   0.005943   0.174522
    7  C   1  Z  -0.169758  -0.114444  -0.040604   0.098272   0.075186
    8  C   1  X   1.917840   1.677685  -0.560463   1.232770  -0.610760
    9  C   1  Y   7.304431   2.958949   0.181542  -3.409581  -2.916470
   10  C   1  Z   0.320484  -3.630376   0.761332   3.712924  -1.124994
   11  C   1  X   0.210433   0.282551  -0.254827  -0.049634  -0.003590
   12  C   1  Y   0.208595  -0.120103  -0.166511  -0.319119  -0.114396
   13  C   1  Z   0.819125   0.870183   0.327860   0.215529   0.741328
   14  C   1 XX  -0.066669   0.132582  -0.409324   0.101778  -0.387083
   15  C   1 YY  -0.092772  -0.144277  -0.027067   0.243916  -0.047959
   16  C   1 ZZ   0.159441   0.011695   0.436391  -0.345695   0.435041
   17  C   1 XY   0.051352  -0.149857  -0.036535  -0.353296   0.050446
   18  C   1 XZ  -0.060090   0.107403   0.175689  -0.036983  -0.165646
   19  C   1 YZ   0.219826   0.067504  -0.315108   0.339144  -0.450633
   20  C   1 XX   0.396974   0.131652   0.578467  -0.081061  -0.377222
   21  C   1 YY   0.087482  -0.958645   0.053633   0.467979  -0.152682
   22  C   1 ZZ  -0.484456   0.826993  -0.632100  -0.386917   0.529904
   23  C   1 XY  -0.270679  -0.030278   0.204326  -0.190998  -0.929854
   24  C   1 XZ  -0.997822   0.337059   0.252708   0.065243   0.134823
   25  C   1 YZ  -1.396548  -1.121217   0.390252   0.763998   1.325662
   26  C   2  S  -0.050451  -0.175297   0.218948   0.194528  -0.533486
   27  C   2  S  -0.066384  -0.347367   0.370812   0.364700  -1.074263
   28  C   2  S  -1.293785  -0.417461  -2.057572  -4.305655   5.332565
   29  C   2  S   8.088243   8.058765   3.920606  -1.499986   9.130337
   30  C   2  X   0.069744   0.156159   0.020735   0.312557   0.148987
   31  C   2  Y   0.133368   0.132737   0.170585   0.114838  -0.127429
   32  C   2  Z   0.237226   0.148154   0.052925   0.192546   0.002752
   33  C   2  X  -1.550369   0.675126   1.846601   4.542735   0.856210
   34  C   2  Y   1.053811   2.749641   2.186946  -1.785021   2.510690
   35  C   2  Z  -6.495067  -3.382327   0.795708   9.051821  -1.639214
   36  C   2  X  -0.439658  -0.138075  -0.130715   0.479335  -0.887572
   37  C   2  Y  -1.138090  -0.822283  -0.513428   0.004545  -2.174505
   38  C   2  Z  -0.569590  -0.373625   0.472502   0.767605  -0.242617
   39  C   2 XX   0.084089  -0.076214  -0.090708  -0.346364   0.270462
   40  C   2 YY  -0.056107   0.060945   0.216015   0.267587   0.027789
   41  C   2 ZZ  -0.027981   0.015269  -0.125307   0.078778  -0.298251
   42  C   2 XY  -0.166553  -0.539257  -0.383264  -0.130315   0.039564
   43  C   2 XZ  -0.169491  -0.306854  -0.038225  -0.492678  -0.538544
   44  C   2 YZ  -0.204926   0.376404  -0.073323  -0.390926   0.272646
   45  C   2 XX   1.140407  -0.538451  -0.284026  -0.108296  -0.429336
   46  C   2 YY   1.071617   0.618799   0.810581  -0.310972  -1.561359
   47  C   2 ZZ  -2.212024  -0.080348  -0.526555   0.419268   1.990695
   48  C   2 XY   1.164096   0.495527  -1.146217  -0.223870   0.099395
   49  C   2 XZ   0.310481   0.439266  -0.324395  -0.935185   1.922318
   50  C   2 YZ   1.242814   1.268828   0.596711  -2.371755  -0.308903
   51  C   3  S   0.102872  -0.090983  -0.213326  -0.144062  -0.034924
   52  C   3  S   0.177452  -0.149594  -0.344777  -0.256916  -0.062031
   53  C   3  S  -5.781612   1.110252   5.021043   4.521007  -3.730871
   54  C   3  S  -4.251170  -1.797588  -0.400729   0.068397  -3.808405
   55  C   3  X  -0.014846   0.007870   0.090178  -0.134654  -0.110206
   56  C   3  Y   0.152078   0.022158  -0.353060  -0.018161   0.304351
   57  C   3  Z  -0.123114   0.174073   0.154040   0.302423   0.024620
   58  C   3  X  -0.978881  -1.369319   1.206258   9.084205  -0.164161
   59  C   3  Y  -0.998511  -0.406522  -1.382985  -0.278612  -1.868407
   60  C   3  Z   0.320367   0.452388   2.371773   3.837447  -0.627090
   61  C   3  X  -0.805386  -0.534599   0.107822   0.813751  -0.270439
   62  C   3  Y  -0.244192  -0.467748  -0.193199   0.232736  -0.018170
   63  C   3  Z  -0.488448   0.038329  -0.063489   0.141765  -0.952892
   64  C   3 XX   0.030804   0.085329   0.112180  -0.378853   0.097700
   65  C   3 YY  -0.039081  -0.517055  -0.042871   0.123479  -0.331394
   66  C   3 ZZ   0.008278   0.431726  -0.069310   0.255374   0.233695
   67  C   3 XY   0.028142  -0.012913  -0.035216   0.369464   0.225587
   68  C   3 XZ  -0.292333   0.218856   0.354183   0.686909   0.337615
   69  C   3 YZ  -0.299793   0.210117  -0.119891   0.150754   0.212843
   70  C   3 XX   0.496497   0.084300  -0.487043   0.060230  -0.517877
   71  C   3 YY  -0.025278   0.224805  -0.288814  -0.069075  -0.375950
   72  C   3 ZZ  -0.471219  -0.309106   0.775858   0.008845   0.893828
   73  C   3 XY   0.183808   0.024283   0.441184  -0.760465  -1.705915
   74  C   3 XZ   0.520099  -0.891886  -0.039022   1.535194  -0.939568
   75  C   3 YZ   0.245471   0.332883  -0.474365   0.483849   0.276970
   76  H   4  S  -0.528726   0.081434  -0.211927   0.118055  -0.179986
   77  H   4  S  -2.577746   3.924225  -2.243314   1.833811   0.470273
   78  H   4  S  -0.086915   0.168653  -0.383501  -0.103859  -0.357979
   79  H   4  X  -0.275281   0.001089  -0.363200  -0.023267  -0.223270
   80  H   4  Y  -0.266743  -0.053570   0.283321  -0.424690   0.269252
   81  H   4  Z  -0.368733   0.388840  -0.200141   0.093507  -0.343083
   82  H   4  X  -0.282744   1.013313  -0.221088   0.390358   0.221107
   83  H   4  Y   0.335574  -0.155638  -0.143644  -0.199467  -0.540284
   84  H   4  Z   0.721381  -0.880255   0.743161  -0.647604  -0.272064
   85  H   5  S  -0.415383  -0.080880  -0.183703   0.203656   0.192597
   86  H   5  S  -2.824507  -1.226022  -2.033866  -2.398122  -1.414501
   87  H   5  S  -0.371845  -0.343502   0.055443  -0.084178  -0.198575
   88  H   5  X   0.021398  -0.500370   0.107477  -0.144466   0.378572
   89  H   5  Y  -0.395215  -0.029186   0.136548   0.162734   0.321282
   90  H   5  Z  -0.097581   0.011304  -0.625711   0.148016  -0.065091
   91  H   5  X   0.676444   0.493615   0.363487   0.842643   0.449017
   92  H   5  Y   0.075744   0.104733  -0.193071   0.154628  -0.079464
   93  H   5  Z   0.912806   0.230545   0.746065   0.358236   0.373865
   94  H   6  S   0.692967   0.335084  -0.068975  -0.099727  -0.330519
   95  H   6  S   6.870954   4.129041  -1.858996  -1.100104  -3.755070
   96  H   6  S   0.249100   0.262999  -0.204915  -0.226037  -0.056387
   97  H   6  X  -0.141125  -0.057202   0.044002  -0.461886  -0.208414
   98  H   6  Y  -0.127803  -0.336757  -0.060681   0.267615   0.134718
   99  H   6  Z  -0.014250   0.405941  -0.476123   0.058863  -0.286471
  100  H   6  X   0.144628   0.334483   0.237027   0.073589  -0.400463
  101  H   6  Y   2.096397   1.127305  -0.648260  -0.223702  -1.162352
  102  H   6  Z  -0.101057   0.171398   0.355498  -0.323449   0.751627
  103  H   7  S  -0.010743  -0.396279  -0.263968   0.267917  -0.207972
  104  H   7  S  -3.350057  -4.139336  -2.819823   1.233068  -1.724538
  105  H   7  S   0.285477   0.012864   0.011342  -0.018497   0.898386
  106  H   7  X   0.042019   0.344225   0.571731  -0.060418  -0.340452
  107  H   7  Y   0.015531   0.075827   0.024277   0.281754  -0.102385
  108  H   7  Z   0.637585  -0.289618   0.062937   0.158924   0.054081
  109  H   7  X  -0.263081  -0.139988   0.411911  -0.375476  -0.272261
  110  H   7  Y   0.604168   0.766813   0.384616  -0.060450   0.724005
  111  H   7  Z   0.335779   0.129973  -0.124894  -0.018623  -0.016296
  112  H   8  S  -0.121281  -0.216314  -0.196978   0.718544  -0.001518
  113  H   8  S  -0.464056  -2.781524  -1.499049   9.103922   2.773719
  114  H   8  S  -0.079217  -0.273394   0.038525   0.908704   0.243716
  115  H   8  X  -0.057341   0.090943  -0.090001  -0.547618  -0.019776
  116  H   8  Y   0.160712  -0.127880   0.468746   0.368869  -0.160635
  117  H   8  Z  -0.491290   0.069884   0.170879   0.059302   0.054451
  118  H   8  X   0.082043  -0.655622  -0.765160   2.205338   0.915701
  119  H   8  Y  -0.014811  -0.019058   0.418797  -0.347078  -0.743856
  120  H   8  Z   0.665679  -0.391401  -0.459361  -0.885706  -1.101210
  121  H   9  S   0.225475   0.177987  -0.058757   0.042224   0.209934
  122  H   9  S   3.976275   0.721940   0.869725   1.930286  -0.881554
  123  H   9  S   0.073759   0.294350   0.177119  -0.078859  -0.262988
  124  H   9  X  -0.212119   0.010083   0.159223   0.010279  -0.051641
  125  H   9  Y  -0.043140   0.292353  -0.085320  -0.064738   0.435386
  126  H   9  Z  -0.241324   0.319971   0.298193   0.058280   0.127657
  127  H   9  X   0.312787  -0.337721  -0.313851   0.080208  -0.018062
  128  H   9  Y  -0.716948  -0.337724  -0.039567  -0.472872   0.361215
  129  H   9  Z   1.124570  -0.170417   0.407110   0.120511  -0.162789
  130  H  10  S   0.046264   0.038940  -0.173835  -0.249553  -0.090826
  131  H  10  S  -0.438250  -1.742922  -1.207749  -3.241271  -2.326139
  132  H  10  S  -0.246612  -0.450830  -0.245873   0.144318  -0.604566
  133  H  10  X  -0.327647  -0.096502   0.382794   0.455871  -0.100289
  134  H  10  Y   0.175703  -0.065410  -0.192275   0.376314   0.144255
  135  H  10  Z  -0.426950   0.089590  -0.265312   0.023719   0.472668
  136  H  10  X   0.266877   0.168850  -0.126991   0.134630   0.249860
  137  H  10  Y  -0.026110  -0.345666  -0.273377  -1.225301  -0.705604
  138  H  10  Z  -0.300289  -0.299726  -0.122608  -0.616518   0.118431
  139  F  11  S  -0.164501  -0.129904  -0.000417  -0.075880  -0.110645
  140  F  11  S  -0.381579  -0.289203  -0.007867  -0.157020  -0.237854
  141  F  11  S   0.655431   0.698087  -0.157023   0.462134   0.741157
  142  F  11  S  -2.270688  -2.012243  -0.054524  -0.020629  -1.591663
  143  F  11  X  -0.178703  -0.311115   0.050293  -0.027245  -0.225017
  144  F  11  Y   0.110798  -0.013265  -0.094773   0.057444   0.199961
  145  F  11  Z   0.107715   0.128414  -0.031843   0.103602   0.022647
  146  F  11  X   0.528020   0.706420  -0.122065  -0.156151   0.457782
  147  F  11  Y  -0.240536  -0.000778   0.206459  -0.170123  -0.482804
  148  F  11  Z  -0.269621  -0.231348  -0.019096  -0.272211   0.014477
  149  F  11  X   0.503314   0.334975  -0.146171  -0.051889   0.213667
  150  F  11  Y  -0.131792  -0.141686  -0.027024  -0.096832   0.041590
  151  F  11  Z  -0.289344  -0.225617   0.024344  -0.086861  -0.127228
  152  F  11 XX   0.007022  -0.009353  -0.009647  -0.009188  -0.008729
  153  F  11 YY  -0.006454   0.013918   0.002015   0.009635  -0.001293
  154  F  11 ZZ  -0.000568  -0.004566   0.007633  -0.000447   0.010022
  155  F  11 XY   0.012667  -0.006014  -0.010178  -0.009862   0.009762
  156  F  11 XZ   0.004892   0.010099  -0.010431  -0.003832  -0.004553
  157  F  11 YZ  -0.000928   0.014485   0.000329  -0.010817  -0.004165
  158  F  11 XX  -0.134037  -0.310428  -0.016846   0.046430  -0.217834
  159  F  11 YY   0.003026   0.251287   0.030085   0.067292   0.067554
  160  F  11 ZZ   0.131011   0.059141  -0.013239  -0.113722   0.150281
  161  F  11 XY   0.146430   0.094585  -0.114082  -0.002353   0.315208
  162  F  11 XZ   0.189598   0.294593  -0.026618   0.010793   0.074849
  163  F  11 YZ  -0.089128   0.055778   0.044970  -0.141454  -0.191102

                    136        137        138        139        140
                    2.3365     2.3922     2.4398     2.4821     2.5003
                     A          A          A          A          A   
    1  C   1  S   0.313277   0.264172   0.164284  -0.294381  -0.550260
    2  C   1  S   0.584707   0.547022   0.261739  -0.512513  -0.882463
    3  C   1  S  -7.833661  -1.988823  -7.250284   7.287148  15.939349
    4  C   1  S  -2.982501  -4.905337   1.213075   1.251342   0.578248
    5  C   1  X  -0.029051   0.212837   0.110506   0.015667   0.220677
    6  C   1  Y   0.358869  -0.080712   0.067025  -0.055623  -0.104643
    7  C   1  Z   0.434216  -0.405610   0.010332  -0.073133  -0.053515
    8  C   1  X  -0.375534   0.805789  -1.387715  -1.057071   2.141980
    9  C   1  Y   1.881091  -0.687212  -3.339989   1.744566   7.599248
   10  C   1  Z   2.426739  -0.061337   3.427836  -4.494067 -12.060280
   11  C   1  X   0.077491   0.182129   0.125337  -0.290322   0.251372
   12  C   1  Y   0.042554  -0.500701  -0.287990   0.057367   0.431519
   13  C   1  Z   0.914313   1.136657  -0.358010  -0.583404  -0.692086
   14  C   1 XX   0.110715  -0.247612  -0.521094  -0.297592  -0.215025
   15  C   1 YY   0.023478   0.094046  -0.026143   0.206676   0.028427
   16  C   1 ZZ  -0.134193   0.153566   0.547237   0.090916   0.186599
   17  C   1 XY  -0.232845  -0.360731   0.183825  -0.822829   0.100605
   18  C   1 XZ  -0.019761   0.232262   0.200997   0.270359   0.198479
   19  C   1 YZ   0.127811  -0.294090   0.557854   0.029244  -0.124703
   20  C   1 XX  -0.934296   0.666367  -0.509627  -0.581506  -1.797112
   21  C   1 YY   0.985604  -0.725188  -0.638357   0.155327  -0.203968
   22  C   1 ZZ  -0.051308   0.058820   1.147983   0.426179   2.001081
   23  C   1 XY  -0.093539  -0.720956  -0.388840  -1.028353   0.071769
   24  C   1 XZ   1.153748  -0.168989   1.059306   0.276273  -0.696571
   25  C   1 YZ  -0.214106   0.387213   1.873239  -0.818916  -2.228743
   26  C   2  S  -0.382111   0.001469   0.351209   0.173933   0.156576
   27  C   2  S  -0.709382  -0.009322   0.714442   0.305869   0.322161
   28  C   2  S   6.299002  -2.843489  -4.393517  -2.617850   0.432305
   29  C   2  S   2.003439   5.002012  -3.179846  -0.098117  -2.609549
   30  C   2  X  -0.190867   0.083929   0.053727  -0.108452  -0.112595
   31  C   2  Y  -0.158659   0.226132   0.452255  -0.202468  -0.105376
   32  C   2  Z  -0.227355   0.078877   0.065392   0.005131  -0.156501
   33  C   2  X  -0.164367   1.449866   5.494331   0.544473  -9.440203
   34  C   2  Y  -2.213145   0.216526  -0.132600   3.041112   4.647508
   35  C   2  Z   1.179748   2.359373   9.236808  -7.072287 -21.485967
   36  C   2  X  -0.105528   0.040499   0.147584  -0.076745   0.089196
   37  C   2  Y  -0.684871  -1.480219   0.967964   0.442311   0.245291
   38  C   2  Z   0.134070   1.299387   0.306264  -0.495277  -0.481875
   39  C   2 XX   0.375148   0.470022  -0.119378   0.085972   0.242715
   40  C   2 YY  -0.100993  -0.095154   0.137312  -0.157969  -0.261496
   41  C   2 ZZ  -0.274155  -0.374868  -0.017934   0.071997   0.018781
   42  C   2 XY  -0.014294   0.100743   0.151278  -0.067310   0.142905
   43  C   2 XZ  -0.106246   0.336716  -0.129274   0.704838   0.265534
   44  C   2 YZ  -0.075528   0.523574   0.174866  -0.067272   0.691998
   45  C   2 XX   0.137947  -0.636557  -0.654083  -0.004094   2.802808
   46  C   2 YY   1.800810  -0.165766  -1.783318  -0.337672  -2.072177
   47  C   2 ZZ  -1.938758   0.802323   2.437401   0.341766  -0.730631
   48  C   2 XY  -1.116970   0.652488  -1.717098  -0.518582   1.198013
   49  C   2 XZ   0.085395  -0.153588  -0.747998   1.172339   2.975990
   50  C   2 YZ  -2.282847   0.734382  -2.686543   1.763714   4.419675
   51  C   3  S  -0.133278  -0.293412  -0.345227  -0.266797   0.567247
   52  C   3  S  -0.169814  -0.482096  -0.631544  -0.645143   0.976309
   53  C   3  S   6.689405   3.648709   9.250125  -2.071936 -17.684016
   54  C   3  S   1.821815   1.774628   1.121795  -1.398025   1.275227
   55  C   3  X   0.368754  -0.217362  -0.004397  -0.139586   0.067830
   56  C   3  Y  -0.064134  -0.066600  -0.071316  -0.016113  -0.564350
   57  C   3  Z  -0.113228  -0.572049   0.193416   0.148352   0.163821
   58  C   3  X  -0.527300   1.375225   3.185602  -4.779442  -7.814684
   59  C   3  Y  -3.170718   1.364493   0.349096  -0.755086  -5.091616
   60  C   3  Z  -1.921191   2.053575   5.303943   1.212951  -9.973421
   61  C   3  X   0.100350   0.856378   0.197520  -1.070330   0.041477
   62  C   3  Y  -0.116490   0.116996  -0.144281  -0.087723  -0.326639
   63  C   3  Z   0.234935   0.033774   0.567026   0.145764  -0.206419
   64  C   3 XX   0.502659   0.049505   0.348438   0.321811  -0.470722
   65  C   3 YY   0.018194   0.443728  -0.161811  -0.451399   0.718385
   66  C   3 ZZ  -0.520852  -0.493233  -0.186628   0.129588  -0.247663
   67  C   3 XY   0.307211  -0.040105  -0.310165   0.114258  -0.052012
   68  C   3 XZ   0.025188   0.036592   0.234659  -0.308288  -0.787614
   69  C   3 YZ  -0.136552  -0.121393   0.291201  -0.080664   0.529625
   70  C   3 XX   1.139278   0.486130   0.012683  -1.135936  -1.191145
   71  C   3 YY   0.089169  -0.302182  -0.661841  -0.088229   1.157266
   72  C   3 ZZ  -1.228447  -0.183947   0.649158   1.224165   0.033879
   73  C   3 XY  -0.027700   0.358090  -0.275703  -0.266818  -0.400202
   74  C   3 XZ  -1.810448   1.051142   1.327978  -0.571257  -2.674497
   75  C   3 YZ   0.138186   0.484981   0.294868  -0.243754  -1.294328
   76  H   4  S  -0.146463   0.241238   0.271020  -0.291735   0.100588
   77  H   4  S   2.325321   0.255428  -2.102638   1.437238   4.365723
   78  H   4  S  -0.261059  -0.240008   0.273191   0.173681   0.491368
   79  H   4  X  -0.430604   0.242897  -0.340257  -0.076426  -0.059875
   80  H   4  Y  -0.293365  -0.266714  -0.287446  -0.513330  -0.150820
   81  H   4  Z   0.399642  -0.163266  -0.478653   0.168049  -0.067819
   82  H   4  X   0.215931   0.236115  -0.826673   0.469087   0.664148
   83  H   4  Y  -0.405469  -0.137335   0.003729  -0.321362  -0.291216
   84  H   4  Z  -0.820996   0.054972   0.367572  -0.227343  -0.831543
   85  H   5  S   0.101116  -0.052417   0.390230   0.144960  -0.394474
   86  H   5  S   0.176974  -0.778805  -1.788094   0.839248   1.028671
   87  H   5  S  -0.100038  -0.405685   0.073635   0.381941  -0.058769
   88  H   5  X   0.219916   0.065491   0.298479   0.087862   0.362539
   89  H   5  Y  -0.134189   0.482574  -0.325863   0.573036  -0.111343
   90  H   5  Z  -0.031733  -0.041613  -0.528068  -0.222339   0.294311
   91  H   5  X   0.321123   0.006856   0.805841   0.022122  -0.020229
   92  H   5  Y  -0.042715   0.176619   0.218169   0.168601  -0.294249
   93  H   5  Z  -0.741078   0.343570  -0.106049   0.088858   0.364768
   94  H   6  S   0.292507   0.092364  -0.320882  -0.142389  -0.369935
   95  H   6  S   3.046398   1.146349   1.812327  -1.050318   3.478791
   96  H   6  S   0.288377  -0.009608  -0.339157  -0.181232   0.340390
   97  H   6  X  -0.021266  -0.447982   0.098895  -0.629874  -0.168880
   98  H   6  Y   0.397288  -0.153827  -0.020455  -0.037512  -0.407782
   99  H   6  Z   0.310833  -0.037417   0.635136   0.025616   0.278922
  100  H   6  X   0.132129  -0.193705   0.109725  -0.234631   0.029566
  101  H   6  Y   1.071386   0.331087   1.009108  -0.487900   0.815887
  102  H   6  Z  -0.571640   0.507451   0.428996   0.068202   0.108553
  103  H   7  S   0.074023  -0.168479  -0.095284   0.133812   0.117159
  104  H   7  S  -1.143604  -0.797210   2.992082  -1.036279   1.312934
  105  H   7  S   0.298102   0.421845  -0.466388  -0.176732   0.052240
  106  H   7  X   0.003276  -0.178224  -0.027750  -0.123464  -0.070567
  107  H   7  Y  -0.332353   0.298317   0.857763  -0.218125  -0.023124
  108  H   7  Z   0.256557  -0.417409  -0.161774   0.018427  -0.054179
  109  H   7  X   0.578887  -0.127524   0.010989   0.232065  -0.305135
  110  H   7  Y   0.200986  -0.031982  -0.717685   0.302951  -0.191773
  111  H   7  Z   0.904719  -0.233719   0.034878  -0.187687  -0.122000
  112  H   8  S  -0.577787  -0.077088  -0.236770  -0.566263   0.377078
  113  H   8  S  -4.771918  -1.349685  -0.286505  -3.725753  -0.667793
  114  H   8  S  -0.126925   0.669340  -0.180520  -1.112140  -0.035187
  115  H   8  X   0.539522   0.003358   0.052456   0.149651  -0.145965
  116  H   8  Y   0.487295   0.039044  -0.440118  -0.005661   0.379645
  117  H   8  Z   0.436067   0.371563   0.182736  -0.344789  -0.401939
  118  H   8  X  -0.963373  -0.396753  -0.591066  -1.217771   0.213950
  119  H   8  Y  -0.137759  -0.089694  -0.058896  -0.201126   0.620204
  120  H   8  Z   0.016648   0.385345  -0.147684  -0.334984  -0.209619
  121  H   9  S  -0.043776  -0.162714   0.422789   0.406678   0.362353
  122  H   9  S   1.531993  -0.102073   0.022804   0.894944  -1.344923
  123  H   9  S  -0.012574  -0.047171   0.333848   0.313884   0.007110
  124  H   9  X  -0.217163  -0.035533   0.164931   0.001934  -0.453403
  125  H   9  Y   0.076362  -0.057188  -0.182769  -0.148425  -0.249069
  126  H   9  Z  -0.167469  -0.661479   0.172883   0.556674   0.633837
  127  H   9  X  -0.497857  -0.099411  -0.130539   0.388585   0.313317
  128  H   9  Y  -0.501275   0.003425   0.303314   0.101388   0.271046
  129  H   9  Z   0.422304   0.102994  -0.381206   0.215682   0.384146
  130  H  10  S   0.200602  -0.559360  -0.118201   0.530857  -0.246868
  131  H  10  S  -6.825736   1.073434   2.524564   1.195031  -6.321349
  132  H  10  S  -0.241226  -0.536531   0.312274   0.477997  -0.578033
  133  H  10  X   0.366055   0.060276   0.008056  -0.428299   0.631433
  134  H  10  Y  -0.166461  -0.369710  -0.108682   0.404974  -0.493157
  135  H  10  Z   0.160237  -0.573107   0.141571   0.216329   0.109016
  136  H  10  X   0.293721  -0.066087  -0.232409   0.114173   0.767567
  137  H  10  Y  -2.031875   0.601219   0.774349   0.129746  -1.721655
  138  H  10  Z  -1.112532   0.343639   0.126317   0.071637  -0.834517
  139  F  11  S   0.036397  -0.139135   0.131596   0.051652  -0.007304
  140  F  11  S   0.093323  -0.309524   0.298327   0.103279  -0.012160
  141  F  11  S   0.027619   0.627672  -0.482590  -0.450560   0.040908
  142  F  11  S   0.215784  -1.628535   0.340612   0.481238   0.024637
  143  F  11  X   0.003951  -0.138700   0.033485   0.098864  -0.076977
  144  F  11  Y   0.022255  -0.005504   0.092122  -0.052574   0.060424
  145  F  11  Z   0.234072  -0.032706   0.029314  -0.031658  -0.031774
  146  F  11  X  -0.178717   0.379673  -0.162270  -0.115159   0.206108
  147  F  11  Y  -0.036380   0.023246  -0.265184   0.108465  -0.265184
  148  F  11  Z  -0.698815   0.154527  -0.116929   0.071094   0.159071
  149  F  11  X  -0.094738   0.380034   0.038877  -0.078806  -0.019982
  150  F  11  Y  -0.024648  -0.020929  -0.016328   0.073314  -0.063251
  151  F  11  Z   0.058698  -0.087559  -0.026037  -0.003089  -0.042370
  152  F  11 XX  -0.011146  -0.007300  -0.002362   0.010718  -0.010435
  153  F  11 YY   0.011423   0.004959  -0.002672  -0.006862  -0.000520
  154  F  11 ZZ  -0.000277   0.002341   0.005034  -0.003856   0.010954
  155  F  11 XY  -0.004871  -0.000284   0.009078  -0.003074  -0.007111
  156  F  11 XZ   0.006945  -0.003244  -0.000200   0.011576   0.002988
  157  F  11 YZ  -0.001181   0.003066  -0.009651   0.003059   0.007643
  158  F  11 XX   0.138170  -0.183411   0.165664   0.109125  -0.155655
  159  F  11 YY   0.109396   0.086289  -0.061645  -0.098223  -0.034355
  160  F  11 ZZ  -0.247566   0.097122  -0.104019  -0.010902   0.190009
  161  F  11 XY   0.023501   0.001681   0.092207  -0.111475   0.152053
  162  F  11 XZ   0.301469  -0.025693  -0.046215  -0.048762   0.004075
  163  F  11 YZ  -0.050655   0.042863  -0.089490   0.042989   0.014104

                    141        142        143        144        145
                    2.5619     2.6034     2.6347     2.6807     2.7294
                     A          A          A          A          A   
    1  C   1  S   0.182914  -0.350500  -0.996757  -0.106388   0.368772
    2  C   1  S   0.295410  -0.903527  -1.906116  -0.302139   0.605333
    3  C   1  S  -5.849024  -3.852323  13.905239  -3.701747  -8.433997
    4  C   1  S  -1.597021  -6.779885  -4.007322   1.283084  -0.487904
    5  C   1  X  -0.216241  -0.050673   0.368864  -0.455209   0.279765
    6  C   1  Y  -0.107334   0.400949   0.422836  -0.159084   0.272537
    7  C   1  Z   0.000838  -0.606050   0.123376  -0.180757   0.369622
    8  C   1  X  -2.477756  -0.278107   1.894059  -0.379526   1.194822
    9  C   1  Y  -1.681040   1.717702   7.965629  -2.729003  -1.870408
   10  C   1  Z   5.105872   0.031605 -12.281663   0.320848   8.485510
   11  C   1  X  -0.086451   0.039993   0.484020  -0.604901   0.281527
   12  C   1  Y  -0.613769  -0.575809   0.680237   0.231492  -0.221358
   13  C   1  Z   0.498231   1.051237   0.564620  -0.358049   0.689852
   14  C   1 XX  -0.027183  -0.273865   0.253105  -0.750867   0.517118
   15  C   1 YY   0.294312  -0.196987  -0.510323   0.543787  -0.927013
   16  C   1 ZZ  -0.267130   0.470851   0.257218   0.207080   0.409895
   17  C   1 XY  -0.276522   0.054398  -0.275310  -0.109869  -0.143652
   18  C   1 XZ  -0.219693  -0.159967   0.318759  -0.289650   0.413479
   19  C   1 YZ   0.095756  -0.685337  -0.510046   0.196385   0.462750
   20  C   1 XX   0.438267   0.388514  -1.863056  -0.358471   0.621616
   21  C   1 YY   0.998110   0.313309  -0.026643  -0.541248   0.825653
   22  C   1 ZZ  -1.436377  -0.701823   1.889699   0.899720  -1.447269
   23  C   1 XY  -0.861093   0.000917  -0.258510   0.313633   0.477774
   24  C   1 XZ   0.965686   0.034075  -0.136950   0.421164  -0.714585
   25  C   1 YZ   0.151848  -0.269836  -1.897588   1.221002   0.715952
   26  C   2  S   0.335835   0.037146  -0.301335  -0.708339  -0.182262
   27  C   2  S   0.663737  -0.004413  -0.537475  -1.216490  -0.403817
   28  C   2  S  -5.807857  -4.671846   6.013447  17.774455  -1.050471
   29  C   2  S  -0.384250   5.450569   2.464140  -5.961633  -0.966173
   30  C   2  X  -0.150510  -0.041185   0.062095  -0.156400  -0.075489
   31  C   2  Y   0.111141   0.018209   0.235492  -0.028223  -0.615449
   32  C   2  Z  -0.088785  -0.170586   0.064291  -0.345492  -0.159399
   33  C   2  X   7.552360   4.063509 -11.127537  -8.604651   2.856070
   34  C   2  Y  -0.776646   0.273635   6.250331  -4.857171  -5.013480
   35  C   2  Z   9.567116   3.612043 -23.056827  -6.184089  11.903304
   36  C   2  X   0.328705   0.155663  -0.241763   0.395986   0.489369
   37  C   2  Y   0.188106  -0.479705  -1.023557  -0.336650  -0.143092
   38  C   2  Z   1.113888   1.166353  -0.214189  -0.185957   0.654062
   39  C   2 XX  -0.272922   0.180088   0.060486  -0.087447   0.034048
   40  C   2 YY   0.272584  -0.084609   0.178390  -0.273619  -1.086258
   41  C   2 ZZ   0.000338  -0.095479  -0.238876   0.361067   1.052210
   42  C   2 XY   0.026473   0.123090  -0.108675  -0.062506  -0.422252
   43  C   2 XZ  -0.047261  -0.201445   0.356332   0.466660   0.171976
   44  C   2 YZ  -0.387964   0.304474   0.005377   0.224300  -0.391802
   45  C   2 XX  -1.226950  -1.008759   2.929628   1.173126  -0.932407
   46  C   2 YY   2.203374   2.157277  -3.519040  -3.033289   2.667753
   47  C   2 ZZ  -0.976424  -1.148518   0.589411   1.860163  -1.735346
   48  C   2 XY  -2.000536  -0.098517   0.485937   0.500411   0.874547
   49  C   2 XZ  -1.149301  -1.287083   4.250587   2.303087  -2.321356
   50  C   2 YZ  -3.033670  -0.172179   3.321320  -0.324165  -2.140347
   51  C   3  S  -0.553000  -0.386424   0.804388   0.786428  -0.258885
   52  C   3  S  -0.841864  -0.725691   1.460957   1.457211  -0.417878
   53  C   3  S  14.872288   6.698170 -19.244611 -12.039793   9.176468
   54  C   3  S   3.158771  -0.065832   1.350175   3.726115   1.227280
   55  C   3  X   0.252426   0.040751  -0.086938  -0.003213  -0.441339
   56  C   3  Y  -0.063012  -0.175901  -0.020899   0.266791  -0.119088
   57  C   3  Z  -0.148539   0.211786  -0.167894  -0.480470  -0.041539
   58  C   3  X   8.121816   3.820014 -11.974501  -8.539253   8.291841
   59  C   3  Y  -1.662367   1.116708  -5.940018  -1.621452   1.339935
   60  C   3  Z   5.590833   4.417767 -11.305621 -11.679644   2.740481
   61  C   3  X   0.949969   0.062580  -0.032276   0.470825   0.486165
   62  C   3  Y  -0.271199  -0.202158  -0.431722   0.712466   0.074727
   63  C   3  Z   0.578679   0.595365  -0.193335  -0.619176   0.476744
   64  C   3 XX  -0.162896   0.186160  -0.083384  -0.833107  -0.146927
   65  C   3 YY  -0.061758   0.012503   0.147268   0.247742  -0.007381
   66  C   3 ZZ   0.224654  -0.198663  -0.063884   0.585365   0.154308
   67  C   3 XY  -0.834375   0.362361  -0.749801   0.117281  -0.392766
   68  C   3 XZ  -0.591048  -0.111416   0.124621  -0.463656  -0.257828
   69  C   3 YZ   0.321017   0.322464  -0.020228  -0.893481  -0.054727
   70  C   3 XX   1.074476   0.233447  -0.896226  -0.621416   1.297430
   71  C   3 YY  -1.467957  -0.598781   1.368231   1.441323  -0.366293
   72  C   3 ZZ   0.393481   0.365334  -0.472005  -0.819907  -0.931137
   73  C   3 XY  -0.190915   0.632896  -1.952099  -0.522549   0.670459
   74  C   3 XZ   1.060544   0.403836  -2.242312  -2.929300   1.437174
   75  C   3 YZ   0.660199   0.442468  -1.327964  -0.591049   0.886645
   76  H   4  S  -0.361971   0.656291   0.117303   0.250802  -0.041280
   77  H   4  S  -1.418357   0.847490   5.941301   1.262497  -3.255332
   78  H   4  S  -0.165290  -0.001264   0.102204  -0.243181  -0.084734
   79  H   4  X  -0.034211   0.598633   0.296436  -0.097083  -0.210596
   80  H   4  Y  -0.135847  -0.129172  -0.347166  -0.134769   0.029948
   81  H   4  Z   0.210070  -0.558952   0.030340  -0.184958  -0.224457
   82  H   4  X  -0.002720   0.039101   0.803824   0.150388  -0.878622
   83  H   4  Y  -0.161553  -0.256838  -0.791347   0.298996   0.356570
   84  H   4  Z   0.665726   0.495528  -1.087527  -0.538546   0.458739
   85  H   5  S   0.533738   0.770185  -0.441077   1.136620  -0.706939
   86  H   5  S  -0.499571   1.872108   0.756757  -0.132303  -1.056319
   87  H   5  S  -0.049428   0.010818  -0.464007   0.419490  -0.580105
   88  H   5  X  -0.264300  -0.824950   0.158855  -0.610551   0.542413
   89  H   5  Y   0.172209  -0.072706   0.063615  -0.019104   0.004210
   90  H   5  Z  -0.175202  -0.433084   0.251389  -0.697177  -0.024674
   91  H   5  X   0.270059  -0.314384   0.232259   0.580138   0.026637
   92  H   5  Y   0.473126  -0.141706  -0.559157  -0.121373  -0.066081
   93  H   5  Z  -0.059579   0.119444   0.464484  -0.223991   0.010331
   94  H   6  S  -0.082297   1.060208   0.713569  -0.674426   0.886506
   95  H   6  S  -0.997845   1.742177   4.295625   0.400614   0.086212
   96  H   6  S  -0.369488   0.094642   1.008063   0.145291  -0.059283
   97  H   6  X  -0.146543   0.213120  -0.041258  -0.106143   0.117918
   98  H   6  Y   0.047352   0.940440   0.779253  -0.162258   0.589384
   99  H   6  Z  -0.292987   0.058968   0.259256   0.219857   0.336835
  100  H   6  X  -0.053950   0.023988  -0.035311   0.356403  -0.190332
  101  H   6  Y  -0.102204  -0.072114   0.683585   0.344061   0.260893
  102  H   6  Z  -0.524384   0.055277   0.427007   0.318256  -0.869214
  103  H   7  S  -0.233584  -0.023405  -0.211717   0.199058   1.100914
  104  H   7  S  -1.323504  -3.682984   0.434975   7.712463  -0.216826
  105  H   7  S  -0.102683  -0.194702   0.463913   0.624600   0.082906
  106  H   7  X   0.003157  -0.182615   0.286070   0.108106  -0.159270
  107  H   7  Y   0.099920  -0.184533   0.255659   0.105715  -1.023579
  108  H   7  Z   0.307642  -0.213978   0.551105  -0.061484  -0.476146
  109  H   7  X   0.386811   0.215296  -0.044449  -0.329171  -0.278509
  110  H   7  Y  -0.049644   0.661844   0.341267  -1.502662  -0.072792
  111  H   7  Z   0.512603   0.364841  -0.103304   0.095312   0.237692
  112  H   8  S  -0.321126  -0.337450   0.413926   0.445866  -0.332378
  113  H   8  S   2.385554   1.299424  -5.698040  -2.871410   5.947926
  114  H   8  S   0.346797  -0.145965  -0.096310   0.441214   0.413667
  115  H   8  X  -0.131333  -0.027512   0.121266  -0.038608  -0.527652
  116  H   8  Y  -0.455942   0.229943  -0.338049   0.203851  -0.195590
  117  H   8  Z  -0.500908  -0.207320   0.464356  -0.158896  -0.092477
  118  H   8  X   0.698317   0.270553  -1.118289  -0.156586   1.967936
  119  H   8  Y   0.245819   0.022974  -0.202689  -0.154464   0.235311
  120  H   8  Z  -0.242105  -0.481831   0.676119   0.460365   0.312923
  121  H   9  S  -0.155402   0.307041   0.341316  -1.324731  -0.333672
  122  H   9  S   1.608896   2.098769  -3.146613  -5.393930   1.943852
  123  H   9  S   0.233663   0.710695   0.093571  -1.087591   0.128465
  124  H   9  X  -0.270651  -0.343278   0.553835   0.032890  -0.023624
  125  H   9  Y   0.583875  -0.270520   0.182642   0.620724   0.174198
  126  H   9  Z  -0.132594   0.252253   0.158119  -0.666187  -0.111413
  127  H   9  X  -0.400002  -0.197225   0.456742  -0.050554  -0.105446
  128  H   9  Y   0.017358  -0.310057   0.631778   0.515945  -0.461411
  129  H   9  Z   0.372210   0.362226  -0.300530  -0.846122   0.163073
  130  H  10  S  -1.330281   0.098070  -0.420690   0.665086  -0.469219
  131  H  10  S  -3.517483  -1.211472  -3.194141  -2.548124  -3.316798
  132  H  10  S  -0.221099  -0.012025  -0.844391  -0.099033   0.111473
  133  H  10  X   0.290357   0.052553   0.080883   0.153372   0.143692
  134  H  10  Y  -1.013005  -0.053433  -0.223402   0.168920  -0.303119
  135  H  10  Z   0.046948  -0.019186  -0.094903   0.358474  -0.075794
  136  H  10  X  -0.221434  -0.257053   0.671021   0.720663   0.125568
  137  H  10  Y  -0.886386  -0.584919  -0.155112  -0.748633  -1.073332
  138  H  10  Z  -0.538372  -0.567054   0.113920   0.480944  -0.917692
  139  F  11  S   0.132941   0.082267   0.009316  -0.056060  -0.227910
  140  F  11  S   0.298535   0.183810   0.016076  -0.127174  -0.496050
  141  F  11  S  -0.483719  -0.287296  -0.084018   0.223355   0.974802
  142  F  11  S   0.310885  -0.051809  -0.057370   0.864847   0.237999
  143  F  11  X   0.012307  -0.030572  -0.016399   0.043326   0.067495
  144  F  11  Y   0.024009  -0.007712   0.054967   0.029540  -0.053381
  145  F  11  Z   0.086888   0.057765  -0.088140  -0.053855   0.004217
  146  F  11  X  -0.104878   0.057640   0.180667  -0.096667  -0.364709
  147  F  11  Y  -0.003630   0.050578  -0.247563  -0.151825   0.224288
  148  F  11  Z  -0.371876  -0.216055   0.370620   0.144899  -0.045613
  149  F  11  X  -0.129000  -0.031736  -0.047900  -0.136566  -0.087568
  150  F  11  Y  -0.121920  -0.113790  -0.028072   0.133064   0.019010
  151  F  11  Z   0.017277  -0.007827   0.165353   0.255296  -0.026439
  152  F  11 XX  -0.006304  -0.006051   0.006346   0.005007  -0.012879
  153  F  11 YY   0.006947   0.003390  -0.010042  -0.012571   0.009738
  154  F  11 ZZ  -0.000643   0.002662   0.003695   0.007564   0.003141
  155  F  11 XY   0.018635   0.002020   0.002958  -0.008815  -0.005931
  156  F  11 XZ  -0.003667  -0.001175   0.005199   0.001744  -0.006075
  157  F  11 YZ  -0.003645   0.004688  -0.002034   0.000878   0.008374
  158  F  11 XX   0.081496  -0.013194  -0.115553  -0.006590   0.007952
  159  F  11 YY   0.061315   0.041476  -0.077111  -0.039699   0.054343
  160  F  11 ZZ  -0.142811  -0.028282   0.192664   0.046288  -0.062295
  161  F  11 XY   0.018148   0.000277   0.136703   0.084207  -0.087869
  162  F  11 XZ  -0.000552   0.097183  -0.106472   0.034510   0.027613
  163  F  11 YZ   0.008584   0.023580  -0.028198  -0.027082   0.053252

                    146        147        148        149        150
                    2.7669     2.8142     2.9087     3.0933     3.4181
                     A          A          A          A          A   
    1  C   1  S  -0.318468   0.772422  -0.486220   0.549259   0.110877
    2  C   1  S  -0.480466   1.386915  -0.792319   0.978488   0.178004
    3  C   1  S  11.767683 -11.093538  10.394701  -5.055966  -5.222731
    4  C   1  S   0.218993   1.641813   0.499376   2.251133   0.259377
    5  C   1  X  -0.862888   0.091924   0.496209   0.229307  -0.101007
    6  C   1  Y   0.536692   0.531250   0.312661  -0.195296  -0.051060
    7  C   1  Z   0.231256   0.374971  -0.042220  -0.135527   0.034212
    8  C   1  X  -2.123693   0.266412  -0.713615  -0.667705   0.545637
    9  C   1  Y   6.330311  -5.924581   5.369560  -5.073734  -1.901683
   10  C   1  Z  -7.346072  11.339220  -8.763292   6.243547   2.461739
   11  C   1  X  -0.849024  -0.234185   0.454358  -0.102606  -0.087124
   12  C   1  Y   0.885495   0.388051   0.302771  -0.022063  -0.124071
   13  C   1  Z  -0.195953   0.667462  -0.761410  -0.091369   0.008529
   14  C   1 XX   0.040047   0.833860   0.249042   0.047187  -0.069465
   15  C   1 YY  -0.629774  -0.867294  -0.575136   0.251641   0.278518
   16  C   1 ZZ   0.589727   0.033434   0.326094  -0.298828  -0.209054
   17  C   1 XY  -0.580398  -0.371544   0.036531   0.093772   0.024182
   18  C   1 XZ  -1.279552  -0.072889   0.701831   0.514967  -0.225693
   19  C   1 YZ   0.102691   0.079128  -0.403353   0.102506  -0.026530
   20  C   1 XX  -0.601786   1.006493  -1.357958   1.202586   0.057149
   21  C   1 YY  -0.066646   0.089798   0.255389   0.187557  -0.067843
   22  C   1 ZZ   0.668432  -1.096291   1.102570  -1.390143   0.010694
   23  C   1 XY   0.044376   0.189888  -0.371138  -0.295837   0.291172
   24  C   1 XZ   0.544073  -0.182976   0.674048   0.333047  -0.290878
   25  C   1 YZ  -1.840938   2.714167  -1.680027   1.251997   0.640222
   26  C   2  S   0.398811  -0.904900   1.318981  -1.179056   0.072869
   27  C   2  S   0.673895  -1.461571   2.373198  -2.131042   0.190768
   28  C   2  S  -9.821822  22.853703 -21.836304  17.349319   4.143438
   29  C   2  S   2.748877  -0.804427   0.161276  -4.781355  -1.124882
   30  C   2  X  -0.009183  -0.002474  -0.093196  -0.277209   0.023485
   31  C   2  Y  -0.073057   0.531029   0.088183   0.031276   0.130030
   32  C   2  Z   0.191969   0.075421  -0.056529   0.285775  -0.209901
   33  C   2  X   0.153315  -2.691534   8.581200  -1.577243  -0.878221
   34  C   2  Y   5.327876  -7.346907  10.066583  -8.470641  -0.459033
   35  C   2  Z  -9.289684   5.754899  -1.715731  -2.654238   3.520133
   36  C   2  X  -0.576474   0.160503   0.212641   0.231986   0.244572
   37  C   2  Y  -0.331215  -0.218307   1.297803  -0.776364   0.294022
   38  C   2  Z  -0.902752  -0.071563  -0.212430   0.214020  -0.049285
   39  C   2 XX   0.348819  -0.828811  -0.053176   0.077633  -0.175577
   40  C   2 YY  -0.297875   0.715720   0.374728  -0.340839   0.536226
   41  C   2 ZZ  -0.050943   0.113091  -0.321552   0.263206  -0.360649
   42  C   2 XY   0.176116   0.427682  -0.187087  -0.165067   0.248267
   43  C   2 XZ   0.116322   0.310894  -0.214504   0.020413   0.056224
   44  C   2 YZ   0.254139   0.322836   0.520792  -0.216843   0.051324
   45  C   2 XX   0.988481  -0.924087   0.093948  -0.925670  -0.441588
   46  C   2 YY  -0.549757  -1.237616   0.895225  -1.550381   0.180403
   47  C   2 ZZ  -0.438724   2.161703  -0.989174   2.476051   0.261185
   48  C   2 XY   0.016672   0.083872  -1.844497  -1.300603   0.389133
   49  C   2 XZ   0.314063   0.756493  -1.701406   1.130099  -0.113365
   50  C   2 YZ   3.650107  -1.727008   1.555477   0.678119  -2.408703
   51  C   3  S   0.196984   0.155178  -0.161610   0.691445   1.015032
   52  C   3  S   0.329702   0.219794  -0.160974   1.238838   1.957259
   53  C   3  S  -4.077067  -6.453516  11.878618  -9.607730   1.671539
   54  C   3  S  -3.522374   0.382573  -0.306981   1.822602   1.351626
   55  C   3  X  -0.465855   0.233251  -0.177415  -0.589406  -1.402758
   56  C   3  Y  -0.050014  -0.054288   0.412882  -0.190814  -0.213087
   57  C   3  Z  -0.053987  -0.082894  -0.058029   0.139325   0.662783
   58  C   3  X  -1.642394  -3.985465   3.994353  -6.724060  -1.700072
   59  C   3  Y   0.650181   0.464851   2.188366  -0.451129  -0.335708
   60  C   3  Z   0.842967  -3.751454   7.979651  -3.206052  -0.044046
   61  C   3  X  -0.737511  -0.038711  -0.355833   0.118662  -0.528772
   62  C   3  Y  -0.048008   0.485394  -0.005587   0.510027  -0.064465
   63  C   3  Z  -0.417528  -0.306415   0.240752   0.125123   0.520127
   64  C   3 XX  -0.062114  -0.359334  -0.336606   0.150943   1.412115
   65  C   3 YY   0.150906   0.147445  -0.458599  -0.030658  -0.700336
   66  C   3 ZZ  -0.088792   0.211888   0.795205  -0.120285  -0.711779
   67  C   3 XY   0.076645   0.234650   0.668100  -0.027109   0.333262
   68  C   3 XZ  -0.042834  -0.385886  -0.205615  -0.262938  -0.806818
   69  C   3 YZ  -0.001217   0.083094  -0.833535   0.017773   0.102448
   70  C   3 XX  -0.412664  -1.047713   0.027892  -2.347598  -0.473488
   71  C   3 YY   0.283807   0.384435  -1.111849   0.832686   0.173806
   72  C   3 ZZ   0.128858   0.663277   1.083956   1.514912   0.299683
   73  C   3 XY   0.076009   0.211007   0.190168  -0.025318  -0.319582
   74  C   3 XZ   0.967844  -1.548712   1.925542  -1.325737  -0.000683
   75  C   3 YZ  -0.052233  -0.836651   0.518258  -1.107623  -0.195542
   76  H   4  S  -1.826894  -0.489267   0.257568   0.448117   0.047358
   77  H   4  S  -0.077682  -3.815650   1.886929  -0.916643   0.198470
   78  H   4  S  -0.807695  -0.671477   0.649950  -0.111749   0.101411
   79  H   4  X  -0.939436  -0.295892   0.168709   0.246908   0.008331
   80  H   4  Y   0.382137   0.315530  -0.159036  -0.057730   0.008482
   81  H   4  Z   0.901061   0.112131   0.040754  -0.217284   0.003229
   82  H   4  X   0.441071  -0.895746   0.064352   0.025743  -0.008091
   83  H   4  Y  -0.406874   0.178585  -0.727793   0.145970   0.168869
   84  H   4  Z   0.538857  -0.076678   0.201982  -0.097605  -0.400251
   85  H   5  S   0.622723  -0.419994  -0.851918  -0.234716   0.283723
   86  H   5  S   2.114533  -3.414537   2.115897  -1.764172  -0.330344
   87  H   5  S   0.832468  -0.228354  -0.186889  -0.083096   0.055193
   88  H   5  X  -0.462967   0.370578   0.611400   0.217948  -0.188018
   89  H   5  Y  -0.057036   0.252972   0.001210   0.150565  -0.043669
   90  H   5  Z  -0.202432   0.071186   0.345566  -0.064559   0.004452
   91  H   5  X  -0.229010   0.809625  -0.558535   0.172312   0.181655
   92  H   5  Y  -0.349360  -0.304030  -0.066572   0.245883  -0.033967
   93  H   5  Z  -0.290270  -0.010222  -0.112896   0.049478  -0.063422
   94  H   6  S   0.633920   0.977260   0.317332  -0.096777  -0.136525
   95  H   6  S   2.090278  -1.390108   1.253893  -3.778428  -0.573868
   96  H   6  S   0.583865   0.341950   0.425903  -0.373443  -0.149581
   97  H   6  X   0.061667   0.027307   0.120960  -0.045225  -0.039139
   98  H   6  Y   0.305504   0.751100   0.296910  -0.169132  -0.065018
   99  H   6  Z   0.158730  -0.091969   0.113349  -0.264150  -0.044251
  100  H   6  X   0.605221   0.053084  -0.235374  -0.136940   0.150868
  101  H   6  Y   0.193930  -0.106770   0.069866  -0.937961  -0.080387
  102  H   6  Z   0.017160  -0.210265   0.219181  -0.263345   0.099606
  103  H   7  S   0.360990  -1.317353  -0.194612   0.478652  -0.689431
  104  H   7  S  -3.601556   3.656435  -8.222786   7.319493   0.291425
  105  H   7  S   0.081774   0.058995  -1.114387   0.742701  -0.099212
  106  H   7  X  -0.184952   0.105409   0.144161  -0.030321   0.043420
  107  H   7  Y  -0.099085   1.099200   0.231853  -0.122576   0.342657
  108  H   7  Z  -0.132972  -0.163363  -0.075810  -0.020750   0.149238
  109  H   7  X   0.295527  -0.228264   0.817047   0.093784  -0.037024
  110  H   7  Y   1.171942  -0.735417   2.099020  -1.310091  -0.211994
  111  H   7  Z  -0.489411  -0.371771   0.302759  -0.874116   0.718327
  112  H   8  S  -0.055888   0.251983  -0.734659  -0.702718  -2.905790
  113  H   8  S  -0.883430   0.543140  -0.649940   0.282490  -1.429038
  114  H   8  S  -0.462867   0.183793  -0.398390  -0.062754  -0.899331
  115  H   8  X  -0.375106   0.163316  -0.454613  -0.655553  -1.653645
  116  H   8  Y  -0.022594   0.190981   0.249886  -0.042199  -0.205178
  117  H   8  Z   0.178972  -0.496840  -0.216725   0.061703   0.642307
  118  H   8  X  -0.475094   0.339478  -0.486530   0.152431  -0.138232
  119  H   8  Y   0.003462   0.239189  -0.665619   0.514172   0.025020
  120  H   8  Z   0.222906  -0.421249   0.076638  -0.795437  -0.228509
  121  H   9  S   0.139375  -0.212663  -1.146717   0.108246   0.296499
  122  H   9  S   0.950904  -3.236204   2.198006  -3.382208  -1.066668
  123  H   9  S   0.074772  -0.481895   0.234358  -0.133500   0.372533
  124  H   9  X   0.038317  -0.139758  -0.173759   0.135659  -0.133822
  125  H   9  Y  -0.157925  -0.014252   0.545987  -0.122455  -0.070940
  126  H   9  Z  -0.114262   0.185506  -0.785456   0.220970   0.131636
  127  H   9  X   0.427521  -0.023449   0.174976   0.470887   0.485326
  128  H   9  Y  -0.073297   0.372375  -0.277081   0.535271   0.146253
  129  H   9  Z   0.224446  -0.433654   0.561624  -0.387266  -0.231775
  130  H  10  S  -0.159320   0.561856   0.507819   0.178890   0.306989
  131  H  10  S   1.779338   1.465250   2.660182   0.865986   1.181452
  132  H  10  S   0.016421   0.350267   0.148888   0.322661   0.352073
  133  H  10  X  -0.112799   0.053546  -0.192783  -0.119104   0.022869
  134  H  10  Y   0.056634   0.020496   0.342753  -0.030000  -0.035727
  135  H  10  Z  -0.194014   0.078356   0.306488  -0.346073   0.166915
  136  H  10  X  -0.307061   0.166725  -0.479088   0.308315   0.419347
  137  H  10  Y   0.753400   0.290163   0.463769   0.466449   0.557870
  138  H  10  Z  -0.079049   0.448690   0.060116   0.164571   0.293199
  139  F  11  S   0.284236  -0.051214   0.258594   0.680034  -0.311182
  140  F  11  S   0.610156  -0.120359   0.559467   1.443359  -0.651564
  141  F  11  S  -1.362079   0.133389  -1.187865  -2.903716   1.357989
  142  F  11  S  -0.012082   0.631095  -0.971225   0.551393   0.585713
  143  F  11  X  -0.087830   0.076460  -0.085463  -0.217834   0.159879
  144  F  11  Y   0.055248  -0.022138   0.033057   0.029778  -0.039977
  145  F  11  Z  -0.096691  -0.015846   0.057547   0.188818  -0.036277
  146  F  11  X   0.487816  -0.147814   0.335530   1.173429  -0.787150
  147  F  11  Y  -0.199728   0.042759  -0.168312  -0.180004   0.182340
  148  F  11  Z   0.248348  -0.055976  -0.228490  -0.840856   0.226251
  149  F  11  X  -0.036575  -0.111300   0.196553  -0.176822  -0.080291
  150  F  11  Y  -0.098785   0.130795  -0.204254   0.315418   0.068121
  151  F  11  Z   0.062699   0.230737  -0.263588   0.162005   0.107413
  152  F  11 XX  -0.006215  -0.003137   0.013960   0.001305   0.025554
  153  F  11 YY  -0.015045  -0.006113   0.005889  -0.005029  -0.010826
  154  F  11 ZZ   0.021260   0.009250  -0.019849   0.003724  -0.014728
  155  F  11 XY   0.010364  -0.009804   0.006309  -0.009301  -0.015482
  156  F  11 XZ  -0.015829   0.007380  -0.009956   0.056099   0.001905
  157  F  11 YZ  -0.013714  -0.009842   0.007145  -0.002448  -0.016967
  158  F  11 XX  -0.184337   0.023578   0.048862  -0.212233   0.237721
  159  F  11 YY  -0.067531  -0.006893  -0.003874   0.186823  -0.124130
  160  F  11 ZZ   0.251869  -0.016685  -0.044989   0.025409  -0.113591
  161  F  11 XY   0.071583  -0.026586   0.016399   0.090781  -0.096304
  162  F  11 XZ  -0.150510   0.071052  -0.057026   0.448475  -0.075381
  163  F  11 YZ  -0.055667  -0.019763   0.002223  -0.066038   0.005850

                    151        152        153        154        155
                    4.6099     4.6290     4.7162     4.7556     4.7712
                     A          A          A          A          A   
    1  C   1  S  -0.011423  -0.048330   0.062961  -0.076027   0.117254
    2  C   1  S  -0.018985  -0.085371   0.104579  -0.121771   0.193645
    3  C   1  S   1.196304   0.295462  -1.526739   3.100101  -2.588889
    4  C   1  S  -0.063474  -1.301518   0.136112  -0.576687   0.103679
    5  C   1  X  -0.020650   0.016030   0.018991  -0.026082   0.030318
    6  C   1  Y  -0.017615  -0.013383  -0.034719   0.038263  -0.042708
    7  C   1  Z  -0.019228   0.005410   0.005166  -0.038594   0.005255
    8  C   1  X   0.663626  -0.307236  -0.350861   0.631473  -0.328581
    9  C   1  Y   1.075378   0.710937  -0.530118   1.155899  -0.699859
   10  C   1  Z  -0.481536  -1.229909   1.364884  -2.128264   2.072803
   11  C   1  X  -0.025626  -0.058250   0.068921   0.115316   0.082561
   12  C   1  Y   0.071161  -0.051608  -0.039957   0.091361  -0.223688
   13  C   1  Z  -0.014993   0.223992   0.023030   0.202497  -0.057168
   14  C   1 XX   0.001901  -0.017947   0.033509  -0.002691   0.020497
   15  C   1 YY   0.009064   0.007225   0.008720  -0.053226   0.074686
   16  C   1 ZZ  -0.010964   0.010722  -0.042229   0.055918  -0.095183
   17  C   1 XY  -0.001465   0.017984   0.011066  -0.005650   0.020854
   18  C   1 XZ  -0.012771   0.046953   0.075633  -0.065138   0.134603
   19  C   1 YZ  -0.018141  -0.039861   0.004385  -0.023226   0.014965
   20  C   1 XX   0.157927  -0.136905   0.433368  -0.082356   0.235531
   21  C   1 YY  -0.227658  -0.287618  -0.078116  -0.340173   0.219144
   22  C   1 ZZ   0.069731   0.424523  -0.355253   0.422529  -0.454675
   23  C   1 XY   0.078268   0.058781  -0.162970   0.027818  -0.210710
   24  C   1 XZ  -0.169862  -0.094209  -0.001620   0.060322   0.096977
   25  C   1 YZ  -0.268724  -0.224907   0.042499  -0.372495   0.100839
   26  C   2  S  -0.081686   0.058048  -0.038194  -0.140284  -0.222722
   27  C   2  S  -0.146789   0.089823  -0.080576  -0.232682  -0.369462
   28  C   2  S   1.789318  -1.680866   0.225134   1.519392   2.851648
   29  C   2  S  -0.044717   1.361536   0.253244  -0.733937   0.472910
   30  C   2  X  -0.032045   0.005786  -0.013061   0.078069  -0.021656
   31  C   2  Y   0.007602  -0.006224   0.013428  -0.032416   0.008458
   32  C   2  Z   0.029920   0.003946  -0.001906   0.079128  -0.044884
   33  C   2  X  -1.438824   0.087695   0.066898  -2.187685   1.264569
   34  C   2  Y  -0.587365   1.250022  -1.383968   0.293615  -2.097354
   35  C   2  Z  -2.875706  -0.636783   1.609390  -4.971545   0.993925
   36  C   2  X  -0.021297  -0.032294  -0.415112   0.037634   0.008483
   37  C   2  Y  -0.047829  -0.309319  -0.420983  -0.017382   0.031215
   38  C   2  Z  -0.056959   0.164161   0.042657   0.230793   0.140829
   39  C   2 XX   0.014059   0.038715  -0.017708   0.093770   0.062992
   40  C   2 YY  -0.045346  -0.018456  -0.035610  -0.105875  -0.090826
   41  C   2 ZZ   0.031287  -0.020259   0.053318   0.012105   0.027834
   42  C   2 XY   0.003834   0.004137  -0.029663  -0.053908  -0.089947
   43  C   2 XZ   0.091371   0.000266   0.023541  -0.051407  -0.108665
   44  C   2 YZ   0.003781   0.012192  -0.016986   0.069953  -0.015998
   45  C   2 XX  -0.134704  -0.314772  -0.602161   0.349498  -0.489722
   46  C   2 YY   0.033824   0.091630   0.545750  -0.877354   0.689991
   47  C   2 ZZ   0.100880   0.223142   0.056411   0.527856  -0.200269
   48  C   2 XY   0.540984  -0.220897  -0.462068   0.406815  -0.613303
   49  C   2 XZ   0.050442  -0.019690   0.160865   0.797501  -0.091276
   50  C   2 YZ   0.946877   0.240427  -0.143890   1.587157  -0.451748
   51  C   3  S   0.112857  -0.053568  -0.056464  -0.032807   0.012259
   52  C   3  S   0.190234  -0.091636  -0.105828  -0.082475   0.029581
   53  C   3  S  -1.981091   0.281032   0.152773  -4.030182   1.286126
   54  C   3  S   0.036083  -0.189063  -0.730842   1.215590  -0.094538
   55  C   3  X  -0.010874   0.037949  -0.009266  -0.024389   0.016721
   56  C   3  Y  -0.031879   0.007120  -0.002356   0.013929  -0.016597
   57  C   3  Z  -0.003157  -0.036969  -0.016905  -0.065237   0.037624
   58  C   3  X  -2.006080   0.424025   0.512927  -2.003950   0.363322
   59  C   3  Y   0.040813  -0.442111   0.275920  -1.178709  -0.301827
   60  C   3  Z  -1.552224   0.806982   0.331765  -2.217166   0.206198
   61  C   3  X  -0.061284   0.079233   0.027011   0.443648  -0.059595
   62  C   3  Y   0.038384   0.023318   0.137225  -0.135448  -0.014923
   63  C   3  Z  -0.086535   0.037908  -0.198146   0.028148  -0.084224
   64  C   3 XX   0.003849  -0.048276  -0.028918  -0.136807   0.051988
   65  C   3 YY   0.026852   0.014018   0.019784   0.105711  -0.024305
   66  C   3 ZZ  -0.030701   0.034258   0.009134   0.031096  -0.027683
   67  C   3 XY   0.001250  -0.033010   0.036862  -0.047371   0.001351
   68  C   3 XZ  -0.066518   0.028022   0.003394   0.015956  -0.027639
   69  C   3 YZ   0.002150  -0.014377   0.014101   0.035439   0.018206
   70  C   3 XX  -0.673215   0.201448   0.197902  -0.090529  -0.286893
   71  C   3 YY   0.414785  -0.307335  -0.233995   0.321752  -0.080887
   72  C   3 ZZ   0.258430   0.105887   0.036092  -0.231223   0.367780
   73  C   3 XY   0.094992  -0.245566   0.198024  -0.357230   0.013570
   74  C   3 XZ  -0.578449  -0.193520   0.023217  -0.630150  -0.342341
   75  C   3 YZ   0.023333   0.137826   0.037012   0.001205  -0.094902
   76  H   4  S   0.002053   0.059259   0.022298  -0.053443   0.085712
   77  H   4  S  -0.125200  -0.183360  -0.720835   1.171448  -0.156853
   78  H   4  S  -0.003608  -0.091614  -0.053087  -0.091073   0.178731
   79  H   4  X   0.002820   0.029299   0.053261  -0.028655   0.065879
   80  H   4  Y   0.007224  -0.004856   0.000882   0.033119  -0.037014
   81  H   4  Z  -0.002036  -0.017195  -0.013750   0.018944  -0.052144
   82  H   4  X  -0.024640  -0.115734  -0.005116   0.238113   0.046318
   83  H   4  Y   0.107832   0.119914   0.096216  -0.036930  -0.006895
   84  H   4  Z   0.034678   0.023114   0.163976  -0.212926  -0.041591
   85  H   5  S  -0.051952  -0.013541  -0.052490  -0.049155  -0.022973
   86  H   5  S  -0.483805   1.042613  -0.236504  -0.622078  -0.248688
   87  H   5  S   0.057739   0.068808  -0.009575  -0.170146  -0.050209
   88  H   5  X  -0.010332   0.000294   0.004739  -0.008587   0.021460
   89  H   5  Y   0.004376  -0.015499   0.021582   0.003690   0.018727
   90  H   5  Z  -0.032964   0.027377   0.019979  -0.020433   0.013918
   91  H   5  X   0.084497  -0.280795  -0.067264   0.242303   0.065613
   92  H   5  Y   0.059716  -0.005105   0.154594  -0.007378   0.139086
   93  H   5  Z   0.180203  -0.154222   0.043433   0.141053  -0.092403
   94  H   6  S   0.060965   0.005533   0.073563   0.020670   0.020592
   95  H   6  S   1.405367   0.941658  -0.155069   1.293465  -0.338009
   96  H   6  S   0.030577  -0.000285  -0.130632   0.189041  -0.186260
   97  H   6  X  -0.017123   0.010173  -0.010098  -0.000413  -0.021866
   98  H   6  Y  -0.030176  -0.020182  -0.026702   0.007274  -0.026063
   99  H   6  Z   0.008217   0.034889  -0.010632   0.010704  -0.009990
  100  H   6  X   0.097454   0.028656  -0.016273   0.130696  -0.064721
  101  H   6  Y   0.409558   0.211824  -0.026619   0.247800  -0.018106
  102  H   6  Z   0.050308   0.095221  -0.048158   0.007219  -0.274022
  103  H   7  S  -0.033248   0.018544   0.089124   0.066612   0.020656
  104  H   7  S   0.459189  -0.938608   0.799595   1.127682   0.650798
  105  H   7  S   0.040450   0.071395   0.353638   0.014908  -0.050670
  106  H   7  X  -0.022736   0.038528   0.085140  -0.008420  -0.009182
  107  H   7  Y  -0.027333  -0.036555  -0.081226  -0.019602  -0.037708
  108  H   7  Z  -0.000634  -0.010895  -0.083984  -0.010815   0.013100
  109  H   7  X  -0.081694   0.193527   0.271807  -0.106151   0.180936
  110  H   7  Y  -0.223328   0.215948  -0.279836  -0.212540  -0.313601
  111  H   7  Z  -0.124053   0.053841  -0.165506  -0.429861   0.015330
  112  H   8  S  -0.016968   0.044093  -0.001485   0.201820  -0.114202
  113  H   8  S  -0.538122  -0.252799   0.747217  -0.549566   0.772999
  114  H   8  S  -0.057648   0.106821   0.082517   0.396486  -0.012882
  115  H   8  X  -0.021025   0.058125   0.039709   0.103914  -0.029159
  116  H   8  Y   0.001796  -0.017925   0.034796   0.001312   0.006070
  117  H   8  Z  -0.017673  -0.046730  -0.007588  -0.024742  -0.018641
  118  H   8  X  -0.237202  -0.011554   0.315436   0.005632   0.198515
  119  H   8  Y   0.031520  -0.208923   0.088001  -0.105109   0.077340
  120  H   8  Z  -0.141017  -0.129931  -0.035038   0.066631  -0.358421
  121  H   9  S  -0.008449  -0.003470   0.003742   0.045759  -0.031436
  122  H   9  S  -0.667954   1.166523  -0.056427   0.163605  -0.000251
  123  H   9  S  -0.057668   0.028270  -0.192114  -0.009469   0.014037
  124  H   9  X   0.040432  -0.047382  -0.029718  -0.030886   0.011383
  125  H   9  Y  -0.028764   0.044215   0.003306   0.022791  -0.009021
  126  H   9  Z   0.047910  -0.021073   0.006130   0.018370   0.051483
  127  H   9  X   0.044322  -0.111664  -0.076971   0.103432   0.013733
  128  H   9  Y   0.053763  -0.200417   0.093610  -0.076301  -0.024308
  129  H   9  Z  -0.079378   0.366644  -0.018514   0.110845   0.058498
  130  H  10  S   0.120873  -0.012820  -0.033497  -0.139637   0.106676
  131  H  10  S  -1.139820  -1.288558   0.537244  -2.142074  -1.695171
  132  H  10  S   0.032738  -0.044677   0.150909  -0.340217  -0.103545
  133  H  10  X  -0.003398  -0.034268   0.040876   0.046783  -0.004812
  134  H  10  Y   0.011733  -0.058044   0.014998  -0.022085  -0.030744
  135  H  10  Z  -0.028075   0.003654  -0.017754  -0.027346  -0.031917
  136  H  10  X   0.233026  -0.416770   0.001296   0.259201  -0.036702
  137  H  10  Y  -0.394612  -0.428572   0.099384  -0.639190  -0.696734
  138  H  10  Z  -0.042513  -0.160946   0.019810  -0.210700  -0.351286
  139  F  11  S   0.022257  -0.001473  -0.006771   0.027836   0.049746
  140  F  11  S   0.043055  -0.002825  -0.012783   0.057767   0.101570
  141  F  11  S  -0.166775  -0.004698   0.052520  -0.054856  -0.160947
  142  F  11  S   0.282047   0.245838   0.114195  -0.476515  -0.476743
  143  F  11  X   0.007615   0.009055  -0.012886  -0.088598  -0.046789
  144  F  11  Y  -0.003008  -0.000176  -0.058442   0.033907   0.011830
  145  F  11  Z  -0.010871  -0.007936  -0.003464  -0.013973   0.101462
  146  F  11  X   0.033897  -0.034381   0.031525   0.342580   0.199049
  147  F  11  Y  -0.007703   0.006187   0.219616  -0.132707  -0.038860
  148  F  11  Z   0.034907   0.047569   0.007512   0.058157  -0.402056
  149  F  11  X  -0.104303  -0.175396   0.106010   0.400234   0.149872
  150  F  11  Y   0.066655  -0.058920   0.337519  -0.126208  -0.045408
  151  F  11  Z   0.077039   0.017915   0.052266   0.052380  -0.405175
  152  F  11 XX  -0.127223  -0.156953   0.558632   1.063379  -0.048486
  153  F  11 YY   0.904188  -0.046891  -0.652385  -0.263311  -0.360376
  154  F  11 ZZ  -0.776966   0.203844   0.093753  -0.800068   0.408862
  155  F  11 XY   0.327296  -0.654088   0.805719  -0.500222  -0.163794
  156  F  11 XZ  -0.444593   0.095779  -0.007808  -0.094667  -1.128491
  157  F  11 YZ  -0.391462  -0.970500  -0.570824   0.107706   0.075511
  158  F  11 XX   0.055054   0.082515  -0.390000  -0.821012   0.021557
  159  F  11 YY  -0.537254   0.029722   0.463135   0.205534   0.299029
  160  F  11 ZZ   0.482200  -0.112238  -0.073135   0.615478  -0.320586
  161  F  11 XY  -0.185232   0.396500  -0.573170   0.396539   0.136346
  162  F  11 XZ   0.269174  -0.071227   0.014735   0.085953   0.899474
  163  F  11 YZ   0.236238   0.600533   0.410091  -0.085508  -0.072281

 WARNING! THIS VERSION OF FIREFLY IS PROBABLY OUTDATED!
 PLEASE CHECK FIREFLY HOMEPAGE FOR INFORMATION ON UPDATES!

 ...... END OF DFT CALCULATION ......

                         TIMING STATISTICS ON RANK 0:
 CPU        TIME:   STEP =      5.53 ,  TOTAL =        6.2 SECONDS (    0.1 MIN)
 WALL CLOCK TIME:   STEP =     53.64 ,  TOTAL =       55.2 SECONDS (    0.9 MIN)
 CPU UTILIZATION:   STEP =     10.31%,  TOTAL =      11.28%


                       ----------------------------------
                       properties for the R-B3LYP density
                       ----------------------------------

          -----------------
          ENERGY COMPONENTS
          -----------------

         WAVEFUNCTION NORMALIZATION =       1.0000000000

                ONE ELECTRON ENERGY =    -548.3501762199
                TWO ELECTRON ENERGY =     203.4775122073
           NUCLEAR REPULSION ENERGY =     126.5672939897
                                      ------------------
                       TOTAL ENERGY =    -218.3053700230

 ELECTRON-ELECTRON POTENTIAL ENERGY =     203.4775122073
  NUCLEUS-ELECTRON POTENTIAL ENERGY =    -765.4969810890
   NUCLEUS-NUCLEUS POTENTIAL ENERGY =     126.5672939897
                                      ------------------
             TOTAL POTENTIAL ENERGY =    -435.4521748921
               TOTAL KINETIC ENERGY =     217.1468048691
                 VIRIAL RATIO (V/T) =       2.0053354004

          ---------------------------------------
          MULLIKEN AND LOWDIN POPULATION ANALYSES
          ---------------------------------------

     MULLIKEN ATOMIC POPULATION IN EACH MOLECULAR ORBITAL

                      1          2          3          4          5

                  2.000000   2.000000   2.000000   2.000000   2.000000

    1             0.000373   0.011088   1.975176   0.001441   0.001976
    2            -0.000135   1.965325   0.012506   0.013730   0.005928
    3            -0.000023   0.017284   0.002004   1.974003   0.018092
    4             0.000009   0.000110   0.002608   0.000029   0.001931
    5             0.000043   0.001005   0.003709   0.000078  -0.003735
    6            -0.000024   0.000486   0.002908   0.000049   0.002253
    7             0.000072   0.001421   0.000619   0.000935   0.002442
    8            -0.000026   0.000459   0.000179   0.003917   0.002617
    9             0.000019   0.000944   0.000038   0.001917  -0.001870
   10             0.000122   0.001882   0.000237   0.003834  -0.007767
   11             1.999571  -0.000004   0.000017   0.000066   1.978135

                      6          7          8          9         10

                  2.000000   2.000000   2.000000   2.000000   2.000000

    1             0.328430   0.423408   0.094274   0.136696   0.242290
    2             0.840420   0.369920   0.422601   0.474926   0.423904
    3             0.214614   0.261580   0.045689   0.271278   0.266757
    4             0.066621   0.197224   0.097306   0.070015   0.004773
    5             0.022490   0.218307   0.096234   0.019523   0.180646
    6             0.106208   0.107061   0.133677   0.098601   0.004444
    7             0.187923  -0.010429   0.627869   0.310913   0.073411
    8             0.211020   0.296099   0.395543   0.383748   0.238313
    9            -0.007008   0.086304   0.061584  -0.007445   0.487471
   10            -0.021900   0.049631  -0.002847   0.136577   0.047227
   11             0.051181   0.000896   0.028071   0.105171   0.030765

                     11         12         13         14         15

                  2.000000   2.000000   2.000000   2.000000   2.000000

    1             0.539345   0.544471   0.422845   0.144768   0.022874
    2             0.286210   0.200482   0.245841   0.203060   0.130968
    3             0.173666   0.192899   0.356900   0.397615   0.235484
    4             0.579514   0.149040  -0.008566   0.070370   0.037489
    5             0.273253  -0.000879   0.435354   0.040138   0.002487
    6            -0.003847   0.658754   0.110893   0.048970   0.049328
    7            -0.005198   0.068740   0.005626   0.153949   0.162446
    8             0.095602   0.023979  -0.032010   0.089684  -0.010777
    9            -0.011521   0.010083   0.445178   0.149197   0.040175
   10            -0.002124   0.120775   0.008360   0.148150   0.260051
   11             0.075099   0.031654   0.009578   0.554099   1.069478

                     16         17

                  2.000000   2.000000

    1             0.035136  -0.002244
    2             0.007672   0.015691
    3             0.010271   0.166906
    4             0.012584  -0.000436
    5            -0.000260  -0.000218
    6             0.002476   0.002146
    7             0.006576   0.007753
    8             0.000800   0.010875
    9             0.001538   0.013896
   10             0.003468   0.092800
   11             1.919740   1.692831

               ----- POPULATIONS IN EACH AO -----
                             MULLIKEN      LOWDIN
              1  C   1  S     2.02187     1.81096
              2  C   1  S     0.66491     0.42635
              3  C   1  S     0.00953     0.17764
              4  C   1  S     0.11736     0.04945
              5  C   1  X     0.75493     0.62304
              6  C   1  Y     0.73769     0.61301
              7  C   1  Z     0.71388     0.59390
              8  C   1  X    -0.13367     0.28756
              9  C   1  Y    -0.05658     0.28478
             10  C   1  Z     0.17971     0.25800
             11  C   1  X    -0.02406     0.02929
             12  C   1  Y    -0.00416     0.02767
             13  C   1  Z    -0.01552     0.03535
             14  C   1 XX     0.00565     0.10845
             15  C   1 YY     0.00977     0.11713
             16  C   1 ZZ     0.00533     0.10772
             17  C   1 XY     0.00412     0.00903
             18  C   1 XZ     0.01303     0.03156
             19  C   1 YZ     0.00969     0.02346
             20  C   1 XX    -0.01478     0.03622
             21  C   1 YY    -0.02011     0.07483
             22  C   1 ZZ     0.00352     0.06303
             23  C   1 XY    -0.00877     0.02227
             24  C   1 XZ    -0.02479     0.08577
             25  C   1 YZ    -0.02621     0.05940
             26  C   2  S     2.02282     1.81962
             27  C   2  S     0.69514     0.44873
             28  C   2  S     0.57124     0.17584
             29  C   2  S    -0.25279     0.04852
             30  C   2  X     0.48989     0.40385
             31  C   2  Y     0.75008     0.61985
             32  C   2  Z     0.68386     0.56231
             33  C   2  X     0.18315     0.19949
             34  C   2  Y    -0.03549     0.26946
             35  C   2  Z     0.16794     0.22030
             36  C   2  X    -0.00417     0.03294
             37  C   2  Y    -0.01736     0.03444
             38  C   2  Z    -0.01851     0.04606
             39  C   2 XX     0.01091     0.09369
             40  C   2 YY     0.01442     0.13342
             41  C   2 ZZ     0.01298     0.12326
             42  C   2 XY     0.00900     0.01779
             43  C   2 XZ     0.01921     0.03644
             44  C   2 YZ     0.01989     0.03419
             45  C   2 XX     0.02192     0.08863
             46  C   2 YY     0.01378     0.10297
             47  C   2 ZZ     0.03148     0.13300
             48  C   2 XY     0.05573     0.09607
             49  C   2 XZ     0.08058     0.15962
             50  C   2 YZ     0.09332     0.14891
             51  C   3  S     2.02324     1.79008
             52  C   3  S     0.66191     0.43315
             53  C   3  S    -0.16888     0.17216
             54  C   3  S     0.02262     0.04782
             55  C   3  X     0.79497     0.66983
             56  C   3  Y     0.72520     0.58878
             57  C   3  Z     0.73089     0.60290
             58  C   3  X    -0.20895     0.25538
             59  C   3  Y     0.16125     0.28493
             60  C   3  Z    -0.03996     0.26111
             61  C   3  X    -0.02917     0.02968
             62  C   3  Y     0.00943     0.02981
             63  C   3  Z    -0.03498     0.03310
             64  C   3 XX     0.00799     0.13385
             65  C   3 YY     0.00465     0.08610
             66  C   3 ZZ     0.00672     0.10960
             67  C   3 XY     0.00669     0.01600
             68  C   3 XZ     0.01270     0.03448
             69  C   3 YZ     0.00986     0.02655
             70  C   3 XX    -0.01272     0.07564
             71  C   3 YY    -0.00402     0.03615
             72  C   3 ZZ    -0.00629     0.06641
             73  C   3 XY    -0.02016     0.04682
             74  C   3 XZ    -0.01204     0.06154
             75  C   3 YZ    -0.03594     0.07460
             76  H   4  S     0.79025     0.52208
             77  H   4  S     0.50589     0.14844
             78  H   4  S     0.00717     0.02006
             79  H   4  X     0.01267     0.02740
             80  H   4  Y     0.00781     0.01773
             81  H   4  Z     0.01038     0.02439
             82  H   4  X    -0.02687     0.07748
             83  H   4  Y    -0.01319     0.06541
             84  H   4  Z    -0.01348     0.06060
             85  H   5  S     0.79165     0.52637
             86  H   5  S     0.49686     0.14741
             87  H   5  S     0.01672     0.02080
             88  H   5  X     0.01539     0.03337
             89  H   5  Y     0.00671     0.01547
             90  H   5  Z     0.00809     0.01930
             91  H   5  X    -0.01630     0.08181
             92  H   5  Y    -0.01080     0.06130
             93  H   5  Z    -0.02016     0.05939
             94  H   6  S     0.79007     0.53023
             95  H   6  S     0.51181     0.14898
             96  H   6  S     0.03147     0.02168
             97  H   6  X     0.00689     0.01564
             98  H   6  Y     0.01672     0.03604
             99  H   6  Z     0.00619     0.01434
            100  H   6  X    -0.01487     0.06264
            101  H   6  Y    -0.02561     0.08167
            102  H   6  Z     0.00171     0.05609
            103  H   7  S     0.79956     0.53618
            104  H   7  S     0.80135     0.15057
            105  H   7  S     0.02903     0.02122
            106  H   7  X     0.00418     0.00959
            107  H   7  Y     0.01561     0.04034
            108  H   7  Z     0.00467     0.01362
            109  H   7  X    -0.01337     0.04227
            110  H   7  Y    -0.01571     0.07380
            111  H   7  Z    -0.03025     0.04408
            112  H   8  S     0.88716     0.56612
            113  H   8  S     0.87151     0.13808
            114  H   8  S     0.04439     0.02040
            115  H   8  X     0.01670     0.05358
            116  H   8  Y     0.01020     0.03381
            117  H   8  Z     0.00984     0.03263
            118  H   8  X    -0.06290     0.08306
            119  H   8  Y    -0.04880     0.08520
            120  H   8  Z    -0.01808     0.07839
            121  H   9  S     0.78115     0.51539
            122  H   9  S     0.51749     0.15161
            123  H   9  S     0.00972     0.02071
            124  H   9  X     0.00517     0.01319
            125  H   9  Y     0.01075     0.02023
            126  H   9  Z     0.01328     0.02750
            127  H   9  X    -0.02671     0.04987
            128  H   9  Y     0.00165     0.07260
            129  H   9  Z    -0.04201     0.06208
            130  H  10  S     0.71642     0.46556
            131  H  10  S     0.11330     0.13841
            132  H  10  S    -0.01663     0.02358
            133  H  10  X     0.01047     0.02033
            134  H  10  Y     0.01321     0.02325
            135  H  10  Z     0.00727     0.01156
            136  H  10  X     0.00157     0.08795
            137  H  10  Y    -0.00168     0.08407
            138  H  10  Z    -0.00544     0.05793
            139  F  11  S     2.00692     1.87920
            140  F  11  S     0.90319     0.67642
            141  F  11  S     1.03638     0.44112
            142  F  11  S     0.06140     0.08453
            143  F  11  X     1.05895     1.01514
            144  F  11  Y     1.12137     1.07654
            145  F  11  Z     1.08496     1.04063
            146  F  11  X     0.66045     0.62464
            147  F  11  Y     0.68513     0.67233
            148  F  11  Z     0.67332     0.65375
            149  F  11  X     0.06590     0.10430
            150  F  11  Y     0.09481     0.10646
            151  F  11  Z     0.08370     0.10080
            152  F  11 XX     0.00006     0.19707
            153  F  11 YY     0.00004     0.19647
            154  F  11 ZZ     0.00003     0.19680
            155  F  11 XY     0.00011     0.00010
            156  F  11 XZ     0.00020     0.00016
            157  F  11 YZ     0.00005     0.00004
            158  F  11 XX     0.00214     0.06399
            159  F  11 YY     0.00074     0.06126
            160  F  11 ZZ     0.00086     0.06214
            161  F  11 XY     0.00189     0.00305
            162  F  11 XZ     0.00290     0.00462
            163  F  11 YZ     0.00086     0.00177

          ----- MULLIKEN ATOMIC OVERLAP POPULATIONS -----
          (OFF-DIAGONAL ELEMENTS NEED TO BE MULTIPLIED BY 2)

             1           2           3           4           5

    1    4.2975390
    2    0.2623653   5.2965401
    3   -0.3156763   0.2932157   5.1615689
    4    0.1271529  -0.0510134   0.1268689   1.7499132
    5    0.0854449   0.2964590  -0.0700246  -0.2978202   1.7164798
    6    0.3586145  -0.2160246  -0.0421883  -0.2580762  -0.3487306
    7    0.0524619  -0.4254327  -0.1517148  -0.1051670  -0.0826598
    8    0.1528740  -0.0501835  -1.1037498  -0.0601296   0.0404541
    9   -0.0671802   0.1863954   0.2571476   0.0251848  -0.0187443
   10   -0.0365960  -0.0365662   0.5070558   0.0003162  -0.0091777
   11    0.0053456   0.0632925  -0.0574863   0.0233907  -0.0235070

             6           7           8           9          10

    6    1.7406294
    7    0.0917792   2.2942202
    8   -0.0139191   0.0635216   3.7694396
    9    0.0016307  -0.1685547  -0.8525965   1.9780195
   10    0.0187381   0.0614933  -0.2969572  -0.0478726   0.7088257
   11   -0.0080699  -0.0348800   0.0612706  -0.0229301  -0.0307837

            11

   11    9.5707035

          TOTAL MULLIKEN AND LOWDIN ATOMIC POPULATIONS
       ATOM         MULL.POP.    CHARGE          LOW.POP.     CHARGE
    1 C             4.922346    1.077654         5.955870    0.044130
    2 C             5.619048    0.380952         6.049404   -0.049404
    3 C             4.605017    1.394983         5.966483    0.033517
    4 H             1.280620   -0.280620         0.963596    0.036404
    5 H             1.288174   -0.288174         0.965230    0.034770
    6 H             1.324383   -0.324383         0.967317    0.032683
    7 H             1.595067   -0.595067         0.931673    0.068327
    8 H             1.710024   -0.710024         1.091275   -0.091275
    9 H             1.270500   -0.270500         0.933181    0.066819
   10 H             0.838476    0.161524         0.912640    0.087360
   11 F             9.546346   -0.546346         9.263332   -0.263332

          -------------------------------
          BOND ORDER AND VALENCE ANALYSIS     BOND ORDER THRESHOLD=0.050
          -------------------------------

                   BOND                       BOND                       BOND
  ATOM PAIR DIST  ORDER      ATOM PAIR DIST  ORDER      ATOM PAIR DIST  ORDER
    1   2  1.508  1.279        1   3  2.546 -0.080        1   4  1.052  0.777
    1   5  1.058  0.742        1   6  1.068  0.833        1   7  2.171  0.071
    2   3  1.456  1.301        2   4  2.113  0.075        2   5  2.131  0.153
    2   6  2.158  0.097        2   7  1.070  0.474        2   8  2.013  0.152
    2   9  2.150  0.136        2  10  1.898  0.116        2  11  1.897  0.554
    3   8  0.900  0.146        3   9  1.089  0.767        3  10  1.172  0.884
    4   5  1.703 -0.088        4   6  1.715 -0.088        5   6  1.713 -0.079
    7   9  2.465 -0.054        8   9  1.667 -0.280        8  10  1.776 -0.140

                       TOTAL       BONDED        FREE
      ATOM            VALENCE     VALENCE     VALENCE
    1 C                 3.606       3.606       0.000
    2 C                 4.337       4.337       0.000
    3 C                 3.008       3.008       0.000
    4 H                 0.652       0.652       0.000
    5 H                 0.687       0.687       0.000
    6 H                 0.749       0.749       0.000
    7 H                 0.434       0.434       0.000
    8 H                -0.111      -0.111       0.000
    9 H                 0.572       0.572       0.000
   10 H                 0.858       0.858       0.000
   11 F                 0.620       0.620       0.000

          ---------------------
          ELECTROSTATIC MOMENTS
          ---------------------

 POINT   1           X           Y           Z (BOHR)    CHARGE
                 3.510624    7.367798   -3.765894        0.00 (A.U.)
         DX          DY          DZ         /D/  (DEBYE)
    -3.355407    0.956106    2.325848    4.193145
 ...... END OF PROPERTY EVALUATION ......

                         TIMING STATISTICS ON RANK 0:
 CPU        TIME:   STEP =      0.02 ,  TOTAL =        6.3 SECONDS (    0.1 MIN)
 WALL CLOCK TIME:   STEP =      0.06 ,  TOTAL =       55.3 SECONDS (    0.9 MIN)
 CPU UTILIZATION:   STEP =     34.67%,  TOTAL =      11.30%
 ......END OF NBO ANALYSIS......

                         TIMING STATISTICS ON RANK 0:
 CPU        TIME:   STEP =      0.00 ,  TOTAL =        6.3 SECONDS (    0.1 MIN)
 WALL CLOCK TIME:   STEP =      0.00 ,  TOTAL =       55.3 SECONDS (    0.9 MIN)
 CPU UTILIZATION:   STEP =      0.00%,  TOTAL =      11.30%

                         OVERALL  TIMING  STATISTICS:
 GLOBAL CPU TIME ELAPSED      =        51.3 SECONDS (     0.9 MIN)
 RANK 0 WALL CLOCK TIME       =        55.3 SECONDS (     0.9 MIN)
 JOB CPU UTILIZATION:   TOTAL =     92.76%, PER RANK AVERAGE =      9.28%

      912929 WORDS OF    DYNAMIC MEMORY USED
     5585795 BYTES OF    HEAP MEMORY    USED,      133350 BYTES REMAIN IN USE

 WARNING! THIS VERSION OF FIREFLY IS PROBABLY OUTDATED!
 PLEASE CHECK FIREFLY HOMEPAGE FOR INFORMATION ON UPDATES!

 EXECUTION OF FIREFLY TERMINATED NORMALLY  0:11:53  9-JUL-2026    
