              Grand Master is running on host yaroslavhonor
              rank #     1 is running on host yaroslavhonor
              rank #     2 is running on host yaroslavhonor
              rank #     3 is running on host yaroslavhonor
              rank #     4 is running on host yaroslavhonor
              rank #     5 is running on host yaroslavhonor
              rank #     6 is running on host yaroslavhonor
              rank #     7 is running on host yaroslavhonor
              rank #     8 is running on host yaroslavhonor
              rank #     9 is running on host yaroslavhonor

          ******************************************************
          *      Firefly version 8.2.0, build number 10203     *
          *   Compiled on    Monday,    19-09-2016, 15:30:23   *
          *Code development and Intel/AMD specific optimization*
          *  Copyright (c) 1994, 2016 by  Alex A. Granovsky,   *
          *          Firefly Project, Moscow, Russia.          *
          *   Some parts of this program include code due to   *
          * work of Jim Kress, Peter Burger, and Robert Ponec. *
          ******************************************************
          *             Firefly Project homepage:              *
          * http://classic.chem.msu.su/gran/firefly/index.html *
          *                      e-mail:                       *
          *               gran@classic.chem.msu.su             *
          *This program is not a free software and is provided *
          *exclusively to its registered users under the terms *
          *       of Firefly package license agreement         *
          * Unauthorized use of Firefly is strongly prohibited *
          *   This program may not be redistributed without    *
          * the specific, written permission of its developers.*
          ******************************************************

          ******************************************************
          *  PARTIALLY BASED ON  US GAMESS VERSION 6 JUN 1999, *
          *   US GAMESS VERSIONS  6 SEP 2001 AND 12 DEC 2003   *
          *             FROM IOWA STATE UNIVERSITY             *
          * M.W.SCHMIDT, K.K.BALDRIDGE, J.A.BOATZ, S.T.ELBERT, *
          *   M.S.GORDON, J.H.JENSEN, S.KOSEKI, N.MATSUNAGA,   *
          *          K.A.NGUYEN, S.J.SU, T.L.WINDUS,           *
          *       TOGETHER WITH M.DUPUIS, J.A.MONTGOMERY       *
          *         J.COMPUT.CHEM.  14, 1347-1363(1993)        *
          ******************************************************


 Core i7    / Linux  Firefly version running under Linux.
 Running on Intel CPU:  Brand ID  0, Family  6, Model 170, Stepping  4
 CPU Brand String    :  Intel(R) Core(TM) Ultra 5 125H                  
 CPU Features        :  x87 FPU, CMOV, MMX, SSE, SSE2, SSE3, SSSE3, SSE4.1, SSE4.2, AVX, AVX2, FMA3, HTT, MWAIT, EM64T
 Data cache size     :  L1 32 KB, L2 2048 KB, L3 18432 KB
 max    # of   cores/package :  64
 max    # of threads/package : 128
 max     cache sharing level :  64
 actual # of   cores/package :  18
 actual # of threads/package :  18
 actual # of threads/core    :   1
 Operating System successfully passed SSE support test.
 Operating System supports AVX/FMA.


 PARALLEL VERSION (MPICH) RUNNING USING   10 PROCESSES (RANKS)


 WARNING! THIS VERSION OF FIREFLY IS PROBABLY OUTDATED!
 PLEASE CHECK FIREFLY HOMEPAGE FOR INFORMATION ON UPDATES!

 EXECUTION OF FIREFLY BEGUN  0:10:58  9-JUL-2026    

            ECHO OF THE FIRST FEW INPUT CARDS -
 INPUT CARD> $CONTRL SCFTYP=RHF RUNTYP=ENERGY ICHARG=0 MULT=1 DFTTYP=B3LYP EXETYP=RUN       
 INPUT CARD>      INTTYP=HONDO ICUT=13 ITOL=30 D5=.T. MAXIT=100 GENCON=.F. WIDE=1 FSTINT=.T.
 INPUT CARD> $END                                                                           
 INPUT CARD> $SYSTEM TIMLIM=60000 MWORDS=200 MASMEM=200000000 MXBCST=-1 KDIAG=0 NOJAC=1 $END
 INPUT CARD> $MOORTH NOSTF=.T. NOZERO=.T. SYMS=.T. SYMDEN=.T. SYMVEC=.T. SYMVX=.T.          
 INPUT CARD>      TOLE=0.0D0 TOLZ=0.0D0 $END                                                
 INPUT CARD> $GUESS GUESS=HUCKEL $END                                                       
 INPUT CARD> $SCF DIRSCF=.T. FDIFF=.F. DIIS=.T. DAMP=.T. SHIFT=.T. SOSCF=.F. $END           
 INPUT CARD> $DATA                                                                          
 INPUT CARD> C3H7F                                                                          
 INPUT CARD> C1                                                                             
 INPUT CARD>C      6.0            1.5194285164          3.6227242444         -0.4117692152  
 INPUT CARD>S   8                                                                           
 INPUT CARD>  1    6665.0000000       0.0006920                                             
 INPUT CARD>  2    1000.0000000       0.0053290                                             
 INPUT CARD>  3     228.0000000       0.0270770                                             
 INPUT CARD>  4      64.7100000       0.1017180                                             
 INPUT CARD>  5      21.0600000       0.2747400                                             
 INPUT CARD>  6       7.4950000       0.4485640                                             
 INPUT CARD>  7       2.7970000       0.2850740                                             
 INPUT CARD>  8       0.5215000       0.0152040                                             
 INPUT CARD>S   8                                                                           
 INPUT CARD>  1    6665.0000000      -0.0001460                                             
 INPUT CARD>  2    1000.0000000      -0.0011540                                             
 INPUT CARD>  3     228.0000000      -0.0057250                                             
 INPUT CARD>  4      64.7100000      -0.0233120                                             
 INPUT CARD>  5      21.0600000      -0.0639550                                             
 INPUT CARD>  6       7.4950000      -0.1499810                                             
 INPUT CARD>  7       2.7970000      -0.1272620                                             
 INPUT CARD>  8       0.5215000       0.5445290                                             
 INPUT CARD>S   1                                                                           
 INPUT CARD>  1       0.1596000       1.0000000                                             
 INPUT CARD>S   1                                                                           
 INPUT CARD>  1       0.0469000       1.0000000                                             
 INPUT CARD>P   3                                                                           
 INPUT CARD>  1       9.4390000       0.0381090                                             
 INPUT CARD>  2       2.0020000       0.2094800                                             
 INPUT CARD>  3       0.5456000       0.5085570                                             
 INPUT CARD>P   1                                                                           
 INPUT CARD>  1       0.1517000       1.0000000                                             
 INPUT CARD>P   1                                                                           
 INPUT CARD>  1       0.0404100       1.0000000                                             
 INPUT CARD>D   1                                                                           
 INPUT CARD>  1       0.5500000       1.0000000                                             
 INPUT CARD>D   1                                                                           
 INPUT CARD>  1       0.1510000       1.0000000                                             
 INPUT CARD>                                                                                
 INPUT CARD>C      6.0            1.4194011987          4.4486002092         -1.6608978032  
 INPUT CARD>S   8                                                                           
 INPUT CARD>  1    6665.0000000       0.0006920                                             
  200000000 WORDS OF MEMORY AVAILABLE

 This job is executing on     1 unique host(s)
 Minimum number of processes per host is:   10
 Maximum number of processes per host is:   10

 On master's host, detected   18 CPU core(s) in aggregate

 Using processor-specific dynamic link DGEMM library code.


 Creating thread pool to serve up to            128 threads.


 Loading P2P interface library... loaded successfully (version 2.4).
 Initializing global P2P interface... topology done.



     RUN TITLE
     ---------
  C3H7F                                                                          

 THE POINT GROUP OF THE MOLECULE IS C1      
 THE ORDER OF THE PRINCIPAL AXIS IS     0
 *** WARNING! ATOM   1 SHELL    1 TYPE S HAS NORMALIZATION   0.99939879
 *** WARNING! ATOM   1 SHELL    2 TYPE S HAS NORMALIZATION   2.00869625
 *** WARNING! ATOM   1 SHELL    5 TYPE P HAS NORMALIZATION   1.49516523
 *** WARNING! ATOM   2 SHELL   10 TYPE S HAS NORMALIZATION   0.99939879
 *** WARNING! ATOM   2 SHELL   11 TYPE S HAS NORMALIZATION   2.00869625
 *** WARNING! ATOM   2 SHELL   14 TYPE P HAS NORMALIZATION   1.49516523
 *** WARNING! ATOM   3 SHELL   19 TYPE S HAS NORMALIZATION   0.99939879
 *** WARNING! ATOM   3 SHELL   20 TYPE S HAS NORMALIZATION   2.00869625
 *** WARNING! ATOM   3 SHELL   23 TYPE P HAS NORMALIZATION   1.49516523
 *** WARNING! ATOM   4 SHELL   28 TYPE S HAS NORMALIZATION   1.70173870
 *** WARNING! ATOM   5 SHELL   33 TYPE S HAS NORMALIZATION   1.70173870
 *** WARNING! ATOM   6 SHELL   38 TYPE S HAS NORMALIZATION   1.70173870
 *** WARNING! ATOM   7 SHELL   43 TYPE S HAS NORMALIZATION   1.70173870
 *** WARNING! ATOM   8 SHELL   48 TYPE S HAS NORMALIZATION   1.70173870
 *** WARNING! ATOM   9 SHELL   53 TYPE S HAS NORMALIZATION   1.70173870
 *** WARNING! ATOM  10 SHELL   58 TYPE S HAS NORMALIZATION   1.70173870
 *** WARNING! ATOM  11 SHELL   63 TYPE S HAS NORMALIZATION   0.99954745
 *** WARNING! ATOM  11 SHELL   64 TYPE S HAS NORMALIZATION   1.94662964
 *** WARNING! ATOM  11 SHELL   67 TYPE P HAS NORMALIZATION   1.44467270

 ATOM      ATOMIC                      COORDINATES (BOHR)
           CHARGE         X                   Y                   Z
 C           6.0     2.8713037632        6.8459566500       -0.7781310436
 C           6.0     2.6822795277        8.4066360370       -3.1386419704
 C           6.0     1.0941113673        7.7909331282       -5.1255035278
 H           1.0     1.8525745823        7.7105017976        0.6954731723
 H           1.0     4.7687284239        6.6890113789       -0.1610188061
 H           1.0     2.1605149076        4.9722208666       -1.0076918440
 H           1.0     3.3811917402       10.2949992196       -3.0114922292
 H           1.0    -0.1723521746        6.6847102044       -4.9183895741
 H           1.0     1.0452630023        9.0070012701       -6.7782169787
 H           1.0     3.6704908298        6.2063292059       -5.8924898167
 F           9.0     6.0287556489        6.2311050752       -5.9739088739

          INTERNUCLEAR DISTANCES (ANGS.)
          ------------------------------

                    C              C              C              H         

  1  C               0.0000000      1.5007994 *    2.5351422 *    1.0526181 *  
  2  C               1.5007994 *    0.0000000      1.3848869 *    2.1083214 *  
  3  C               2.5351422 *    1.3848869 *    0.0000000      3.1066581    
  4  H               1.0526181 *    2.1083214 *    3.1066581      0.0000000    
  5  H               1.0591055 *    2.1279072 *    3.3200610      1.6967516 *  
  6  H               1.0674181 *    2.1565769 *    2.7002938 *    1.7142222 *  
  7  H               2.1910609 *    1.0676484 *    2.1147319 *    2.5244521 *  
  8  H               2.7205876 *    1.9998035 *    0.8965698 *    3.2043868    
  9  H               3.5103867      2.1355935 *    1.0861251 *    4.0366444    
 10  H               2.7600784 *    1.9372215 *    1.6512507 *    3.7030538    
 11  F               3.2337730      2.5908386 *    2.7752088 *    4.2370463    

                    H              H              H              H         

  1  C               1.0591055 *    1.0674181 *    2.1910609 *    2.7205876 *  
  2  C               2.1279072 *    2.1565769 *    1.0676484 *    1.9998035 *  
  3  C               3.3200610      2.7002938 *    2.1147319 *    0.8965698 *  
  4  H               1.6967516 *    1.7142222 *    2.5244521 *    3.2043868    
  5  H               0.0000000      1.7120337 *    2.5408004 *    3.6296647    
  6  H               1.7120337 *    0.0000000      3.0782124      2.5744591 *  
  7  H               2.5408004 *    3.0782124      0.0000000      2.8643165 *  
  8  H               3.6296647      2.5744591 *    2.8643165 *    0.0000000    
  9  H               4.2010333      3.7724880      2.4424677 *    1.7011694 *  
 10  H               3.0986870      2.7833062 *    2.6512287 *    2.1130784 *  
 11  F               3.1567999      3.3971111      3.0075121      3.3373263    

                    H              H              F         

  1  C               3.5103867      2.7600784 *    3.2337730    
  2  C               2.1355935 *    1.9372215 *    2.5908386 *  
  3  C               1.0861251 *    1.6512507 *    2.7752088 *  
  4  H               4.0366444      3.7030538      4.2370463    
  5  H               4.2010333      3.0986870      3.1567999    
  6  H               3.7724880      2.7833062 *    3.3971111    
  7  H               2.4424677 *    2.6512287 *    3.0075121    
  8  H               1.7011694 *    2.1130784 *    3.3373263    
  9  H               0.0000000      2.0847230 *    3.0485251    
 10  H               2.0847230 *    0.0000000      1.2487524 *  
 11  F               3.0485251      1.2487524 *    0.0000000    

  * ... LESS THAN  3.000


     ATOMIC BASIS SET
     ----------------
 THE CONTRACTED PRIMITIVE FUNCTIONS HAVE BEEN UNNORMALIZED
 THE CONTRACTED BASIS FUNCTIONS ARE NOW NORMALIZED TO UNITY

 SHELL TYPE PRIM    EXPONENT          CONTRACTION COEFFICIENTS

 C         

   1   S    1    6665.000000    0.363584 (  0.000692) 
   1   S    2    1000.000000    0.674986 (  0.005329) 
   1   S    3     228.000000    1.131620 (  0.027077) 
   1   S    4      64.710000    1.653009 (  0.101718) 
   1   S    5      21.060000    1.923821 (  0.274740) 
   1   S    6       7.495000    1.447278 (  0.448564) 
   1   S    7       2.797000    0.439163 (  0.285074) 
   1   S    8       0.521500    0.006646 (  0.015204) 

   2   S    9    6665.000000   -0.154180 ( -0.000146) 
   2   S   10    1000.000000   -0.293785 ( -0.001154) 
   2   S   11     228.000000   -0.480896 ( -0.005725) 
   2   S   12      64.710000   -0.761434 ( -0.023312) 
   2   S   13      21.060000   -0.900104 ( -0.063955) 
   2   S   14       7.495000   -0.972611 ( -0.149981) 
   2   S   15       2.797000   -0.394042 ( -0.127262) 
   2   S   16       0.521500    0.478394 (  0.544529) 

   3   S   17       0.159600    0.179964 (  1.000000) 

   4   S   18       0.046900    0.071827 (  1.000000) 

   5   P   19       9.439000    1.343737 (  0.038109) 
   5   P   20       2.002000    1.063168 (  0.209480) 
   5   P   21       0.545600    0.508232 (  0.508557) 

   6   P   22       0.151700    0.134950 (  1.000000) 

   7   P   23       0.040410    0.025826 (  1.000000) 

   8   D   24       0.550000    0.578155 (  1.000000) 

   9   D   25       0.151000    0.060203 (  1.000000) 

 C         

  10   S   26    6665.000000    0.363584 (  0.000692) 
  10   S   27    1000.000000    0.674986 (  0.005329) 
  10   S   28     228.000000    1.131620 (  0.027077) 
  10   S   29      64.710000    1.653009 (  0.101718) 
  10   S   30      21.060000    1.923821 (  0.274740) 
  10   S   31       7.495000    1.447278 (  0.448564) 
  10   S   32       2.797000    0.439163 (  0.285074) 
  10   S   33       0.521500    0.006646 (  0.015204) 

  11   S   34    6665.000000   -0.154180 ( -0.000146) 
  11   S   35    1000.000000   -0.293785 ( -0.001154) 
  11   S   36     228.000000   -0.480896 ( -0.005725) 
  11   S   37      64.710000   -0.761434 ( -0.023312) 
  11   S   38      21.060000   -0.900104 ( -0.063955) 
  11   S   39       7.495000   -0.972611 ( -0.149981) 
  11   S   40       2.797000   -0.394042 ( -0.127262) 
  11   S   41       0.521500    0.478394 (  0.544529) 

  12   S   42       0.159600    0.179964 (  1.000000) 

  13   S   43       0.046900    0.071827 (  1.000000) 

  14   P   44       9.439000    1.343737 (  0.038109) 
  14   P   45       2.002000    1.063168 (  0.209480) 
  14   P   46       0.545600    0.508232 (  0.508557) 

  15   P   47       0.151700    0.134950 (  1.000000) 

  16   P   48       0.040410    0.025826 (  1.000000) 

  17   D   49       0.550000    0.578155 (  1.000000) 

  18   D   50       0.151000    0.060203 (  1.000000) 

 C         

  19   S   51    6665.000000    0.363584 (  0.000692) 
  19   S   52    1000.000000    0.674986 (  0.005329) 
  19   S   53     228.000000    1.131620 (  0.027077) 
  19   S   54      64.710000    1.653009 (  0.101718) 
  19   S   55      21.060000    1.923821 (  0.274740) 
  19   S   56       7.495000    1.447278 (  0.448564) 
  19   S   57       2.797000    0.439163 (  0.285074) 
  19   S   58       0.521500    0.006646 (  0.015204) 

  20   S   59    6665.000000   -0.154180 ( -0.000146) 
  20   S   60    1000.000000   -0.293785 ( -0.001154) 
  20   S   61     228.000000   -0.480896 ( -0.005725) 
  20   S   62      64.710000   -0.761434 ( -0.023312) 
  20   S   63      21.060000   -0.900104 ( -0.063955) 
  20   S   64       7.495000   -0.972611 ( -0.149981) 
  20   S   65       2.797000   -0.394042 ( -0.127262) 
  20   S   66       0.521500    0.478394 (  0.544529) 

  21   S   67       0.159600    0.179964 (  1.000000) 

  22   S   68       0.046900    0.071827 (  1.000000) 

  23   P   69       9.439000    1.343737 (  0.038109) 
  23   P   70       2.002000    1.063168 (  0.209480) 
  23   P   71       0.545600    0.508232 (  0.508557) 

  24   P   72       0.151700    0.134950 (  1.000000) 

  25   P   73       0.040410    0.025826 (  1.000000) 

  26   D   74       0.550000    0.578155 (  1.000000) 

  27   D   75       0.151000    0.060203 (  1.000000) 

 H         

  28   S   76      13.010000    0.163548 (  0.019685) 
  28   S   77       1.962000    0.277418 (  0.137977) 
  28   S   78       0.444600    0.315749 (  0.478148) 

  29   S   79       0.122000    0.147123 (  1.000000) 

  30   S   80       0.029740    0.051041 (  1.000000) 

  31   P   81       0.727000    0.956881 (  1.000000) 

  32   P   82       0.141000    0.123158 (  1.000000) 

 H         

  33   S   83      13.010000    0.163548 (  0.019685) 
  33   S   84       1.962000    0.277418 (  0.137977) 
  33   S   85       0.444600    0.315749 (  0.478148) 

  34   S   86       0.122000    0.147123 (  1.000000) 

  35   S   87       0.029740    0.051041 (  1.000000) 

  36   P   88       0.727000    0.956881 (  1.000000) 

  37   P   89       0.141000    0.123158 (  1.000000) 

 H         

  38   S   90      13.010000    0.163548 (  0.019685) 
  38   S   91       1.962000    0.277418 (  0.137977) 
  38   S   92       0.444600    0.315749 (  0.478148) 

  39   S   93       0.122000    0.147123 (  1.000000) 

  40   S   94       0.029740    0.051041 (  1.000000) 

  41   P   95       0.727000    0.956881 (  1.000000) 

  42   P   96       0.141000    0.123158 (  1.000000) 

 H         

  43   S   97      13.010000    0.163548 (  0.019685) 
  43   S   98       1.962000    0.277418 (  0.137977) 
  43   S   99       0.444600    0.315749 (  0.478148) 

  44   S  100       0.122000    0.147123 (  1.000000) 

  45   S  101       0.029740    0.051041 (  1.000000) 

  46   P  102       0.727000    0.956881 (  1.000000) 

  47   P  103       0.141000    0.123158 (  1.000000) 

 H         

  48   S  104      13.010000    0.163548 (  0.019685) 
  48   S  105       1.962000    0.277418 (  0.137977) 
  48   S  106       0.444600    0.315749 (  0.478148) 

  49   S  107       0.122000    0.147123 (  1.000000) 

  50   S  108       0.029740    0.051041 (  1.000000) 

  51   P  109       0.727000    0.956881 (  1.000000) 

  52   P  110       0.141000    0.123158 (  1.000000) 

 H         

  53   S  111      13.010000    0.163548 (  0.019685) 
  53   S  112       1.962000    0.277418 (  0.137977) 
  53   S  113       0.444600    0.315749 (  0.478148) 

  54   S  114       0.122000    0.147123 (  1.000000) 

  55   S  115       0.029740    0.051041 (  1.000000) 

  56   P  116       0.727000    0.956881 (  1.000000) 

  57   P  117       0.141000    0.123158 (  1.000000) 

 H         

  58   S  118      13.010000    0.163548 (  0.019685) 
  58   S  119       1.962000    0.277418 (  0.137977) 
  58   S  120       0.444600    0.315749 (  0.478148) 

  59   S  121       0.122000    0.147123 (  1.000000) 

  60   S  122       0.029740    0.051041 (  1.000000) 

  61   P  123       0.727000    0.956881 (  1.000000) 

  62   P  124       0.141000    0.123158 (  1.000000) 

 F         

  63   S  125   14710.000000    0.686054 (  0.000721) 
  63   S  126    2207.000000    1.273776 (  0.005553) 
  63   S  127     502.800000    2.138157 (  0.028267) 
  63   S  128     142.600000    3.129135 (  0.106444) 
  63   S  129      46.470000    3.636582 (  0.286814) 
  63   S  130      16.700000    2.640279 (  0.448641) 
  63   S  131       6.356000    0.755015 (  0.264761) 
  63   S  132       1.316000    0.013421 (  0.015333) 

  64   S  133   14710.000000   -0.305764 ( -0.000165) 
  64   S  134    2207.000000   -0.584323 ( -0.001308) 
  64   S  135     502.800000   -0.956795 ( -0.006495) 
  64   S  136     142.600000   -1.528086 ( -0.026691) 
  64   S  137      46.470000   -1.819623 ( -0.073690) 
  64   S  138      16.700000   -1.957301 ( -0.170776) 
  64   S  139       6.356000   -0.623829 ( -0.112327) 
  64   S  140       1.316000    0.959401 (  0.562814) 

  65   S  141       0.389700    0.351526 (  1.000000) 

  66   S  142       0.098630    0.125434 (  1.000000) 

  67   P  143      22.670000    4.571487 (  0.044878) 
  67   P  144       4.977000    3.608377 (  0.235718) 
  67   P  145       1.347000    1.519595 (  0.508521) 

  68   P  146       0.347100    0.379759 (  1.000000) 

  69   P  147       0.085020    0.065440 (  1.000000) 

  70   D  148       1.640000    3.911886 (  1.000000) 

  71   D  149       0.464000    0.429354 (  1.000000) 

 TOTAL NUMBER OF SHELLS              =   71
 TOTAL NUMBER OF BASIS FUNCTIONS     =  163
 NUMBER OF ELECTRONS                 =   34
 CHARGE OF MOLECULE                  =    0
 STATE MULTIPLICITY                  =    1
 NUMBER OF OCCUPIED ORBITALS (ALPHA) =   17
 NUMBER OF OCCUPIED ORBITALS (BETA ) =   17
 TOTAL NUMBER OF ATOMS               =   11
 THE NUCLEAR REPULSION ENERGY IS      119.7619743708
 TOTAL NUMBER OF CONTAMINANTS DROPPED=    8


     $CONTRL OPTIONS
     ---------------
     SCFTYP=RHF          RUNTYP=ENERGY       EXETYP=RUN     
     MPLEVL=       0     LOCAL =NONE         UNITS =ANGS    
     MULT  =       1     ICHARG=       0     MAXIT =     100
     NPRINT=       7     IREST =       0     COORD =UNIQUE  
     ECP   =NONE         NORMF =       0     NORMP =       0
     ITOL  =      30     ICUT  =      13     NZVAR =       0
     NOSYM =       0     INTTYP=HONDO        GEOM  =INPUT   
     PLTORB=       F     MOLPLT=       F     RPAC  =       F
     AIMPAC=       0     FRIEND=             CITYP =NONE    
     DFTTYP=B3LYP   

     $SYSTEM OPTIONS
     ---------------
     KDIAG =       0     MEMORY=200000000     TIMLIM=  3600000.0 SEC.
     COREFL=       F     PTIME =        F     XDR   =       F
     BALTYP=NXTVAL       CBASE = E1371000     FBASE = E68B10C0

          ----------------
          PROPERTIES INPUT
          ----------------

     MOMENTS            FIELD           POTENTIAL          DENSITY
 IEMOM =       1   IEFLD =       0   IEPOT =       0   IEDEN =       0
 WHERE =COMASS     WHERE =NUCLEI     WHERE =NUCLEI     WHERE =NUCLEI  
 OUTPUT=BOTH       OUTPUT=BOTH       OUTPUT=BOTH       OUTPUT=BOTH    
 IEMINT=       0   IEFINT=       0                     IEDINT=       0
                                                       MORB  =       0


          ----------------   ------------------------------------
          DFT CODE OPTIONS   PROGRAM WRITTEN BY ALEX A. GRANOVSKY
          ----------------   ------------------------------------
          NRAD   =   63      LMAX   =  29 ( 302 POINTS PER SHELL)
          ANGPRN =    T      RADPRN =   T
          KAP    =   5.000   LMIN   =   7 (  26 POINTS PER SHELL)
          CUTOFF = 1.0E-10   CUTAO  = 1.0E-10
          CUTWGT = 1.0E-20   CUTORB = 1.0E-15
          CUTGG1 = 1.0E-13   CUTGG2 = 1.0E-13
          CUTGG3 = 1.0E-13   CUTGG4 = 1.0E-30
          B3LYP  =  NWCHEM   O3LYP  = DEFAULT 
          HFX    =  2.0000000000000000000E-01
          CPT2   =  0.0000000000000000000E+00
          SCS(S) =  1.0000000000000000000E+00
          SCS(T) =  1.0000000000000000000E+00



          EXTRAPOLATION IN EFFECT
          DAMPING IN EFFECT
          LEVEL SHIFTING IN EFFECT
          DIIS IN EFFECT

          ----------------------
          INTEGRAL INPUT OPTIONS
          ----------------------
 NOPK  =       1 NORDER=       0 SCHWRZ=       T

 ATTENTION! AO INTEGRALS WILL BE PACKED.
 THRESHOLD FOR PACKING PKTHR =  0.10000000D-05

     -------------------------------
     INTEGRAL TRANSFORMATION OPTIONS
     -------------------------------
     NWORD  =       0     CUTTRF = 1.0E-09
     MPTRAN =       0     DIRTRF =       T
     AOINTS =DUP          IREST  =       0

     ------------------------------------------
     THE POINT GROUP IS C1 , NAXIS= 0, ORDER= 1
     ------------------------------------------

     DIMENSIONS OF THE SYMMETRY SUBSPACES ARE
 A   = 163

 ..... DONE SETTING UP THE RUN .....

                         TIMING STATISTICS ON RANK 0:
 CPU        TIME:   STEP =      0.21 ,  TOTAL =        0.3 SECONDS (    0.0 MIN)
 WALL CLOCK TIME:   STEP =      1.04 ,  TOTAL =        1.0 SECONDS (    0.0 MIN)
 CPU UTILIZATION:   STEP =     20.21%,  TOTAL =      31.76%

          ********************
          1 ELECTRON INTEGRALS
          ********************
 ...... END OF ONE-ELECTRON INTEGRALS ......

                         TIMING STATISTICS ON RANK 0:
 CPU        TIME:   STEP =      0.00 ,  TOTAL =        0.3 SECONDS (    0.0 MIN)
 WALL CLOCK TIME:   STEP =      0.03 ,  TOTAL =        1.1 SECONDS (    0.0 MIN)
 CPU UTILIZATION:   STEP =      0.00%,  TOTAL =      30.91%

          -------------
          GUESS OPTIONS
          -------------
          GUESS =HUCKEL            NORB  =       0          NORDER=       0
          MIX   =       F          PRTMO =       F          SYMDEN=       F
          TOLZ  = 0.0E+00          TOLE  = 0.0E+00

 INITIAL GUESS ORBITALS GENERATED BY HUCKEL   ROUTINE.
 HUCKEL GUESS REQUIRES    200083 WORDS.

 LOG10 OF CONDITION NUMBER OF OVERLAP MATRIX IS:  5.44606530E+00

                    * * * WARNING * * *
 ------------------------------------------------------------------------------
 THE OVERLAP MATRIX HAS    3 EIGENVALUES BELOW 1.3E-04.
 THE SMALLEST OF THESE IS 4.77719E-05.
 THIS INDICATES A PARTIAL LINEAR DEPENDENCE IN YOUR ATOMIC BASIS.

 TO OBTAIN SCF CONVERGENCE MAY REQUIRE
 MORE ACCURATE INTEGRAL EVALUATION (INTTYP=HONDO, ICUT=11, ITOL=30 IN $CONTRL),
 MORE ACCURATE DIRECT SCF FOCK MATRIX FORMATION (FDIFF=.FALSE. IN $SCF), OR
 CHANGING CONVERGERS (DIIS=.T. SOSCF=.F. IN $SCF).

 EIGENVALUES BELOW 1.0D-07 PROBABLY WON'T CONVERGE.
 EIGENVALUES BETWEEN 1.0D-07 AND 1.0D-06 MAY REQUIRE
 TIGHTENING OF -NCONV- DENSITY CONVERGENCE IN $SCF.

 THE OVERALL DEGREES OF AOS LINEAR INDEPENDENCE ARE: 
   0.7073       -    F  11 YZ,   SHELL  70,   AO  157
   0.6932       -    F  11  Z,   SHELL  67,   AO  145
   0.6890       -    F  11  Y,   SHELL  67,   AO  144
   0.6857       -    F  11 XZ,   SHELL  70,   AO  156
   0.6802       -    F  11 XY,   SHELL  70,   AO  155
   0.6233       -    F  11  X,   SHELL  67,   AO  143
   0.6156       -    F  11 ZZ,   SHELL  70,   AO  154
   0.6155       -    F  11 YY,   SHELL  70,   AO  153
   0.5918       -    F  11 XX,   SHELL  70,   AO  152
   0.5852       -    F  11 YZ,   SHELL  71,   AO  163
   0.5472       -    H  10  Y,   SHELL  61,   AO  134
   0.5290       -    H  10  Z,   SHELL  61,   AO  135
   0.5048       -    F  11  S,   SHELL  63,   AO  139
   0.4751       -    H   5  Y,   SHELL  36,   AO   89
   0.4641       -    H   9  X,   SHELL  56,   AO  124
   0.4622       -    F  11 XZ,   SHELL  71,   AO  162
   0.4472       -    H   7  X,   SHELL  46,   AO  106
   0.4439       -    H   6  Z,   SHELL  41,   AO   99
   0.4422       -    H   7  Z,   SHELL  46,   AO  108
   0.4420       -    H   6  X,   SHELL  41,   AO   97
   0.4304       -    F  11 XY,   SHELL  71,   AO  161
   0.4271       -    F  11 ZZ,   SHELL  71,   AO  160
   0.4271       -    F  11 YY,   SHELL  71,   AO  159
   0.4264       -    H   5  Z,   SHELL  36,   AO   90
   0.4046       -    H   4  Y,   SHELL  31,   AO   80
   0.4019       -    C   2  X,   SHELL  14,   AO   30
   0.3976       -    H   4  X,   SHELL  31,   AO   79
   0.3725       -    H   9  Y,   SHELL  56,   AO  125
   0.3404       -    C   2 XX,   SHELL  17,   AO   39
   0.3391       -    H   8  Z,   SHELL  51,   AO  117
   0.3256       -    C   3 YY,   SHELL  26,   AO   65
   0.3199       -    H   4  Z,   SHELL  31,   AO   81
   0.3189       -    C   2  Z,   SHELL  14,   AO   32
   0.3176       -    C   2 XY,   SHELL  17,   AO   42
   0.3142       -    F  11  Z,   SHELL  68,   AO  148
   0.3135       -    C   2 XZ,   SHELL  17,   AO   43
   0.3111       -    C   1 XY,   SHELL   8,   AO   17
   0.3087       -    C   1  Z,   SHELL   5,   AO    7
   0.3039       -    C   3  Z,   SHELL  23,   AO   57
   0.3017       -    C   2  Y,   SHELL  14,   AO   31
   0.2953       -    C   2 YZ,   SHELL  17,   AO   44
   0.2865       -    H   9  Z,   SHELL  56,   AO  126
   0.2860       -    C   1  Y,   SHELL   5,   AO    6
   0.2839       -    H   6  Y,   SHELL  41,   AO   98
   0.2825       -    F  11  Y,   SHELL  68,   AO  147
   0.2812       -    C   1 YZ,   SHELL   8,   AO   19
   0.2795       -    C   1 XZ,   SHELL   8,   AO   18
   0.2783       -    C   3 XZ,   SHELL  26,   AO   68
   0.2761       -    H   5  X,   SHELL  36,   AO   88
   0.2714       -    C   1 ZZ,   SHELL   8,   AO   16
   0.2705       -    C   1  X,   SHELL   5,   AO    5
   0.2689       -    H   8  Y,   SHELL  51,   AO  116
   0.2661       -    C   3 XX,   SHELL  26,   AO   64
   0.2619       -    C   3  Y,   SHELL  23,   AO   56
   0.2556       -    C   3 ZZ,   SHELL  26,   AO   66
   0.2538       -    F  11 XX,   SHELL  71,   AO  158
   0.2520       -    C   2 ZZ,   SHELL  17,   AO   41
   0.2488       -    C   1 XX,   SHELL   8,   AO   14
   0.2486       -    H   7  Y,   SHELL  46,   AO  107
   0.2471       -    C   3 YZ,   SHELL  26,   AO   69
   0.2420       -    C   1 YY,   SHELL   8,   AO   15
   0.2418       -    C   2 YY,   SHELL  17,   AO   40
   0.2415       -    C   3 XY,   SHELL  26,   AO   67
   0.2385       -    H  10  X,   SHELL  61,   AO  133
   0.2366       -    C   3  X,   SHELL  23,   AO   55
   0.2321       -    H   8  X,   SHELL  51,   AO  115
   0.2074       -    F  11  S,   SHELL  64,   AO  140
   0.1776       -    C   1  S,   SHELL   1,   AO    1
   0.1626       -    H  10  S,   SHELL  58,   AO  130
   0.1600       -    C   3  S,   SHELL  19,   AO   51
   0.1458       -    C   2  S,   SHELL  10,   AO   26
   0.1118       -    F  11  Y,   SHELL  69,   AO  150
   0.1061       -    H   9  S,   SHELL  53,   AO  121
   0.1040       -    H   5  S,   SHELL  33,   AO   85
   0.1034       -    H   6  S,   SHELL  38,   AO   94
   0.1025       -    H   4  S,   SHELL  28,   AO   76
   0.1011       -    H   7  S,   SHELL  43,   AO  103
   0.9451E-01   -    F  11  X,   SHELL  68,   AO  146
   0.8468E-01   -    F  11  Z,   SHELL  69,   AO  151
   0.6308E-01   -    H   8  S,   SHELL  48,   AO  112
   0.6036E-01   -    C   1  S,   SHELL   2,   AO    2
   0.5352E-01   -    C   3  S,   SHELL  20,   AO   52
   0.5024E-01   -    C   2  S,   SHELL  11,   AO   27
   0.4877E-01   -    F  11  S,   SHELL  65,   AO  141
   0.3648E-01   -    H   5  Y,   SHELL  37,   AO   92
   0.3326E-01   -    H  10  Z,   SHELL  62,   AO  138
   0.3179E-01   -    H   9  X,   SHELL  57,   AO  127
   0.2955E-01   -    F  11  X,   SHELL  69,   AO  149
   0.2418E-01   -    H   5  Z,   SHELL  37,   AO   93
   0.2317E-01   -    H   6  Z,   SHELL  42,   AO  102
   0.2152E-01   -    H   6  X,   SHELL  42,   AO  100
   0.2025E-01   -    H  10  Y,   SHELL  62,   AO  137
   0.1935E-01   -    H   7  X,   SHELL  47,   AO  109
   0.1923E-01   -    C   1 XX,   SHELL   9,   AO   20
   0.1770E-01   -    H   4  Y,   SHELL  32,   AO   83
   0.1679E-01   -    H   7  Z,   SHELL  47,   AO  111
   0.1551E-01   -    C   1 XY,   SHELL   9,   AO   23
   0.1511E-01   -    H   4  X,   SHELL  32,   AO   82
   0.1377E-01   -    H   9  Y,   SHELL  57,   AO  128
   0.1202E-01   -    C   1 YY,   SHELL   9,   AO   21
   0.1141E-01   -    C   1 XZ,   SHELL   9,   AO   24
   0.1111E-01   -    H   8  Z,   SHELL  52,   AO  120
   0.1080E-01   -    H   8  Y,   SHELL  52,   AO  119
   0.1059E-01   -    C   3 XX,   SHELL  27,   AO   70
   0.1044E-01   -    C   2 XX,   SHELL  18,   AO   45
   0.9927E-02   -    H  10  S,   SHELL  60,   AO  132
   0.9645E-02   -    C   1 ZZ,   SHELL   9,   AO   22
   0.9497E-02   -    C   3 YY,   SHELL  27,   AO   71
   0.9478E-02   -    H   4  Z,   SHELL  32,   AO   84
   0.9454E-02   -    C   3 XY,   SHELL  27,   AO   73
   0.9153E-02   -    H   9  Z,   SHELL  57,   AO  129
   0.9076E-02   -    C   1  X,   SHELL   7,   AO   11
   0.8650E-02   -    C   1 YZ,   SHELL   9,   AO   25
   0.7642E-02   -    H   8  X,   SHELL  52,   AO  118
   0.7350E-02   -    C   3 YZ,   SHELL  27,   AO   75
   0.7250E-02   -    H  10  X,   SHELL  62,   AO  136
   0.7062E-02   -    C   3 XZ,   SHELL  27,   AO   74
   0.6792E-02   -    C   3 ZZ,   SHELL  27,   AO   72
   0.6674E-02   -    H   5  X,   SHELL  37,   AO   91
   0.6121E-02   -    H   6  Y,   SHELL  42,   AO  101
   0.5653E-02   -    H   5  S,   SHELL  35,   AO   87
   0.5637E-02   -    H   7  Y,   SHELL  47,   AO  110
   0.5481E-02   -    C   2 XY,   SHELL  18,   AO   48
   0.5108E-02   -    H   4  S,   SHELL  30,   AO   78
   0.4845E-02   -    C   2 XZ,   SHELL  18,   AO   49
   0.4617E-02   -    C   3  Y,   SHELL  25,   AO   62
   0.4127E-02   -    F  11  S,   SHELL  66,   AO  142
   0.3931E-02   -    C   2 YY,   SHELL  18,   AO   46
   0.3860E-02   -    C   1  Y,   SHELL   7,   AO   12
   0.3671E-02   -    H   9  S,   SHELL  55,   AO  123
   0.3492E-02   -    H   6  S,   SHELL  40,   AO   96
   0.3414E-02   -    C   2 ZZ,   SHELL  18,   AO   47
   0.3219E-02   -    C   1  Z,   SHELL   7,   AO   13
   0.2767E-02   -    C   1  X,   SHELL   6,   AO    8
   0.2733E-02   -    H  10  S,   SHELL  59,   AO  131
   0.2642E-02   -    C   3  X,   SHELL  25,   AO   61
   0.2631E-02   -    C   2  X,   SHELL  16,   AO   36
   0.2530E-02   -    C   3  Z,   SHELL  25,   AO   63
   0.2392E-02   -    C   2 YZ,   SHELL  18,   AO   50
   0.2109E-02   -    H   8  S,   SHELL  50,   AO  114
   0.2064E-02   -    H   7  S,   SHELL  45,   AO  105
   0.1571E-02   -    C   3  Y,   SHELL  24,   AO   59
   0.1148E-02   -    C   1  Y,   SHELL   6,   AO    9
   0.1003E-02   -    C   2  Y,   SHELL  15,   AO   34
   0.9641E-03   -    C   2  Y,   SHELL  16,   AO   37
   0.8990E-03   -    C   2  X,   SHELL  15,   AO   33
   0.8855E-03   -    C   2  Z,   SHELL  16,   AO   38
   0.8120E-03   -    C   3  X,   SHELL  24,   AO   58
   0.7271E-03   -    H   5  S,   SHELL  34,   AO   86
   0.6396E-03   -    H   4  S,   SHELL  29,   AO   77
   0.6280E-03   -    C   1  Z,   SHELL   6,   AO   10
   0.6210E-03   -    H   6  S,   SHELL  39,   AO   95
   0.5846E-03   -    C   3  Z,   SHELL  24,   AO   60
   0.5805E-03   -    H   9  S,   SHELL  54,   AO  122
   0.4794E-03   -    H   8  S,   SHELL  49,   AO  113
   0.4579E-03   -    C   1  S,   SHELL   3,   AO    3
   0.4206E-03   -    H   7  S,   SHELL  44,   AO  104
   0.3093E-03   -    C   2  S,   SHELL  12,   AO   28
   0.2797E-03   -    C   2  Z,   SHELL  15,   AO   35
   0.2448E-03   -    C   3  S,   SHELL  21,   AO   53
   0.2064E-03   -    C   1  S,   SHELL   4,   AO    4
   0.1329E-03   -    C   3  S,   SHELL  22,   AO   54
   0.8317E-04   -    C   2  S,   SHELL  13,   AO   29

 YOU MAY CONSIDER DROPPING ONE OR MORE AOS, STARTING FROM THE END OF THIS LIST.
 ------------------------------------------------------------------------------

 SYMMETRIES FOR INITIAL GUESS ORBITALS FOLLOW.   BOTH SET(S).
    17 ORBITALS ARE OCCUPIED (    4 CORE ORBITALS).
     5=A        6=A        7=A        8=A        9=A       10=A       11=A   
    12=A       13=A       14=A       15=A       16=A       17=A       18=A   
    19=A       20=A       21=A       22=A       23=A       24=A       25=A   
    26=A       27=A   
 ...... END OF INITIAL ORBITAL SELECTION ......

                         TIMING STATISTICS ON RANK 0:
 CPU        TIME:   STEP =      0.17 ,  TOTAL =        0.5 SECONDS (    0.0 MIN)
 WALL CLOCK TIME:   STEP =      0.34 ,  TOTAL =        1.4 SECONDS (    0.0 MIN)
 CPU UTILIZATION:   STEP =     49.74%,  TOTAL =      35.48%

          --------------------
          2 ELECTRON INTEGRALS
          --------------------

 DIRECT SCF METHOD SKIPS INTEGRAL STORAGE ON DISK.
 DIRECT TRANSFORMATION SKIPS AO INTEGRAL STORAGE ON DISK.
 SCHWARZ INEQUALITY OVERHEAD:     13366 INTEGRALS, CPU TIME=        0.00
 ...... END OF TWO-ELECTRON INTEGRALS .....

                         TIMING STATISTICS ON RANK 0:
 CPU        TIME:   STEP =      0.00 ,  TOTAL =        0.5 SECONDS (    0.0 MIN)
 WALL CLOCK TIME:   STEP =      0.02 ,  TOTAL =        1.4 SECONDS (    0.0 MIN)
 CPU UTILIZATION:   STEP =      0.00%,  TOTAL =      34.94%

          --------------------------
          R-B3LYP    SCF CALCULATION
          --------------------------

     NUCLEAR ENERGY =       119.7619743708
     MAXIT =  100     NPUNCH=    2
     EXTRAP=T  DAMP=T  SHIFT=T  RSTRCT=F  DIIS=T  DEM=F  SOSCF=F
     DENSITY CONV=  2.00E-05
     MEMORY REQUIRED FOR SCF STEP=    912929 WORDS.

 XC FUNCTIONAL: SLATER + BECKE 88 + HF EXCHANGE, LYP 88 + VWN 1 RPA CORRELATION 


 DIRECT SCF CALCULATION, SCHWRZ=T   FDIFF=F
 SCHWARZ INEQUALITY OVERHEAD:     13366 INTEGRALS, CPU TIME=        0.00

                                                                              NONZERO    BLOCKS
 ITER EX DEM  TOTAL ENERGY      E CHANGE  DENSITY CHANGE    DIIS ERROR      INTEGRALS   SKIPPED
          * * *   INITIATING DIIS PROCEDURE   * * *
   1  0  0  -217.721638423  -217.721638423   1.562559281   0.408163893       91341316     19938
   2  1  0  -216.142751799     1.578886624   0.544396114   0.368009409       91364466     19953
   3  2  0  -218.247820918    -2.105069119   0.111459072   0.038145957       91354169     20196
   4  3  0  -218.263026401    -0.015205483   0.085839673   0.052572878       91347964     20277
   5  4  0  -218.290333771    -0.027307370   0.029633735   0.008461801       91350477     20252
   6  5  0  -218.291687618    -0.001353847   0.014923481   0.004574411       91350466     20263
   7  6  0  -218.292242644    -0.000555026   0.002148115   0.001173758       91350501     20251
   8  7  0  -218.292267774    -0.000025130   0.000456927   0.000206455       91350578     20251
   9  8  0  -218.292268887    -0.000001113   0.000317562   0.000068183       91350557     20253
  10  9  0  -218.292269063    -0.000000176   0.000056390   0.000024605       91350557     20253
  11 10  0  -218.292269075    -0.000000013   0.000013491   0.000006393       91350557     20253
  12 11  0  -218.292269076    -0.000000001   0.000006701   0.000003039       91350557     20253

          -----------------
          DENSITY CONVERGED
          -----------------
     TIME TO FORM FOCK OPERATORS =      11.57 SECONDS (       0.96 SEC/ITER)
     OF THE ABOVE TIME, DFT PART =       1.43 SECONDS (       0.12 SEC/ITER)
     FOCK TIME ON FIRST ITERATION=       0.86, LAST ITERATION=       1.17
     TIME TO SOLVE SCF EQUATIONS =       0.41 SECONDS (       0.03 SEC/ITER)

 FINAL ENERGY IS     -218.2922690765 AFTER  12 ITERATIONS
 DFT EXCHANGE + CORRELATION ENERGY IS      -23.7325226578
 INTEGRATED TOTAL ELECTRON NUMBER  IS       33.9999449073


          ------------
          EIGENVECTORS
          ------------

                      1          2          3          4          5
                  -24.6224   -10.2580   -10.2006   -10.1981    -1.0731
                     A          A          A          A          A   
    1  C   1  S   0.000035  -0.001480   1.010852  -0.004328  -0.000388
    2  C   1  S   0.000058   0.000978   0.024455   0.000867   0.002935
    3  C   1  S   0.000167  -0.020255  -0.086967  -0.011528  -0.014032
    4  C   1  S   0.008953  -0.016194  -0.026627  -0.008976  -0.021369
    5  C   1  X  -0.000007  -0.000041  -0.000032  -0.000053   0.000359
    6  C   1  Y   0.000074   0.000083  -0.000124   0.000116   0.000030
    7  C   1  Z   0.000001  -0.000274   0.000539  -0.000228  -0.001748
    8  C   1  X  -0.000845   0.003152   0.001865   0.000381   0.004804
    9  C   1  Y  -0.004549  -0.012208  -0.012596  -0.006471   0.025358
   10  C   1  Z   0.000611   0.019743   0.021415   0.011432   0.000218
   11  C   1  X  -0.000660   0.001351   0.000080   0.000560  -0.000501
   12  C   1  Y  -0.000643  -0.000120  -0.004111  -0.003240   0.004711
   13  C   1  Z  -0.002277   0.006602   0.003495   0.002839   0.005801
   14  C   1 XX  -0.000016  -0.000556   0.000449   0.000149  -0.000037
   15  C   1 YY  -0.000047   0.000121   0.000088  -0.000349   0.000174
   16  C   1 ZZ   0.000063   0.000436  -0.000537   0.000200  -0.000138
   17  C   1 XY  -0.000037   0.000088   0.000012  -0.000280   0.000165
   18  C   1 XZ  -0.000127   0.000076  -0.000173   0.000089   0.000871
   19  C   1 YZ   0.000185  -0.000822   0.000741   0.000201  -0.001045
   20  C   1 XX   0.000408   0.003366   0.002904   0.001980  -0.003035
   21  C   1 YY  -0.000105  -0.001047   0.000301   0.001162   0.000244
   22  C   1 ZZ  -0.000303  -0.002319  -0.003205  -0.003141   0.002791
   23  C   1 XY   0.000268  -0.001304   0.000994  -0.000092  -0.000830
   24  C   1 XZ   0.001092  -0.000911  -0.000487  -0.000980  -0.006337
   25  C   1 YZ   0.000296   0.005041   0.004162   0.001928  -0.000849
   26  C   2  S  -0.000011  -1.011102  -0.002222   0.005120  -0.001692
   27  C   2  S   0.000009  -0.024439  -0.000427   0.000562   0.009747
   28  C   2  S   0.007055   0.098965   0.010971  -0.029241  -0.002979
   29  C   2  S  -0.032851   0.059934  -0.007985  -0.007170   0.051020
   30  C   2  X  -0.000040  -0.000127   0.000032  -0.000433   0.001713
   31  C   2  Y   0.000008  -0.000288   0.000229  -0.000134  -0.003695
   32  C   2  Z  -0.000019   0.000374  -0.000101  -0.000291  -0.005374
   33  C   2  X  -0.004476  -0.013633   0.009641   0.019805   0.016498
   34  C   2  Y  -0.003432  -0.015995  -0.015159   0.002317   0.003813
   35  C   2  Z  -0.003096  -0.003287   0.034015   0.032173  -0.001863
   36  C   2  X   0.002654  -0.006532   0.003873   0.003996  -0.006168
   37  C   2  Y   0.007427  -0.013234   0.000006  -0.000628  -0.012921
   38  C   2  Z   0.003393  -0.002434   0.009697   0.008465  -0.008020
   39  C   2 XX  -0.000075   0.000497   0.000350   0.000119   0.000252
   40  C   2 YY   0.000055  -0.000678   0.000186  -0.000808  -0.000632
   41  C   2 ZZ   0.000020   0.000181  -0.000536   0.000689   0.000380
   42  C   2 XY   0.000198  -0.000792   0.000295   0.000280  -0.001215
   43  C   2 XZ   0.000227  -0.000537  -0.000054   0.001075  -0.001360
   44  C   2 YZ  -0.000185  -0.000227   0.000752   0.000155   0.001716
   45  C   2 XX  -0.000103  -0.002931  -0.004114  -0.002491   0.000269
   46  C   2 YY  -0.002724  -0.004352   0.002525   0.003738   0.007396
   47  C   2 ZZ   0.002827   0.007283   0.001589  -0.001247  -0.007665
   48  C   2 XY  -0.001255   0.002752  -0.001256  -0.001908  -0.001736
   49  C   2 XZ   0.002168   0.008372  -0.003690  -0.005445  -0.011577
   50  C   2 YZ   0.000198  -0.002500  -0.007110  -0.005098  -0.004668
   51  C   3  S   0.000153  -0.004402  -0.005434  -1.011716  -0.001763
   52  C   3  S   0.000254   0.000788  -0.001069  -0.026067   0.008877
   53  C   3  S  -0.008211  -0.029348   0.020929   0.096084   0.028333
   54  C   3  S   0.020158  -0.028761   0.020093   0.033040  -0.028103
   55  C   3  X   0.000012   0.000188  -0.000215   0.000867   0.006678
   56  C   3  Y   0.000017   0.000196  -0.000097   0.000948  -0.001858
   57  C   3  Z   0.000044   0.000451  -0.000224  -0.000163   0.000720
   58  C   3  X  -0.002694  -0.015268   0.010225   0.018563   0.008578
   59  C   3  Y  -0.002848  -0.008206   0.007082   0.005238  -0.003680
   60  C   3  Z  -0.007529  -0.022118   0.010314   0.020498   0.027985
   61  C   3  X   0.002504  -0.003720   0.005118   0.003332  -0.003676
   62  C   3  Y  -0.000852   0.000576   0.002071   0.001524  -0.002770
   63  C   3  Z   0.003446  -0.007450   0.004654   0.003646  -0.001816
   64  C   3 XX   0.000059   0.000237   0.000138  -0.000083   0.000989
   65  C   3 YY   0.000060  -0.000562   0.000156  -0.000094  -0.000644
   66  C   3 ZZ  -0.000118   0.000325  -0.000295   0.000177  -0.000345
   67  C   3 XY  -0.000078   0.000036   0.000499  -0.001611  -0.001215
   68  C   3 XZ  -0.000153   0.001149   0.000011  -0.000258   0.000236
   69  C   3 YZ  -0.000062   0.000744   0.000170   0.001005   0.000921
   70  C   3 XX  -0.002060   0.000830  -0.000191   0.002069   0.006534
   71  C   3 YY   0.001803   0.001730  -0.000719  -0.004924  -0.005147
   72  C   3 ZZ   0.000257  -0.002560   0.000910   0.002855  -0.001387
   73  C   3 XY  -0.001531  -0.003497   0.000888   0.001041   0.004896
   74  C   3 XZ  -0.000692  -0.004999   0.001593   0.008105  -0.003168
   75  C   3 YZ  -0.000820  -0.001715   0.001179   0.002601  -0.000225
   76  H   4  S  -0.000044   0.000516  -0.000959  -0.000337   0.000814
   77  H   4  S   0.003869  -0.008591   0.011815  -0.004128  -0.020884
   78  H   4  S   0.000396  -0.003045   0.001114  -0.000076  -0.005358
   79  H   4  X  -0.000017   0.000061  -0.000997   0.000034   0.000240
   80  H   4  Y   0.000077   0.000028   0.000954   0.000052  -0.000572
   81  H   4  Z   0.000094  -0.000371   0.001282   0.000010  -0.000601
   82  H   4  X   0.000304  -0.000289   0.001666   0.000072  -0.002809
   83  H   4  Y  -0.000326   0.001087  -0.000873   0.000019   0.003094
   84  H   4  Z  -0.001011   0.001215  -0.004115   0.001411   0.004049
   85  H   5  S   0.000039   0.000572  -0.000959  -0.000135   0.001377
   86  H   5  S  -0.000728  -0.012211   0.013733  -0.002821   0.005497
   87  H   5  S   0.000792  -0.001938   0.000646  -0.002159   0.002776
   88  H   5  X  -0.000059  -0.000163   0.001709   0.000058   0.000146
   89  H   5  Y   0.000034   0.000169  -0.000069   0.000139  -0.000306
   90  H   5  Z  -0.000088  -0.000251   0.000405  -0.000017   0.000289
   91  H   5  X   0.000724   0.002874  -0.004691   0.000193  -0.002440
   92  H   5  Y   0.000111  -0.000032   0.001132   0.000429   0.000750
   93  H   5  Z  -0.000604   0.001766  -0.003049   0.000928   0.004396
   94  H   6  S  -0.000112   0.000531  -0.000775   0.000312   0.001376
   95  H   6  S  -0.004671  -0.000721   0.012139  -0.004333   0.040924
   96  H   6  S  -0.000850   0.001056  -0.001278  -0.001853   0.005970
   97  H   6  X   0.000028  -0.000049  -0.000624  -0.000036  -0.000098
   98  H   6  Y   0.000049   0.000133  -0.001601   0.000247   0.000062
   99  H   6  Z  -0.000073  -0.000180  -0.000373  -0.000146   0.000474
  100  H   6  X  -0.000054  -0.000410   0.001695  -0.000360   0.003626
  101  H   6  Y  -0.001697   0.000251   0.004780  -0.000718   0.014475
  102  H   6  Z  -0.000417   0.000734  -0.000825  -0.000581   0.000333
  103  H   7  S   0.000122   0.001138  -0.000525   0.000538   0.002947
  104  H   7  S   0.011536  -0.008099   0.008439  -0.009051  -0.027085
  105  H   7  S  -0.003340   0.006301  -0.001137  -0.000587   0.006903
  106  H   7  X   0.000069  -0.000593  -0.000068  -0.000247  -0.000371
  107  H   7  Y   0.000134  -0.001616   0.000236  -0.000103  -0.000678
  108  H   7  Z  -0.000011  -0.000064  -0.000335  -0.000213   0.000307
  109  H   7  X  -0.000331   0.000013  -0.000580   0.001069   0.002084
  110  H   7  Y  -0.002508   0.004136  -0.002726   0.002469   0.007393
  111  H   7  Z  -0.000987  -0.000310   0.000066   0.000279   0.008940
  112  H   8  S  -0.000133   0.000849  -0.000489   0.003289   0.003601
  113  H   8  S   0.006011  -0.010735   0.008165  -0.018687  -0.031616
  114  H   8  S  -0.000324  -0.000697   0.003618  -0.000572  -0.002597
  115  H   8  X  -0.000174   0.000091  -0.000266   0.001635   0.001126
  116  H   8  Y   0.000128  -0.000007  -0.000138   0.001376   0.000119
  117  H   8  Z   0.000061   0.000519  -0.000063  -0.000285  -0.000384
  118  H   8  X   0.001575  -0.002532   0.001544  -0.004394  -0.006099
  119  H   8  Y   0.002408  -0.003027   0.001575  -0.004812  -0.007837
  120  H   8  Z   0.000600  -0.000588  -0.000697   0.001919  -0.005338
  121  H   9  S   0.000063   0.000661  -0.000115   0.001101   0.002975
  122  H   9  S  -0.007668  -0.007888  -0.001737  -0.011929   0.039558
  123  H   9  S   0.001663  -0.003106   0.001629  -0.000767   0.003297
  124  H   9  X   0.000139   0.000265  -0.000158   0.000051  -0.000413
  125  H   9  Y  -0.000017   0.000072  -0.000123  -0.000997  -0.000613
  126  H   9  Z   0.000074   0.000402  -0.000142   0.001423   0.000582
  127  H   9  X   0.000441  -0.000268  -0.000740   0.000418  -0.001709
  128  H   9  Y   0.001683   0.001219  -0.000126   0.003457  -0.009740
  129  H   9  Z  -0.001925  -0.002295  -0.000766  -0.003672   0.011332
  130  H  10  S   0.001018   0.000089  -0.000067  -0.000936   0.082054
  131  H  10  S   0.006416  -0.008400   0.002153  -0.004831  -0.070820
  132  H  10  S   0.000942  -0.001158   0.000342   0.000214  -0.012524
  133  H  10  X   0.001224   0.000176   0.000052   0.000734   0.012037
  134  H  10  Y   0.000000  -0.000339  -0.000010  -0.000457   0.000979
  135  H  10  Z  -0.000152  -0.000457  -0.000132  -0.000335   0.000696
  136  H  10  X   0.007265   0.002048  -0.000059   0.001165  -0.030092
  137  H  10  Y   0.000892  -0.001680   0.000658  -0.001830  -0.011158
  138  H  10  Z   0.000861  -0.001549   0.000276  -0.002045  -0.008681
  139  F  11  S   1.003485  -0.000072   0.000018  -0.000021  -0.005868
  140  F  11  S   0.007516  -0.000125   0.000036  -0.000043   0.487962
  141  F  11  S  -0.013076   0.000622  -0.000056   0.000273   0.545374
  142  F  11  S  -0.000994  -0.000627  -0.000198  -0.000844   0.090658
  143  F  11  X  -0.000788  -0.000039  -0.000019   0.000000  -0.038651
  144  F  11  Y  -0.000016  -0.000024  -0.000001  -0.000028   0.000045
  145  F  11  Z   0.000034  -0.000016   0.000032  -0.000014   0.002690
  146  F  11  X   0.003091  -0.000188   0.000091   0.000003  -0.031882
  147  F  11  Y  -0.000069   0.000308   0.000010   0.000242   0.001702
  148  F  11  Z  -0.000248   0.000351  -0.000095   0.000160   0.003623
  149  F  11  X   0.001004  -0.000272   0.000261   0.000349  -0.017211
  150  F  11  Y   0.000628   0.000362   0.000017   0.000326   0.000110
  151  F  11  Z   0.000978  -0.000038   0.000184   0.000208   0.000493
  152  F  11 XX   0.000119   0.000056  -0.000010  -0.000001   0.003874
  153  F  11 YY  -0.000037  -0.000052  -0.000040  -0.000007  -0.002001
  154  F  11 ZZ  -0.000082  -0.000004   0.000050   0.000008  -0.001874
  155  F  11 XY   0.000017  -0.000010   0.000003   0.000029   0.000418
  156  F  11 XZ   0.000016  -0.000037  -0.000014   0.000024   0.000008
  157  F  11 YZ  -0.000038   0.000033  -0.000009   0.000049   0.000210
  158  F  11 XX  -0.000927  -0.000208   0.000020  -0.000138   0.003606
  159  F  11 YY   0.000399   0.000162   0.000149   0.000103  -0.001798
  160  F  11 ZZ   0.000528   0.000047  -0.000169   0.000035  -0.001809
  161  F  11 XY  -0.000045  -0.000062  -0.000020  -0.000187  -0.000195
  162  F  11 XZ   0.000005  -0.000008   0.000042  -0.000119  -0.000493
  163  F  11 YZ   0.000110  -0.000056   0.000037  -0.000155  -0.000201

                      6          7          8          9         10
                   -0.8365    -0.7362    -0.6172    -0.5036    -0.4899
                     A          A          A          A          A   
    1  C   1  S   0.014038  -0.017340  -0.003062   0.000475  -0.000587
    2  C   1  S  -0.199345   0.299891   0.132940  -0.028207   0.027249
    3  C   1  S   0.020890   0.112233   0.003527   0.201443  -0.105567
    4  C   1  S  -0.066437   0.025374  -0.059590  -0.056180   0.026757
    5  C   1  X   0.010240   0.008745  -0.014090  -0.093229   0.031867
    6  C   1  Y  -0.032486   0.009398  -0.099892  -0.049095  -0.212621
    7  C   1  Z   0.052188   0.019152   0.096652  -0.219918   0.043531
    8  C   1  X  -0.010915  -0.014957   0.019763   0.003501   0.006513
    9  C   1  Y  -0.011494   0.051851   0.013694   0.089389   0.025863
   10  C   1  Z  -0.012677  -0.096570  -0.005786  -0.088339   0.069415
   11  C   1  X  -0.002482   0.003630  -0.002465  -0.012413   0.009617
   12  C   1  Y  -0.021760   0.016497   0.003306  -0.011140   0.014596
   13  C   1  Z   0.019470  -0.022860  -0.000537   0.012679   0.000676
   14  C   1 XX   0.005963  -0.000801   0.005913  -0.007831   0.003948
   15  C   1 YY   0.001025   0.001064  -0.001583  -0.000741  -0.003652
   16  C   1 ZZ  -0.006989  -0.000263  -0.004331   0.008572  -0.000296
   17  C   1 XY   0.001329   0.000226   0.000365   0.002177   0.004094
   18  C   1 XZ  -0.002041  -0.002063   0.000621   0.005432   0.002953
   19  C   1 YZ   0.008894  -0.002037   0.011710  -0.005122   0.008401
   20  C   1 XX   0.002850  -0.012594  -0.003067   0.020167  -0.002291
   21  C   1 YY   0.002825   0.001388   0.002395  -0.008727   0.009432
   22  C   1 ZZ  -0.005674   0.011205   0.000673  -0.011440  -0.007141
   23  C   1 XY  -0.003095  -0.001697   0.001050  -0.010390  -0.019765
   24  C   1 XZ  -0.002622   0.009144  -0.027640  -0.036708  -0.000546
   25  C   1 YZ  -0.004579  -0.024808  -0.024063  -0.022159  -0.018183
   26  C   2  S   0.022413  -0.000411   0.004257   0.000005   0.000541
   27  C   2  S  -0.288282  -0.010615  -0.269824   0.072724  -0.033396
   28  C   2  S  -0.175879   0.079977  -0.314558   0.273299   0.017296
   29  C   2  S   0.003020  -0.046908   0.385747   0.039951   0.105078
   30  C   2  X   0.046755   0.074279  -0.062454  -0.111078  -0.038449
   31  C   2  Y   0.041539  -0.026213  -0.138620  -0.270540  -0.098085
   32  C   2  Z   0.015648   0.172703   0.004022   0.011683  -0.259021
   33  C   2  X   0.032657  -0.024638   0.053539  -0.106317   0.082606
   34  C   2  Y   0.097780  -0.003945   0.071594  -0.062036   0.015955
   35  C   2  Z  -0.039082  -0.062373   0.094432  -0.174099  -0.036199
   36  C   2  X   0.021416   0.006890  -0.040478   0.027938   0.000328
   37  C   2  Y   0.021791   0.014046  -0.034578   0.001166   0.052386
   38  C   2  Z   0.032280  -0.012413  -0.042427   0.049609  -0.081907
   39  C   2 XX   0.004260  -0.008381   0.003528   0.003238  -0.006884
   40  C   2 YY   0.005379   0.004589  -0.007976   0.001321  -0.003029
   41  C   2 ZZ  -0.009639   0.003792   0.004448  -0.004559   0.009913
   42  C   2 XY  -0.002944  -0.004620  -0.000829   0.002520  -0.009877
   43  C   2 XZ  -0.010834  -0.008775   0.005090  -0.001927  -0.000489
   44  C   2 YZ   0.002203  -0.016176  -0.001818   0.002795   0.001774
   45  C   2 XX   0.003368   0.001478  -0.006645   0.006784  -0.027374
   46  C   2 YY   0.029051  -0.006351   0.083764   0.064041   0.086511
   47  C   2 ZZ  -0.032420   0.004873  -0.077120  -0.070826  -0.059136
   48  C   2 XY   0.007879  -0.000657   0.074867   0.065959  -0.016814
   49  C   2 XZ  -0.002188   0.017926  -0.040965  -0.017799  -0.035703
   50  C   2 YZ   0.028427   0.036227  -0.012006   0.075266  -0.059669
   51  C   3  S   0.022615   0.022094  -0.009629   0.004963   0.000582
   52  C   3  S  -0.231466  -0.249721   0.156403  -0.049634   0.005343
   53  C   3  S  -0.047724  -0.102738   0.001343  -0.163269   0.402351
   54  C   3  S   0.104399   0.090378  -0.388013   0.118161   0.041657
   55  C   3  X  -0.040284   0.007995  -0.172659   0.042632   0.310988
   56  C   3  Y  -0.001869   0.005748  -0.123695  -0.176183   0.166472
   57  C   3  Z  -0.073388  -0.007134  -0.084937   0.261785  -0.027217
   58  C   3  X  -0.073979  -0.159482   0.183256  -0.019055   0.019175
   59  C   3  Y  -0.023902  -0.055287   0.136084   0.071876  -0.127099
   60  C   3  Z   0.000977  -0.063356   0.016337  -0.128775   0.123087
   61  C   3  X   0.003901  -0.014991  -0.025049   0.045734  -0.043980
   62  C   3  Y  -0.012642  -0.027513   0.021205   0.042711  -0.096033
   63  C   3  Z   0.026724   0.019791  -0.081438  -0.016728   0.055498
   64  C   3 XX  -0.001985  -0.003826   0.000586   0.005828   0.004083
   65  C   3 YY   0.005370  -0.000312   0.005668  -0.005140  -0.008220
   66  C   3 ZZ  -0.003385   0.004138  -0.006254  -0.000688   0.004136
   67  C   3 XY  -0.000142  -0.002926  -0.000324  -0.003131  -0.014420
   68  C   3 XZ  -0.008600  -0.000309  -0.012739   0.004424   0.007521
   69  C   3 YZ  -0.005294  -0.003602  -0.007419   0.004176  -0.002611
   70  C   3 XX  -0.008489  -0.016808   0.025655  -0.053420   0.034260
   71  C   3 YY   0.005482   0.028623  -0.039838   0.039434   0.006250
   72  C   3 ZZ   0.003007  -0.011815   0.014183   0.013986  -0.040510
   73  C   3 XY   0.028717   0.033003  -0.037301  -0.003250   0.051422
   74  C   3 XZ  -0.017283  -0.042801   0.055703  -0.052737  -0.047894
   75  C   3 YZ  -0.018306  -0.031926   0.060858  -0.061948   0.006624
   76  H   4  S  -0.085506   0.162935   0.098174  -0.128390  -0.044661
   77  H   4  S   0.018238   0.087176   0.059637  -0.111306  -0.060366
   78  H   4  S  -0.003542   0.010634   0.003138  -0.014808   0.012124
   79  H   4  X  -0.005397   0.010798   0.005438  -0.008463  -0.000369
   80  H   4  Y   0.004988  -0.008889  -0.007179   0.003433  -0.006246
   81  H   4  Z   0.009831  -0.013375  -0.005823   0.001118   0.003798
   82  H   4  X   0.003516   0.015299   0.014883  -0.002981  -0.001687
   83  H   4  Y   0.000905  -0.016711  -0.002163   0.014300   0.000888
   84  H   4  Z  -0.006140  -0.012695  -0.016370   0.022627   0.011994
   85  H   5  S  -0.079196   0.158241   0.088176  -0.137862   0.065942
   86  H   5  S   0.015902   0.070820   0.083890  -0.041129   0.028694
   87  H   5  S  -0.000269   0.002318   0.009566   0.002406   0.005391
   88  H   5  X   0.010935  -0.019133  -0.010372   0.008231  -0.004416
   89  H   5  Y  -0.000994   0.001385  -0.001728  -0.002945  -0.006420
   90  H   5  Z   0.004566  -0.004605   0.000188  -0.002709  -0.001337
   91  H   5  X  -0.002013  -0.022796  -0.031900  -0.005192  -0.003122
   92  H   5  Y   0.004526  -0.001126   0.004394   0.001456   0.008844
   93  H   5  Z  -0.004326  -0.003943   0.000004   0.011012  -0.004865
   94  H   6  S  -0.081863   0.140933   0.133143   0.067760   0.159265
   95  H   6  S  -0.056571   0.052958   0.028158   0.054258   0.175505
   96  H   6  S  -0.011122   0.017870   0.011310  -0.002933   0.018094
   97  H   6  X  -0.004040   0.007009   0.004230  -0.001699   0.006480
   98  H   6  Y  -0.011566   0.016936   0.009851   0.001258   0.006701
   99  H   6  Z  -0.001251   0.003090   0.004594  -0.007241   0.002990
  100  H   6  X  -0.008554   0.005095  -0.001727  -0.001382   0.010654
  101  H   6  Y  -0.022400   0.016363  -0.002345  -0.003977   0.046993
  102  H   6  Z  -0.005271   0.005252   0.000443  -0.002174  -0.006993
  103  H   7  S  -0.112328   0.001776  -0.255549  -0.179244  -0.125115
  104  H   7  S  -0.116918  -0.013564  -0.321542  -0.204784  -0.235060
  105  H   7  S  -0.017151  -0.015118   0.007995  -0.026599  -0.042797
  106  H   7  X   0.006127   0.002274   0.005386   0.001452   0.003628
  107  H   7  Y   0.013417  -0.000485   0.017531   0.004055   0.003825
  108  H   7  Z   0.001142   0.003619   0.001425   0.000798  -0.004456
  109  H   7  X   0.013372   0.003475   0.003939   0.003028   0.035416
  110  H   7  Y   0.020037   0.005755   0.057170   0.022178   0.028754
  111  H   7  Z  -0.003576  -0.016919   0.012528  -0.007131   0.043724
  112  H   8  S  -0.134463  -0.176044   0.264967   0.049988  -0.290122
  113  H   8  S  -0.135918  -0.281757   0.471743   0.159684  -0.568790
  114  H   8  S  -0.010882  -0.049998   0.040047   0.057053  -0.109681
  115  H   8  X  -0.012448  -0.013127   0.011690   0.003208  -0.003760
  116  H   8  Y  -0.009911  -0.011754   0.010723  -0.003389  -0.008967
  117  H   8  Z  -0.001560   0.001352  -0.005207   0.006736   0.000058
  118  H   8  X  -0.018019  -0.047947   0.082562   0.016746  -0.079847
  119  H   8  Y  -0.010795  -0.025842   0.034126   0.042837  -0.060010
  120  H   8  Z  -0.008070  -0.014286   0.022721  -0.039876  -0.018619
  121  H   9  S  -0.081448  -0.125297   0.093713  -0.281260   0.093301
  122  H   9  S  -0.001296  -0.058625   0.059929  -0.394064   0.243318
  123  H   9  S   0.018450   0.025885  -0.038370  -0.037719   0.073499
  124  H   9  X  -0.001582   0.000394  -0.004101   0.000208   0.008142
  125  H   9  Y   0.007555   0.010730  -0.009975   0.006601   0.002023
  126  H   9  Z  -0.011999  -0.013965   0.007425  -0.009100   0.002820
  127  H   9  X  -0.005826  -0.012535   0.016719  -0.008711  -0.027635
  128  H   9  Y  -0.001864  -0.000591   0.011664   0.040268  -0.044347
  129  H   9  Z   0.006921  -0.010303   0.009467  -0.063772   0.045883
  130  H  10  S  -0.039013  -0.038763   0.006802   0.034524   0.164025
  131  H  10  S   0.054416   0.046710  -0.039149  -0.004965   0.042531
  132  H  10  S   0.002372  -0.011690   0.000040  -0.012528  -0.016461
  133  H  10  X   0.004584   0.004884  -0.003878  -0.000770   0.004876
  134  H  10  Y  -0.004105  -0.004146  -0.001148  -0.001027   0.010232
  135  H  10  Z  -0.003711  -0.001933  -0.001666   0.006459   0.006810
  136  H  10  X  -0.002516  -0.000417   0.001866   0.008822   0.008638
  137  H  10  Y   0.009502   0.009519  -0.002680  -0.002012  -0.002050
  138  H  10  Z   0.011077   0.007121  -0.002538  -0.001921  -0.004662
  139  F  11  S   0.000332   0.000417  -0.000605  -0.000510  -0.001109
  140  F  11  S   0.034056   0.015795   0.002791  -0.009027  -0.048740
  141  F  11  S   0.037881   0.017458   0.008890  -0.010355  -0.066253
  142  F  11  S  -0.009594  -0.021156   0.015923  -0.017083  -0.058288
  143  F  11  X   0.012336   0.013896   0.000261  -0.029193  -0.166669
  144  F  11  Y  -0.004029  -0.002397  -0.009752  -0.009425   0.015744
  145  F  11  Z  -0.005381   0.001372  -0.008473   0.014791   0.017855
  146  F  11  X   0.005867   0.008966  -0.003825  -0.017688  -0.090726
  147  F  11  Y  -0.001528  -0.001750  -0.003160  -0.003580   0.010162
  148  F  11  Z  -0.002888  -0.000313  -0.002010   0.008598   0.010553
  149  F  11  X   0.007853   0.011036  -0.014238   0.001765   0.003195
  150  F  11  Y  -0.001704  -0.000696  -0.002365  -0.005210  -0.004379
  151  F  11  Z  -0.000948  -0.004375  -0.002664   0.000418  -0.006796
  152  F  11 XX  -0.000537  -0.000753   0.000324   0.000585   0.003421
  153  F  11 YY   0.000354   0.000205  -0.000144  -0.000486  -0.001914
  154  F  11 ZZ   0.000183   0.000547  -0.000181  -0.000099  -0.001507
  155  F  11 XY   0.000374   0.000241   0.000332   0.000431  -0.000357
  156  F  11 XZ   0.000395  -0.000061   0.000350  -0.000590  -0.000516
  157  F  11 YZ  -0.000200  -0.000042  -0.000416  -0.000072  -0.000096
  158  F  11 XX   0.000588   0.000081   0.000523   0.000917  -0.000232
  159  F  11 YY  -0.000433   0.000407  -0.000441  -0.000157   0.001053
  160  F  11 ZZ  -0.000154  -0.000488  -0.000082  -0.000760  -0.000822
  161  F  11 XY  -0.000705  -0.000419  -0.000385  -0.001108  -0.000396
  162  F  11 XZ  -0.000307   0.000433  -0.000798   0.000417  -0.000354
  163  F  11 YZ   0.000487   0.000155   0.001155   0.000305   0.000556

                     11         12         13         14         15
                   -0.4568    -0.4293    -0.4029    -0.3960    -0.3345
                     A          A          A          A          A   
    1  C   1  S   0.001480   0.000578   0.002123   0.000545   0.000113
    2  C   1  S   0.004162  -0.004261  -0.017281  -0.036054   0.008641
    3  C   1  S  -0.136879  -0.018542  -0.224807  -0.136563   0.004006
    4  C   1  S   0.098720  -0.086942  -0.046743   0.075348   0.016963
    5  C   1  X  -0.331623  -0.147440   0.241642  -0.055099   0.060180
    6  C   1  Y  -0.010691   0.263110   0.106348  -0.257426  -0.012636
    7  C   1  Z   0.157531   0.111602   0.267526   0.152428  -0.035505
    8  C   1  X   0.025226   0.017277  -0.025694   0.045830  -0.005862
    9  C   1  Y  -0.049545  -0.020314  -0.158956  -0.022806   0.000707
   10  C   1  Z   0.111672  -0.034899   0.148527   0.140925   0.014234
   11  C   1  X   0.024415   0.011292  -0.016818  -0.007275  -0.002577
   12  C   1  Y  -0.015643  -0.043644  -0.033691   0.040500   0.008753
   13  C   1  Z  -0.024993   0.003178   0.001069  -0.011293  -0.004480
   14  C   1 XX  -0.006482  -0.003656   0.015405  -0.000630   0.002488
   15  C   1 YY   0.005127  -0.004554  -0.017740   0.014603   0.000589
   16  C   1 ZZ   0.001356   0.008210   0.002335  -0.013973  -0.003077
   17  C   1 XY  -0.006123  -0.008763  -0.009038   0.008728  -0.001145
   18  C   1 XZ  -0.005125  -0.009382   0.005006  -0.003517   0.006580
   19  C   1 YZ   0.011618   0.003710   0.007396   0.004044  -0.002684
   20  C   1 XX   0.047220   0.009573  -0.040230   0.014753  -0.006516
   21  C   1 YY  -0.008915   0.005719   0.050947  -0.024169   0.008042
   22  C   1 ZZ  -0.038305  -0.015292  -0.010717   0.009416  -0.001526
   23  C   1 XY   0.021595   0.039170   0.041539  -0.009784  -0.008068
   24  C   1 XZ   0.032684   0.027051   0.023331  -0.028300   0.000411
   25  C   1 YZ  -0.026400  -0.003912   0.045770  -0.002673   0.007927
   26  C   2  S   0.001460  -0.000282  -0.000768  -0.002971   0.001746
   27  C   2  S   0.000435  -0.024011  -0.002069  -0.024286   0.014839
   28  C   2  S   0.005772   0.022787   0.118493  -0.063238   0.012705
   29  C   2  S  -0.228090  -0.004183  -0.006687  -0.236957   0.113249
   30  C   2  X  -0.219511   0.016785  -0.134536   0.073392  -0.090140
   31  C   2  Y   0.059551  -0.043899  -0.012261   0.298981   0.027578
   32  C   2  Z  -0.114377   0.067515  -0.238806  -0.123560   0.038197
   33  C   2  X  -0.042791   0.038974   0.055894  -0.101369  -0.042711
   34  C   2  Y  -0.009027   0.033373   0.019907  -0.095244   0.031625
   35  C   2  Z   0.123643   0.073721   0.122174  -0.109171   0.052357
   36  C   2  X   0.037447   0.029735   0.004691  -0.014731  -0.019092
   37  C   2  Y   0.100002  -0.008311  -0.025549  -0.044571  -0.012003
   38  C   2  Z   0.000028   0.060776   0.044541  -0.001110  -0.030220
   39  C   2 XX   0.001616  -0.005243   0.008670   0.005700   0.000284
   40  C   2 YY  -0.007152  -0.008606  -0.013269   0.020017   0.000722
   41  C   2 ZZ   0.005536   0.013849   0.004599  -0.025716  -0.001006
   42  C   2 XY   0.005812   0.000229  -0.000517   0.014365  -0.000717
   43  C   2 XZ  -0.006955  -0.011206   0.015062  -0.006487   0.007901
   44  C   2 YZ  -0.001628   0.009544   0.016262   0.012705  -0.005426
   45  C   2 XX  -0.032516  -0.005093  -0.018841   0.010305  -0.007279
   46  C   2 YY   0.058040   0.001416  -0.002542  -0.051474   0.007564
   47  C   2 ZZ  -0.025524   0.003677   0.021382   0.041170  -0.000285
   48  C   2 XY   0.005551   0.003728  -0.043919  -0.000120  -0.009603
   49  C   2 XZ  -0.060734  -0.027008  -0.024038   0.003683   0.010765
   50  C   2 YZ  -0.040039   0.013666  -0.087948  -0.004910  -0.017337
   51  C   3  S   0.001328  -0.001316  -0.000517   0.001128  -0.000729
   52  C   3  S   0.020316  -0.026330   0.045952  -0.035200  -0.000095
   53  C   3  S   0.307112   0.067996   0.237093  -0.245711   0.035633
   54  C   3  S   0.199717   0.097432   0.099509   0.009609  -0.093177
   55  C   3  X   0.068023   0.037672   0.088944  -0.107797  -0.020673
   56  C   3  Y   0.146420  -0.089469  -0.051848  -0.166945   0.066872
   57  C   3  Z   0.120115  -0.045138   0.271225   0.105506   0.038057
   58  C   3  X  -0.016589   0.044256   0.100569   0.005016  -0.006455
   59  C   3  Y   0.064738  -0.049637   0.029818   0.064062   0.006176
   60  C   3  Z   0.109777   0.015806   0.103648  -0.142037   0.044933
   61  C   3  X   0.005753   0.022869   0.047640   0.041916  -0.017241
   62  C   3  Y  -0.031998   0.009932   0.032894   0.080095  -0.006269
   63  C   3  Z   0.064932   0.021629  -0.012133  -0.039260  -0.015311
   64  C   3 XX  -0.007247   0.003857   0.006855   0.011986  -0.005528
   65  C   3 YY  -0.002436  -0.001108  -0.002678   0.008650   0.000396
   66  C   3 ZZ   0.009684  -0.002749  -0.004177  -0.020636   0.005131
   67  C   3 XY   0.003049  -0.007838   0.001718   0.015612  -0.001627
   68  C   3 XZ   0.005108  -0.004806   0.005530  -0.004993  -0.000384
   69  C   3 YZ   0.004516   0.000558   0.007771   0.016888   0.001780
   70  C   3 XX  -0.003823  -0.000193  -0.025233  -0.035869   0.004472
   71  C   3 YY   0.027327   0.005769  -0.003507   0.025267  -0.007587
   72  C   3 ZZ  -0.023504  -0.005577   0.028741   0.010602   0.003115
   73  C   3 XY   0.036182   0.000808  -0.013356  -0.033164  -0.002075
   74  C   3 XZ  -0.008419   0.000160  -0.011438  -0.009815  -0.001970
   75  C   3 YZ   0.011336   0.007646  -0.034477  -0.037537  -0.002852
   76  H   4  S   0.248744   0.247713   0.101609   0.001296  -0.063428
   77  H   4  S   0.256959   0.331091   0.099062  -0.119934  -0.095708
   78  H   4  S   0.041095   0.031854   0.002401  -0.023136  -0.008453
   79  H   4  X  -0.002340   0.003373   0.011404  -0.001621   0.000281
   80  H   4  Y  -0.007243   0.002469   0.001391  -0.009324   0.000753
   81  H   4  Z  -0.008846  -0.009581   0.002923   0.003366   0.001541
   82  H   4  X   0.025091   0.030051  -0.005596  -0.014975  -0.009302
   83  H   4  Y  -0.014863  -0.022667  -0.017759   0.017134   0.002805
   84  H   4  Z  -0.029480  -0.051473  -0.016147   0.026143   0.014248
   85  H   5  S  -0.223742  -0.117150   0.270908  -0.014086   0.054096
   86  H   5  S  -0.263147  -0.115210   0.310026  -0.082160   0.046580
   87  H   5  S  -0.023043  -0.017408   0.020069   0.006303   0.012197
   88  H   5  X   0.003654   0.002998  -0.009258  -0.002368  -0.000880
   89  H   5  Y  -0.002001   0.007807   0.005945  -0.009235  -0.000080
   90  H   5  Z   0.009379   0.006933   0.001344   0.005202  -0.002246
   91  H   5  X   0.045009   0.017232  -0.055226   0.017142  -0.005041
   92  H   5  Y  -0.005752  -0.007315  -0.002437  -0.005519   0.002438
   93  H   5  Z  -0.000790   0.002665  -0.030872   0.018976   0.000257
   94  H   6  S   0.089833  -0.186076  -0.222859   0.211962   0.000136
   95  H   6  S   0.047688  -0.211536  -0.429078   0.302597  -0.004074
   96  H   6  S  -0.008671  -0.040646  -0.036912   0.032692   0.006620
   97  H   6  X  -0.007567  -0.009348   0.004370   0.001765   0.002168
   98  H   6  Y   0.007326  -0.003957  -0.008343   0.004139  -0.000264
   99  H   6  Z   0.005555   0.003234   0.008078   0.004079  -0.001121
  100  H   6  X   0.005079  -0.008708  -0.026609   0.021006  -0.000193
  101  H   6  Y   0.008478  -0.037649  -0.084791   0.061724   0.002054
  102  H   6  Z  -0.013349  -0.002251   0.009269   0.000542   0.001691
  103  H   7  S  -0.028703  -0.046324  -0.069665   0.277942   0.001603
  104  H   7  S  -0.064823  -0.122931  -0.095175   0.490192  -0.028009
  105  H   7  S  -0.066187  -0.002300   0.014382   0.046534   0.006064
  106  H   7  X  -0.005775   0.001570  -0.001910  -0.004517  -0.002912
  107  H   7  Y   0.001765   0.001545   0.004409  -0.006078   0.000430
  108  H   7  Z  -0.002692   0.000632  -0.007547  -0.003382   0.001430
  109  H   7  X   0.015068   0.012803   0.018278  -0.045567   0.005419
  110  H   7  Y  -0.000938   0.036843   0.029766  -0.093252   0.003592
  111  H   7  Z   0.015198  -0.003286   0.015411  -0.001473   0.003141
  112  H   8  S  -0.101524   0.001041   0.036077   0.171887  -0.025249
  113  H   8  S  -0.230630  -0.062608   0.139725   0.388430  -0.037755
  114  H   8  S  -0.024051   0.022656   0.044412   0.081056  -0.010319
  115  H   8  X  -0.002927   0.001342   0.005544   0.002700  -0.001685
  116  H   8  Y   0.000417  -0.003115   0.000250  -0.000044   0.001857
  117  H   8  Z   0.006059  -0.001647   0.007869   0.005637   0.000945
  118  H   8  X  -0.042311  -0.025114   0.018303   0.043182  -0.005605
  119  H   8  Y  -0.017031  -0.008506   0.026308   0.054383  -0.004850
  120  H   8  Z  -0.001091   0.001559  -0.019414  -0.016206  -0.004132
  121  H   9  S   0.002215  -0.031038  -0.204811  -0.206363   0.012508
  122  H   9  S   0.017899   0.044600  -0.272834  -0.387669   0.039453
  123  H   9  S   0.040674   0.006788  -0.034207  -0.077627   0.001964
  124  H   9  X   0.001691   0.001277   0.001878  -0.004024  -0.000873
  125  H   9  Y   0.004261  -0.001520   0.006419  -0.000272   0.002032
  126  H   9  Z   0.001645  -0.003765  -0.003200  -0.005193   0.001774
  127  H   9  X  -0.014114   0.001571  -0.012794   0.002645  -0.001680
  128  H   9  Y  -0.014301  -0.015901   0.032051   0.039321  -0.003934
  129  H   9  Z  -0.009934   0.014780  -0.041432  -0.075520   0.009519
  130  H  10  S  -0.128459   0.241944  -0.032328   0.088129   0.019271
  131  H  10  S   0.030147   0.051755   0.025845  -0.006024   0.024982
  132  H  10  S   0.000370   0.002065  -0.019255   0.004747  -0.019457
  133  H  10  X  -0.005678   0.014367  -0.006118   0.008793   0.006146
  134  H  10  Y   0.000232   0.002564   0.002311  -0.003820  -0.012022
  135  H  10  Z  -0.002022   0.000826   0.007453  -0.000458  -0.010457
  136  H  10  X   0.002188  -0.016604   0.013484  -0.002765   0.014476
  137  H  10  Y   0.020382  -0.010358   0.007774  -0.012012  -0.021553
  138  H  10  Z   0.013271   0.004088   0.019790  -0.013942  -0.017692
  139  F  11  S   0.001792  -0.001619   0.000448  -0.001107   0.000541
  140  F  11  S   0.043477  -0.060605   0.010792  -0.023375   0.000884
  141  F  11  S   0.051687  -0.083297   0.011788  -0.027474  -0.001802
  142  F  11  S   0.008376  -0.015931  -0.027658   0.007692  -0.027172
  143  F  11  X   0.167710  -0.366505   0.078496  -0.185610  -0.093564
  144  F  11  Y  -0.009693  -0.002653   0.002526  -0.003575  -0.474269
  145  F  11  Z  -0.042937  -0.004574   0.008577   0.004845  -0.404214
  146  F  11  X   0.100021  -0.219872   0.049422  -0.117159  -0.058300
  147  F  11  Y  -0.007142  -0.001138   0.001644  -0.001315  -0.306410
  148  F  11  Z  -0.027071  -0.003459   0.002550   0.003829  -0.261713
  149  F  11  X   0.022293  -0.048495   0.020343  -0.029844  -0.004800
  150  F  11  Y  -0.002814   0.001061  -0.001603   0.002321  -0.081003
  151  F  11  Z  -0.001576  -0.003503  -0.006767   0.007063  -0.072485
  152  F  11 XX  -0.002889   0.006289  -0.001330   0.002536   0.000991
  153  F  11 YY   0.001764  -0.002860   0.000585  -0.001182  -0.000424
  154  F  11 ZZ   0.001124  -0.003429   0.000745  -0.001354  -0.000568
  155  F  11 XY  -0.000018   0.000167   0.000022   0.000362   0.002870
  156  F  11 XZ   0.000668  -0.000136  -0.000329  -0.000135   0.002327
  157  F  11 YZ  -0.000351  -0.000018  -0.000019   0.000172  -0.000072
  158  F  11 XX  -0.000840   0.002565   0.001007   0.002408   0.002257
  159  F  11 YY   0.000078  -0.002197  -0.000082  -0.001101  -0.000226
  160  F  11 ZZ   0.000762  -0.000368  -0.000925  -0.001308  -0.002031
  161  F  11 XY   0.000900  -0.000461  -0.000484  -0.000953   0.009201
  162  F  11 XZ   0.001250  -0.000445   0.001459  -0.000434   0.008148
  163  F  11 YZ   0.000912   0.000000   0.000360  -0.000677  -0.002126

                     16         17         18         19         20
                   -0.3298    -0.2843    -0.0728    -0.0160     0.0055
                     A          A          A          A          A   
    1  C   1  S   0.000010  -0.000687  -0.000879  -0.000332   0.000212
    2  C   1  S  -0.008711   0.011892  -0.007929   0.093455   0.071052
    3  C   1  S  -0.054941   0.014680  -0.011839   0.364258   0.238664
    4  C   1  S   0.014267   0.042921  -0.199853   2.190537  -0.054698
    5  C   1  X  -0.020541   0.073530   0.036292  -0.021761  -0.016948
    6  C   1  Y   0.006421  -0.018446  -0.000217  -0.018114  -0.046105
    7  C   1  Z   0.018329  -0.062684  -0.022566   0.061773   0.029708
    8  C   1  X  -0.016161  -0.032709  -0.026922  -0.025349   0.011929
    9  C   1  Y  -0.011704   0.011578   0.042531  -0.086323  -0.195602
   10  C   1  Z   0.020183  -0.005671  -0.023805   0.248949   0.179306
   11  C   1  X  -0.008001  -0.010272   0.068746  -0.214251   0.190173
   12  C   1  Y   0.002400   0.013741  -0.043507   0.075933  -0.461581
   13  C   1  Z   0.007474  -0.006642  -0.006793  -0.136152   0.360281
   14  C   1 XX  -0.000238   0.006197   0.006573  -0.001866   0.003892
   15  C   1 YY   0.000584   0.002071   0.013584   0.005957  -0.004885
   16  C   1 ZZ  -0.000346  -0.008268  -0.020156  -0.004090   0.000992
   17  C   1 XY  -0.000740  -0.005767  -0.010506  -0.000830  -0.001107
   18  C   1 XZ  -0.001288   0.015373   0.028011   0.000928   0.000473
   19  C   1 YZ   0.001346  -0.005317  -0.006904  -0.003015   0.007925
   20  C   1 XX   0.003411  -0.011855  -0.016607   0.016619   0.031568
   21  C   1 YY  -0.003329   0.010277   0.015547   0.001000  -0.016253
   22  C   1 ZZ  -0.000081   0.001578   0.001060  -0.017619  -0.015316
   23  C   1 XY  -0.001495  -0.017803  -0.020178   0.022249   0.001498
   24  C   1 XZ  -0.004162  -0.001373   0.002998  -0.006701   0.033063
   25  C   1 YZ   0.003512   0.011013   0.001414   0.024482   0.046572
   26  C   2  S  -0.000659   0.000986  -0.000187  -0.000534  -0.002651
   27  C   2  S  -0.005551  -0.015494  -0.065415   0.028800  -0.057536
   28  C   2  S  -0.019922  -0.091901  -0.172949   0.164342  -0.158107
   29  C   2  S  -0.040851   0.102559  -0.076393  -0.874902  -0.169683
   30  C   2  X  -0.000878  -0.271802  -0.397180  -0.023497  -0.019168
   31  C   2  Y   0.011251   0.062939   0.190226   0.097136  -0.060678
   32  C   2  Z  -0.008428   0.115615   0.231733   0.017594  -0.048852
   33  C   2  X   0.023745  -0.079717  -0.308210   0.029393   0.040833
   34  C   2  Y  -0.005301   0.095945   0.185854   0.057689  -0.174156
   35  C   2  Z   0.035772   0.120807   0.155396   0.195163   0.098382
   36  C   2  X   0.004034  -0.037504  -0.261781   0.270721  -0.170359
   37  C   2  Y   0.010501   0.016638   0.110003   0.697087  -0.791769
   38  C   2  Z   0.000329  -0.037092   0.238758  -0.207417   0.747002
   39  C   2 XX   0.000724   0.017303  -0.014219  -0.005575  -0.002640
   40  C   2 YY   0.000035  -0.008933   0.009399  -0.002026   0.007836
   41  C   2 ZZ  -0.000759  -0.008369   0.004820   0.007601  -0.005196
   42  C   2 XY  -0.002068  -0.011584   0.001448   0.003075   0.003643
   43  C   2 XZ  -0.000760   0.006948  -0.005296   0.002625  -0.003919
   44  C   2 YZ   0.000979  -0.015776   0.014328  -0.003284  -0.004351
   45  C   2 XX  -0.010400   0.001390  -0.003450  -0.022511  -0.033796
   46  C   2 YY   0.010974   0.013740  -0.002241   0.021503  -0.044651
   47  C   2 ZZ  -0.000575  -0.015130   0.005692   0.001008   0.078448
   48  C   2 XY  -0.008112  -0.017708  -0.021893   0.012426  -0.043555
   49  C   2 XZ  -0.006889  -0.008350  -0.006262  -0.022298   0.012697
   50  C   2 YZ  -0.009322  -0.032059   0.000304  -0.039871  -0.021179
   51  C   3  S  -0.000056   0.000188  -0.002637  -0.003078   0.000670
   52  C   3  S   0.003553  -0.013937   0.000027   0.067362  -0.037971
   53  C   3  S   0.052424   0.042692   0.094757   0.450976  -0.146794
   54  C   3  S   0.018395  -0.137778   0.234014   1.250220  -0.208694
   55  C   3  X  -0.005510  -0.216401   0.192833  -0.001881   0.001711
   56  C   3  Y   0.023198   0.275066  -0.162088  -0.034431  -0.057323
   57  C   3  Z  -0.008660   0.154488  -0.097823  -0.057206   0.071915
   58  C   3  X   0.006176  -0.124710   0.147752   0.031952  -0.023526
   59  C   3  Y   0.009027   0.163000  -0.201138  -0.004520  -0.146286
   60  C   3  Z   0.025385   0.180276  -0.066656  -0.042304   0.233872
   61  C   3  X   0.004401  -0.060407   0.230858  -0.017080   0.152860
   62  C   3  Y   0.003630   0.011766  -0.140572  -0.215486   0.000690
   63  C   3  Z   0.002876   0.000484  -0.064814   0.041085   0.428235
   64  C   3 XX  -0.001053  -0.014692  -0.026026  -0.000865   0.001514
   65  C   3 YY   0.001131  -0.001466   0.008101  -0.000257   0.001407
   66  C   3 ZZ  -0.000078   0.016158   0.017925   0.001122  -0.002922
   67  C   3 XY  -0.000395   0.001342  -0.012277   0.007594  -0.000580
   68  C   3 XZ   0.001299  -0.002669  -0.014411   0.000935   0.000136
   69  C   3 YZ  -0.000444   0.001202   0.015455   0.006481  -0.001952
   70  C   3 XX  -0.001150   0.004644  -0.022859  -0.001277  -0.011115
   71  C   3 YY  -0.004100  -0.023371   0.006764   0.007779  -0.014003
   72  C   3 ZZ   0.005249   0.018727   0.016095  -0.006502   0.025117
   73  C   3 XY   0.001057   0.006616  -0.004928   0.020420  -0.019976
   74  C   3 XZ   0.005924   0.009814  -0.029508   0.022487  -0.001494
   75  C   3 YZ   0.011532   0.004726  -0.008235   0.000669  -0.001300
   76  H   4  S   0.023077  -0.105046  -0.116623  -0.004182   0.022604
   77  H   4  S   0.008533  -0.166005  -0.188266  -0.417978  -0.138434
   78  H   4  S  -0.007613  -0.024985  -0.111638  -0.911589  -0.634452
   79  H   4  X   0.000387   0.000169   0.001442   0.005125   0.002094
   80  H   4  Y  -0.000477   0.000735   0.001859  -0.005393  -0.001740
   81  H   4  Z  -0.000506   0.001239  -0.002688  -0.006624  -0.006291
   82  H   4  X   0.000962  -0.014460  -0.003882  -0.009705  -0.008660
   83  H   4  Y   0.002745   0.006598   0.016686   0.017624   0.032661
   84  H   4  Z  -0.003998   0.018519  -0.003703   0.018521   0.017309
   85  H   5  S  -0.017490   0.082379   0.092683  -0.001909   0.008818
   86  H   5  S   0.020897   0.131795   0.178763  -0.268929  -0.310120
   87  H   5  S   0.002119   0.027849   0.081674   0.005232  -0.664447
   88  H   5  X   0.000570  -0.000007   0.002398  -0.007084  -0.003871
   89  H   5  Y   0.000184  -0.000067  -0.001075  -0.000542   0.000351
   90  H   5  Z   0.001110  -0.003535   0.001095  -0.000491  -0.002912
   91  H   5  X  -0.009720  -0.021122  -0.009477   0.019673   0.053157
   92  H   5  Y   0.001842   0.005316   0.000220  -0.023420   0.025349
   93  H   5  Z  -0.006747  -0.006694   0.014906  -0.011737  -0.006093
   94  H   6  S  -0.004984   0.000508   0.020028   0.019660  -0.010550
   95  H   6  S  -0.012234  -0.013223   0.077404  -0.273909  -0.256693
   96  H   6  S  -0.003005   0.010070   0.020063  -0.292853  -1.437925
   97  H   6  X  -0.000928   0.002653   0.000981   0.002819   0.003030
   98  H   6  Y  -0.000590  -0.000259  -0.002217   0.006062   0.008424
   99  H   6  Z   0.000496  -0.000794  -0.002757   0.003342  -0.001036
  100  H   6  X  -0.003410  -0.005434   0.002471   0.018256   0.004943
  101  H   6  Y  -0.005222  -0.001144   0.006742  -0.017025   0.027081
  102  H   6  Z  -0.000184   0.007510  -0.001836  -0.012365  -0.005579
  103  H   7  S   0.004221  -0.062019   0.055583   0.026089   0.023925
  104  H   7  S   0.000270  -0.110998   0.069071  -0.179273   0.459082
  105  H   7  S  -0.003106  -0.015068   0.081577  -0.857615   1.769901
  106  H   7  X  -0.000173  -0.009415  -0.017900  -0.003815   0.002279
  107  H   7  Y  -0.000447   0.003770   0.009279  -0.005658   0.009208
  108  H   7  Z  -0.000345   0.004998   0.012109  -0.000743  -0.003309
  109  H   7  X   0.004551   0.000411  -0.024896  -0.003063  -0.013902
  110  H   7  Y  -0.000949   0.015581   0.017768  -0.004132  -0.003928
  111  H   7  Z   0.003248   0.013257   0.034739  -0.008295  -0.067019
  112  H   8  S  -0.009011  -0.020018  -0.085564   0.034949   0.006655
  113  H   8  S  -0.012479  -0.032526  -0.160843  -0.200821  -0.099829
  114  H   8  S   0.006196  -0.039630   0.002146  -0.641478   0.029085
  115  H   8  X  -0.000773  -0.008718   0.007785   0.006336  -0.001040
  116  H   8  Y   0.000301   0.011283  -0.010527   0.002760  -0.001014
  117  H   8  Z   0.000018   0.004753  -0.005878  -0.004412   0.002787
  118  H   8  X  -0.004914  -0.003886   0.010358  -0.012687  -0.031621
  119  H   8  Y  -0.003307  -0.005865  -0.020571  -0.002905  -0.009777
  120  H   8  Z   0.007151   0.003061  -0.025712  -0.001308  -0.063821
  121  H   9  S   0.020260   0.046180  -0.014503  -0.008621  -0.015509
  122  H   9  S   0.039876   0.089673  -0.014756  -0.220362   0.382889
  123  H   9  S  -0.003862   0.002641   0.007858  -0.327015   1.310632
  124  H   9  X  -0.000479  -0.007780   0.008453   0.001017   0.000495
  125  H   9  Y   0.000263   0.009305  -0.006309  -0.007205   0.005654
  126  H   9  Z   0.000962   0.006543  -0.007046   0.003596  -0.005191
  127  H   9  X   0.001370  -0.007591   0.004306   0.007207   0.011120
  128  H   9  Y  -0.003888   0.002168  -0.020329  -0.005868   0.000404
  129  H   9  Z   0.008345   0.020342  -0.004697  -0.025831   0.051917
  130  H  10  S   0.000659  -0.036320   0.170414  -0.040811   0.016336
  131  H  10  S  -0.001350   0.031396   0.138919  -0.067535   0.004801
  132  H  10  S   0.008937   0.029464   0.062037   0.054160   0.000946
  133  H  10  X   0.000937   0.031850  -0.023305  -0.000068  -0.000578
  134  H  10  Y  -0.009034  -0.005891  -0.001899   0.002333  -0.000771
  135  H  10  Z   0.010571  -0.005709  -0.006878  -0.002030   0.001118
  136  H  10  X   0.005473   0.002645  -0.060380   0.010853  -0.010731
  137  H  10  Y  -0.022737   0.014077  -0.021696   0.024415   0.009887
  138  H  10  Z   0.021101   0.005391  -0.022242  -0.001857  -0.025668
  139  F  11  S  -0.000131   0.000574  -0.001745   0.001680  -0.000440
  140  F  11  S  -0.001176   0.014505  -0.019164   0.029389  -0.009267
  141  F  11  S  -0.001434   0.029860  -0.025103   0.054025  -0.018541
  142  F  11  S   0.000994  -0.007698   0.006828   0.054517   0.011557
  143  F  11  X   0.012537  -0.331641   0.127262  -0.037687   0.012952
  144  F  11  Y  -0.428394   0.148912   0.068559  -0.002512  -0.024772
  145  F  11  Z   0.497729   0.126274   0.082624   0.019011   0.016829
  146  F  11  X   0.007660  -0.216748   0.086841  -0.032060   0.008705
  147  F  11  Y  -0.276810   0.098076   0.047617  -0.003099  -0.017792
  148  F  11  Z   0.322976   0.083956   0.057987   0.012103   0.010757
  149  F  11  X   0.003072  -0.055293   0.049971  -0.010186  -0.001135
  150  F  11  Y  -0.071462   0.028225   0.031653  -0.012859   0.010341
  151  F  11  Z   0.086876   0.023248   0.038318   0.018898   0.010100
  152  F  11 XX  -0.000201   0.002022   0.002349  -0.000152   0.000091
  153  F  11 YY   0.000132  -0.001174  -0.001130   0.000108  -0.000223
  154  F  11 ZZ   0.000070  -0.000849  -0.001219   0.000043   0.000132
  155  F  11 XY   0.002475  -0.000184   0.000282  -0.000246   0.000094
  156  F  11 XZ  -0.002770  -0.000300   0.000579   0.000227   0.000005
  157  F  11 YZ  -0.000198  -0.000271  -0.000608  -0.000106  -0.000038
  158  F  11 XX  -0.000731   0.001697   0.003109   0.001980  -0.000315
  159  F  11 YY  -0.001301  -0.000596  -0.001050  -0.000595   0.001441
  160  F  11 ZZ   0.002032  -0.001102  -0.002058  -0.001385  -0.001126
  161  F  11 XY   0.007967  -0.002740   0.001396  -0.000006   0.000691
  162  F  11 XZ  -0.009856  -0.002540   0.001541  -0.001126  -0.000481
  163  F  11 YZ  -0.000532  -0.000023  -0.003023   0.000694  -0.000030

                     21         22         23         24         25
                    0.0067     0.0227     0.0341     0.0416     0.0444
                     A          A          A          A          A   
    1  C   1  S   0.000416   0.000696   0.003360   0.002187   0.004401
    2  C   1  S   0.021905  -0.025110  -0.013336   0.001863   0.008521
    3  C   1  S   0.084490  -0.183084  -0.156309  -0.114762  -0.180003
    4  C   1  S  -0.222033   0.628661  -0.954716  -1.220063  -4.413795
    5  C   1  X   0.032227  -0.100656  -0.009422   0.071990  -0.071454
    6  C   1  Y   0.055587   0.057983  -0.068893   0.079650   0.009076
    7  C   1  Z   0.065483   0.026877  -0.006926   0.031169   0.004891
    8  C   1  X   0.044481  -0.245025   0.058764   0.150491  -0.143342
    9  C   1  Y   0.010201   0.252773   0.029658   0.194877   0.012251
   10  C   1  Z   0.129775   0.137980  -0.235417   0.025090   0.058511
   11  C   1  X  -0.094511  -0.923216   0.091398   1.121782  -0.582541
   12  C   1  Y  -0.158528   1.089293  -1.068749   1.176196  -0.367807
   13  C   1  Z   0.364168   0.573098  -0.172890   0.998777   1.528284
   14  C   1 XX   0.003077  -0.003520  -0.006234  -0.001305   0.001678
   15  C   1 YY  -0.001138  -0.000799   0.000055  -0.000226  -0.001259
   16  C   1 ZZ  -0.001939   0.004319   0.006178   0.001531  -0.000419
   17  C   1 XY  -0.001978  -0.002119  -0.002238   0.000887   0.003435
   18  C   1 XZ  -0.001472  -0.001983   0.004627   0.001376   0.012599
   19  C   1 YZ  -0.001993   0.000562  -0.012924  -0.006110  -0.005115
   20  C   1 XX   0.007350   0.010865  -0.008099  -0.072640   0.028311
   21  C   1 YY   0.005325  -0.052178   0.010602   0.009365  -0.001193
   22  C   1 ZZ  -0.012675   0.041313  -0.002503   0.063276  -0.027118
   23  C   1 XY   0.026462   0.016167   0.000472  -0.004084  -0.017103
   24  C   1 XZ   0.001270  -0.023948  -0.015574   0.076134  -0.010123
   25  C   1 YZ   0.019062  -0.005909  -0.087443   0.043716   0.015456
   26  C   2  S   0.002380  -0.000352   0.005394   0.001271  -0.000116
   27  C   2  S   0.045674   0.006574   0.081114   0.000262   0.019409
   28  C   2  S   0.073090  -0.008867   0.045190  -0.045071   0.195786
   29  C   2  S  -0.351795   0.864642   2.332907   2.877101   4.414537
   30  C   2  X   0.013927  -0.000118  -0.027195  -0.023324  -0.058222
   31  C   2  Y   0.066270  -0.033339   0.028858  -0.038115  -0.012785
   32  C   2  Z  -0.019593   0.001349   0.035719   0.026539  -0.002314
   33  C   2  X   0.180530  -0.042223   0.088493   0.085199   0.006580
   34  C   2  Y   0.108552  -0.068747   0.217444   0.121978   0.067841
   35  C   2  Z   0.244569   0.006086   0.064817   0.066603   0.008117
   36  C   2  X   0.710909  -0.240400   0.679518  -0.772445   0.010182
   37  C   2  Y   0.484769   0.297646   1.695879  -1.129243  -2.548332
   38  C   2  Z   0.941885  -1.328923  -0.171317  -1.300487   1.410395
   39  C   2 XX   0.001036   0.006821   0.000705  -0.005323  -0.007893
   40  C   2 YY  -0.004393  -0.004099   0.004465   0.001674   0.002903
   41  C   2 ZZ   0.003358  -0.002722  -0.005170   0.003648   0.004991
   42  C   2 XY  -0.005498   0.006203   0.002739   0.004666   0.011698
   43  C   2 XZ  -0.003338  -0.001560  -0.004640   0.004887  -0.002341
   44  C   2 YZ  -0.004672  -0.002843   0.005024   0.004511   0.002820
   45  C   2 XX  -0.016876   0.004242   0.005351   0.004069  -0.033798
   46  C   2 YY   0.054400  -0.000636   0.137094  -0.013905  -0.029429
   47  C   2 ZZ  -0.037524  -0.003606  -0.142445   0.009835   0.063226
   48  C   2 XY   0.016358   0.012635   0.105849   0.012165  -0.009031
   49  C   2 XZ  -0.055252   0.011875  -0.067184   0.020340   0.035182
   50  C   2 YZ   0.017842  -0.009826   0.074265  -0.023529  -0.060705
   51  C   3  S   0.000684   0.002451   0.001203  -0.000943   0.004024
   52  C   3  S  -0.069379  -0.010616  -0.017699   0.018934   0.016145
   53  C   3  S  -0.234030  -0.090903   0.024127   0.226598  -0.093903
   54  C   3  S   0.373903  -1.888958  -0.300290  -1.968211  -1.236678
   55  C   3  X   0.020656  -0.065122   0.008948   0.041979   0.128831
   56  C   3  Y   0.045555   0.025655  -0.108821  -0.087342  -0.073530
   57  C   3  Z   0.039042   0.066719   0.016609   0.014602  -0.053651
   58  C   3  X   0.232945  -0.134123   0.044572   0.035938   0.235505
   59  C   3  Y   0.221533  -0.071101  -0.102376  -0.170062  -0.082595
   60  C   3  Z   0.219066   0.115158   0.222124   0.087638  -0.097078
   61  C   3  X   0.555013  -1.112492  -0.686125  -0.452132   1.444032
   62  C   3  Y   0.410322  -0.903108  -1.568436  -0.832996   0.938587
   63  C   3  Z   0.525124  -0.055023   0.920730   0.044282  -0.967783
   64  C   3 XX   0.001493  -0.002243  -0.003843  -0.006088  -0.003797
   65  C   3 YY  -0.001351  -0.000234  -0.005116   0.002997  -0.004186
   66  C   3 ZZ  -0.000142   0.002477   0.008959   0.003091   0.007983
   67  C   3 XY   0.000434   0.003686   0.002962   0.003579   0.007400
   68  C   3 XZ   0.004357   0.000900   0.006623   0.000993   0.007896
   69  C   3 YZ   0.006102  -0.005901   0.002321  -0.009656  -0.002733
   70  C   3 XX   0.008230   0.050083   0.044328  -0.002548  -0.063826
   71  C   3 YY  -0.006081  -0.015378   0.019236  -0.006465  -0.014620
   72  C   3 ZZ  -0.002149  -0.034705  -0.063564   0.009013   0.078447
   73  C   3 XY   0.037603   0.003709   0.106612   0.007587  -0.045345
   74  C   3 XZ   0.010138   0.016829   0.043859   0.044509  -0.015208
   75  C   3 YZ   0.046965   0.050936   0.109099   0.013029  -0.062521
   76  H   4  S   0.010876   0.017710  -0.019802  -0.012007  -0.041652
   77  H   4  S  -0.071809  -0.460110   0.448676   0.002762  -0.195539
   78  H   4  S  -1.055576  -3.358099   2.686405  -1.088964  -2.548727
   79  H   4  X   0.003426   0.000868   0.000590   0.004396   0.001829
   80  H   4  Y  -0.001954  -0.001579  -0.005253  -0.000797  -0.004044
   81  H   4  Z  -0.004139  -0.001115   0.004707   0.000631  -0.003593
   82  H   4  X  -0.029569  -0.000915   0.065598  -0.074963   0.052378
   83  H   4  Y  -0.037724   0.037891  -0.039164  -0.074874  -0.007028
   84  H   4  Z  -0.027427   0.049423  -0.023382  -0.030421   0.021082
   85  H   5  S   0.016731  -0.022813  -0.002568   0.005237   0.019215
   86  H   5  S  -0.052230   0.346194   0.151543  -0.136447   0.231514
   87  H   5  S  -0.449322   2.596414   0.699679  -3.108963   1.998296
   88  H   5  X  -0.004728   0.004828  -0.000791  -0.004862   0.004402
   89  H   5  Y   0.001330   0.000084  -0.005905   0.002890   0.002334
   90  H   5  Z  -0.001110   0.004405   0.005319   0.000969   0.004934
   91  H   5  X  -0.007335  -0.007069  -0.048097   0.010761  -0.023687
   92  H   5  Y  -0.043467  -0.039923   0.002703  -0.061531   0.006127
   93  H   5  Z  -0.020318  -0.051058   0.043104  -0.052513   0.067089
   94  H   6  S  -0.020143  -0.007426  -0.003374  -0.010478   0.013931
   95  H   6  S  -0.080148   0.434601   0.058624   0.348379   0.123084
   96  H   6  S   0.335672   1.859804  -1.778057   5.188017  -0.864011
   97  H   6  X  -0.001579  -0.002868   0.003079  -0.000319  -0.003698
   98  H   6  Y  -0.002683  -0.000608   0.002069  -0.006496   0.004825
   99  H   6  Z   0.001573   0.002508   0.005476   0.002791   0.001145
  100  H   6  X  -0.013441   0.117518   0.018457  -0.036630  -0.018792
  101  H   6  Y  -0.044036   0.035422   0.047557   0.025382   0.012858
  102  H   6  Z  -0.034096  -0.040746   0.012354   0.102985   0.039308
  103  H   7  S  -0.019612  -0.007464   0.021544   0.009018   0.019494
  104  H   7  S  -0.443210   0.138633  -0.794031  -0.286136  -0.202497
  105  H   7  S  -1.777552   0.097232  -3.521926   1.803685   2.151206
  106  H   7  X  -0.003575   0.004966  -0.004780  -0.000129   0.001977
  107  H   7  Y  -0.006921  -0.000577  -0.006532   0.004255   0.001311
  108  H   7  Z  -0.004117  -0.002122  -0.000824  -0.001181   0.002225
  109  H   7  X  -0.003348   0.028177  -0.002106  -0.003517   0.023415
  110  H   7  Y   0.033185  -0.039479   0.098075   0.144833   0.111171
  111  H   7  Z  -0.071025  -0.019332   0.008642   0.018058   0.054569
  112  H   8  S  -0.017877   0.012728   0.012088   0.024735  -0.002270
  113  H   8  S   0.563044  -0.187933  -0.364977  -0.277227   0.406670
  114  H   8  S   2.198514  -2.694059  -2.668204  -2.825091   4.610354
  115  H   8  X  -0.007614   0.000256   0.004785   0.007348   0.001849
  116  H   8  Y  -0.005256   0.002096  -0.001540  -0.003510  -0.007485
  117  H   8  Z   0.001582   0.003101  -0.002763   0.001647  -0.003726
  118  H   8  X   0.066060   0.012028  -0.006270  -0.051620  -0.064914
  119  H   8  Y   0.041182  -0.055760   0.020662  -0.046773   0.035249
  120  H   8  Z  -0.038328   0.049136   0.037505   0.037424  -0.077475
  121  H   9  S  -0.024345   0.017821   0.005746   0.033634   0.025922
  122  H   9  S   0.167841   0.499695   0.677045   0.226896  -0.260248
  123  H   9  S   0.621304   1.156405   4.170925   2.004391  -1.077536
  124  H   9  X  -0.001861  -0.000999  -0.002098   0.004672   0.004782
  125  H   9  Y   0.003764   0.002395  -0.001856   0.002890  -0.003002
  126  H   9  Z  -0.005907  -0.001533  -0.009625  -0.003020  -0.004361
  127  H   9  X  -0.046526   0.034294  -0.025586   0.005540  -0.071725
  128  H   9  Y  -0.049952  -0.004496  -0.086632   0.036791   0.023148
  129  H   9  Z   0.000808   0.049386   0.021488   0.001023  -0.013058
  130  H  10  S   0.032674  -0.010966  -0.046174  -0.083318  -0.117344
  131  H  10  S   0.135603   0.030800  -0.058813  -0.140061  -0.355414
  132  H  10  S   0.372159   0.817912  -0.319464  -1.738158  -3.284790
  133  H  10  X  -0.000792   0.005284  -0.000108   0.001484   0.002847
  134  H  10  Y  -0.001920  -0.003203   0.001698   0.001276   0.005709
  135  H  10  Z  -0.000618  -0.002243  -0.000888   0.003367  -0.000403
  136  H  10  X  -0.028925  -0.002697  -0.047982   0.026459   0.059895
  137  H  10  Y  -0.026784   0.000380   0.034203   0.038454   0.021162
  138  H  10  Z  -0.013025   0.019930  -0.017799  -0.000828   0.008994
  139  F  11  S  -0.000841  -0.001045   0.001604   0.002688   0.003300
  140  F  11  S  -0.015148  -0.029398   0.023015   0.043087   0.063819
  141  F  11  S  -0.028158  -0.068923   0.041301   0.083249   0.133642
  142  F  11  S  -0.034119   0.024487   0.166693   0.006838   0.025049
  143  F  11  X   0.042144  -0.023746  -0.023563  -0.041194  -0.082614
  144  F  11  Y   0.020020   0.000720  -0.010291  -0.017170  -0.040035
  145  F  11  Z   0.019403  -0.004382   0.022243   0.006186  -0.017503
  146  F  11  X   0.033930  -0.011655  -0.026231  -0.037123  -0.072653
  147  F  11  Y   0.016406   0.001640  -0.008037  -0.011914  -0.022436
  148  F  11  Z   0.010084  -0.006319   0.020428   0.006170  -0.003878
  149  F  11  X   0.022189  -0.090946  -0.052366   0.044523   0.035304
  150  F  11  Y   0.009182   0.012262  -0.045166  -0.072400  -0.124930
  151  F  11  Z   0.040573   0.074018  -0.017583  -0.048191  -0.125788
  152  F  11 XX   0.000316  -0.000439  -0.000514  -0.000790  -0.000940
  153  F  11 YY  -0.000098   0.000546   0.000305   0.000608   0.000518
  154  F  11 ZZ  -0.000218  -0.000107   0.000208   0.000182   0.000422
  155  F  11 XY   0.000247   0.000241  -0.000418  -0.000433  -0.000625
  156  F  11 XZ   0.000192   0.000326   0.000197  -0.000229   0.000101
  157  F  11 YZ   0.000132   0.000053   0.000155  -0.000029   0.000138
  158  F  11 XX  -0.001559  -0.002375   0.001026  -0.000527   0.001915
  159  F  11 YY   0.000713   0.000202  -0.002282   0.001277  -0.000891
  160  F  11 ZZ   0.000846   0.002173   0.001256  -0.000750  -0.001024
  161  F  11 XY  -0.001296  -0.000092   0.000437   0.001813   0.001174
  162  F  11 XZ  -0.001041   0.000891  -0.000756  -0.001086   0.002202
  163  F  11 YZ  -0.000518  -0.000025  -0.001264  -0.002178  -0.000113

                     26         27         28         29         30
                    0.0639     0.0734     0.0847     0.0935     0.0979
                     A          A          A          A          A   
    1  C   1  S  -0.004562  -0.007054  -0.017944   0.011982   0.018123
    2  C   1  S  -0.024439  -0.037731  -0.091585   0.120658   0.070560
    3  C   1  S   0.170631   0.130102   0.535285  -0.202102  -0.686361
    4  C   1  S   1.955318   7.205498   8.264631  10.677312  -5.555807
    5  C   1  X  -0.022008   0.019333  -0.017507  -0.034404  -0.008611
    6  C   1  Y   0.029587   0.031863  -0.002740  -0.023487  -0.000180
    7  C   1  Z   0.016131  -0.042478  -0.026189  -0.009743   0.041319
    8  C   1  X  -0.236412  -0.262844   0.430430   0.055231  -0.148895
    9  C   1  Y  -0.033610  -0.165165   0.340695   0.210677   0.134362
   10  C   1  Z  -0.135459   0.129877   0.154912  -0.269472  -0.482001
   11  C   1  X  -0.779526  -2.460965   1.219796   0.583593  -0.392966
   12  C   1  Y  -0.179686   0.591613   1.992466   2.340098  -0.406903
   13  C   1  Z  -1.181863  -2.394081  -3.034471  -4.546176  -0.953762
   14  C   1 XX   0.007652   0.018388  -0.004716   0.002915  -0.001668
   15  C   1 YY  -0.001658  -0.002437   0.006569  -0.011225   0.010794
   16  C   1 ZZ  -0.005994  -0.015952  -0.001853   0.008310  -0.009126
   17  C   1 XY  -0.005655   0.008056   0.004278  -0.007773   0.003041
   18  C   1 XZ  -0.001817   0.008979  -0.004574   0.002109   0.002522
   19  C   1 YZ  -0.001367   0.006808   0.024176   0.004491  -0.007865
   20  C   1 XX  -0.029690  -0.047152   0.148448  -0.066577  -0.039504
   21  C   1 YY   0.055564   0.034628  -0.117080   0.087785  -0.089668
   22  C   1 ZZ  -0.025874   0.012524  -0.031369  -0.021208   0.129172
   23  C   1 XY   0.038507   0.108937  -0.014851  -0.014134   0.008004
   24  C   1 XZ  -0.026919  -0.105985   0.006719   0.022103   0.014653
   25  C   1 YZ  -0.055650   0.115011  -0.015520  -0.160951  -0.019158
   26  C   2  S  -0.004439   0.002883  -0.004520   0.012630   0.029065
   27  C   2  S  -0.037511  -0.059574  -0.052375  -0.019632   0.070387
   28  C   2  S   0.052033  -0.233285  -0.081575  -0.804111  -1.335377
   29  C   2  S  -4.483686 -18.021308 -11.856935  -5.527646  -4.078980
   30  C   2  X   0.056788  -0.058729   0.046609  -0.027482   0.009436
   31  C   2  Y   0.032860   0.012918  -0.070215  -0.058512   0.085533
   32  C   2  Z   0.038960   0.001151  -0.092242  -0.055353  -0.022169
   33  C   2  X  -0.033789  -0.037559  -0.036298   0.266333   0.221665
   34  C   2  Y   0.039423  -0.128811  -0.155656   0.258269   0.113044
   35  C   2  Z  -0.273407   0.388975   0.020310   0.144417   0.137585
   36  C   2  X   0.584705   4.793751   0.528671  -2.566423   0.817285
   37  C   2  Y   0.994845   4.460218   5.291645   5.713068  -0.823985
   38  C   2  Z  -0.170120   1.067123   0.520549  -7.613974   3.834247
   39  C   2 XX  -0.000640  -0.001739  -0.002276  -0.012443  -0.002690
   40  C   2 YY  -0.001164  -0.001018   0.007984   0.013530  -0.006797
   41  C   2 ZZ   0.001804   0.002757  -0.005708  -0.001087   0.009487
   42  C   2 XY  -0.006389   0.010332   0.000671   0.009931   0.004739
   43  C   2 XZ  -0.008544   0.002500   0.003331  -0.008000   0.002425
   44  C   2 YZ   0.009483  -0.007781   0.005951  -0.007924   0.003346
   45  C   2 XX  -0.007505   0.107403   0.041445   0.007408  -0.023291
   46  C   2 YY   0.024014  -0.012488   0.102738   0.264675  -0.190708
   47  C   2 ZZ  -0.016509  -0.094915  -0.144183  -0.272084   0.213999
   48  C   2 XY  -0.038309   0.068586   0.097571  -0.010933  -0.140282
   49  C   2 XZ  -0.007956  -0.132505  -0.030924  -0.208977  -0.036782
   50  C   2 YZ   0.067318  -0.035417   0.186876  -0.192323   0.047921
   51  C   3  S  -0.009533  -0.012317  -0.007519   0.004092   0.024914
   52  C   3  S  -0.038586  -0.031513  -0.015418  -0.018844   0.158595
   53  C   3  S   0.277259   0.581534   0.365538   0.013151  -0.671253
   54  C   3  S   3.622594  12.442367   6.491959  -7.653724  -0.187746
   55  C   3  X   0.018800   0.040982   0.015759   0.033953   0.068661
   56  C   3  Y  -0.055240  -0.018551   0.013010  -0.100939  -0.083344
   57  C   3  Z  -0.044989   0.035569   0.043824   0.012457  -0.111324
   58  C   3  X  -0.389199   0.345561  -0.221202   0.780202   0.537032
   59  C   3  Y   0.035307   0.046312   0.026003   0.389006   0.019684
   60  C   3  Z  -0.089160   0.025241   0.095023   0.261010   0.649084
   61  C   3  X   0.168771   2.791507   0.625727  -0.933158   0.995056
   62  C   3  Y   0.894693  -0.042644  -1.583777  -1.467220   1.453161
   63  C   3  Z   1.699858   4.027646   1.605250  -1.297321   1.252885
   64  C   3 XX   0.009344  -0.005749  -0.006800  -0.008486   0.004201
   65  C   3 YY   0.004250  -0.001003   0.004740   0.004136  -0.005573
   66  C   3 ZZ  -0.013595   0.006752   0.002060   0.004350   0.001372
   67  C   3 XY  -0.019170   0.010291  -0.003662   0.013537   0.015847
   68  C   3 XZ  -0.014953  -0.007389   0.008954   0.008571   0.008321
   69  C   3 YZ   0.006855  -0.014988  -0.006796  -0.014055   0.005561
   70  C   3 XX  -0.055909  -0.033951   0.134401   0.067892  -0.036488
   71  C   3 YY   0.035498   0.116922   0.034412  -0.075732  -0.133008
   72  C   3 ZZ   0.020410  -0.082972  -0.168813   0.007840   0.169496
   73  C   3 XY   0.110016   0.070946   0.173731   0.012436  -0.121900
   74  C   3 XZ  -0.083940  -0.025414  -0.023119   0.120070   0.171766
   75  C   3 YZ  -0.179924  -0.003970   0.042014   0.117657   0.112844
   76  H   4  S   0.011353  -0.040420   0.049345   0.036772  -0.006741
   77  H   4  S   0.002590  -0.688949  -0.399820   0.684751   0.667937
   78  H   4  S  -0.510994   0.821460   0.317641   3.310471   0.673735
   79  H   4  X  -0.003637  -0.006806  -0.003832   0.005533   0.005733
   80  H   4  Y  -0.000484   0.004088   0.017877  -0.005566  -0.003436
   81  H   4  Z  -0.005273   0.003064   0.002010  -0.006693  -0.012300
   82  H   4  X  -0.009902  -0.109131  -0.028539   0.064034   0.060642
   83  H   4  Y   0.029275   0.105162   0.098607  -0.101139  -0.039489
   84  H   4  Z   0.015074  -0.038823   0.154302  -0.159545  -0.132542
   85  H   5  S   0.027976   0.081720  -0.045575   0.021729   0.008805
   86  H   5  S   0.494690   0.729168  -1.436035   0.269099   0.934926
   87  H   5  S   2.326889   2.148509  -0.390114   2.606821   0.855826
   88  H   5  X   0.004186   0.004957   0.014589  -0.007794  -0.008502
   89  H   5  Y  -0.003144   0.007643   0.003991  -0.005796   0.000468
   90  H   5  Z   0.000273  -0.003869   0.001415   0.000494  -0.005004
   91  H   5  X  -0.076278  -0.096527   0.250166  -0.074153  -0.169677
   92  H   5  Y   0.002589  -0.000306  -0.045886   0.019699   0.011033
   93  H   5  Z  -0.023559  -0.064437   0.076858  -0.085100  -0.032231
   94  H   6  S  -0.031027  -0.004189   0.069460  -0.052310   0.042123
   95  H   6  S  -0.601981  -0.812909   0.824447   0.092449   0.905246
   96  H   6  S  -0.669124  -1.894177   2.671215   1.427509  -0.087674
   97  H   6  X  -0.003716  -0.012015  -0.000294   0.005786   0.002993
   98  H   6  Y  -0.005559  -0.006434  -0.005076   0.013912   0.004384
   99  H   6  Z  -0.001903  -0.004851  -0.008049  -0.000449   0.005742
  100  H   6  X   0.004304  -0.076799   0.086949   0.009717   0.096188
  101  H   6  Y  -0.088211  -0.121522   0.110664   0.124060   0.148062
  102  H   6  Z  -0.021392  -0.064236  -0.112737  -0.155453   0.092748
  103  H   7  S   0.000722   0.017399  -0.000583   0.040963   0.001152
  104  H   7  S  -0.041976   0.510445   0.030079  -0.394040   1.294327
  105  H   7  S  -2.033944  -5.807067  -5.469611  -4.376486  -0.375246
  106  H   7  X  -0.004333   0.007620   0.001297  -0.005115  -0.005172
  107  H   7  Y  -0.000707   0.004298   0.008301   0.013179  -0.011537
  108  H   7  Z  -0.003996  -0.003329   0.008902  -0.011913   0.006293
  109  H   7  X   0.049241  -0.104724   0.000548   0.112876  -0.074405
  110  H   7  Y  -0.027602  -0.083080  -0.058239   0.075071  -0.316045
  111  H   7  Z   0.033963  -0.010906  -0.147265   0.157965  -0.130594
  112  H   8  S  -0.017853   0.015344  -0.024931   0.064103   0.051664
  113  H   8  S  -0.925667  -0.190646  -1.123317   1.992394   1.890099
  114  H   8  S  -0.491148   1.201836  -2.298948  -0.109678   1.243155
  115  H   8  X   0.001554  -0.001479   0.004285   0.005371   0.009791
  116  H   8  Y   0.002335  -0.007729  -0.001866  -0.006125   0.004064
  117  H   8  Z   0.004443   0.009857   0.003276  -0.002854  -0.005635
  118  H   8  X  -0.109269  -0.052075  -0.049833   0.351020   0.320240
  119  H   8  Y  -0.090348   0.109021  -0.174196   0.162432   0.163521
  120  H   8  Z  -0.147644   0.094576   0.086750   0.088347  -0.061911
  121  H   9  S  -0.035387   0.056990   0.033091   0.019719   0.002758
  122  H   9  S  -0.707477  -0.233467   0.455652   0.265206   1.296506
  123  H   9  S   1.088302   2.974566   3.008183  -1.811753   2.185914
  124  H   9  X  -0.000927   0.008197  -0.005615   0.006577   0.001383
  125  H   9  Y   0.005135   0.005969   0.001090   0.009463  -0.015001
  126  H   9  Z   0.003850  -0.006830  -0.005295  -0.007252   0.011782
  127  H   9  X  -0.038091  -0.018811  -0.049304  -0.004869   0.188069
  128  H   9  Y   0.001065   0.014115  -0.057042   0.054853  -0.215289
  129  H   9  Z  -0.127302  -0.135806   0.057533  -0.067298   0.286535
  130  H  10  S   0.160334  -0.043074  -0.062808  -0.139689  -0.163842
  131  H  10  S   0.357178   0.003863  -0.204568   0.006050  -0.068081
  132  H  10  S  -0.563236  -0.587151  -0.298827   0.113926   1.478686
  133  H  10  X  -0.014075   0.003240  -0.000727   0.010247   0.010161
  134  H  10  Y   0.007160  -0.000449  -0.002846   0.002699   0.007641
  135  H  10  Z   0.007416  -0.003412   0.002439   0.001246  -0.000818
  136  H  10  X  -0.368346   0.242522  -0.240888   0.002988   0.008089
  137  H  10  Y   0.034945   0.038249   0.005773  -0.005251   0.015112
  138  H  10  Z  -0.008615   0.038788   0.095789   0.043050  -0.013413
  139  F  11  S  -0.002651   0.000389   0.005202   0.002718   0.002761
  140  F  11  S  -0.030543  -0.002653   0.034039   0.029509   0.034313
  141  F  11  S  -0.041461  -0.019495   0.022361   0.045960   0.059689
  142  F  11  S   0.437316  -0.334721   0.976223   0.196989   0.260975
  143  F  11  X   0.093090  -0.046821  -0.001152  -0.072765  -0.132178
  144  F  11  Y   0.000338  -0.051465   0.031859  -0.008122   0.003704
  145  F  11  Z  -0.041851   0.016229  -0.043738   0.008456   0.003564
  146  F  11  X   0.040861  -0.014442  -0.037846  -0.055856  -0.099291
  147  F  11  Y  -0.002850  -0.032379   0.023944   0.000481  -0.010242
  148  F  11  Z  -0.025149   0.015700  -0.042651  -0.001222   0.008044
  149  F  11  X  -0.044199   0.129352  -0.289124  -0.097155  -0.246360
  150  F  11  Y  -0.029125  -0.088411   0.091983  -0.013878   0.215399
  151  F  11  Z  -0.034289   0.001750   0.108901   0.152268   0.069113
  152  F  11 XX   0.001966  -0.000391  -0.001344  -0.001425  -0.000890
  153  F  11 YY  -0.001233   0.000555   0.000085   0.001312   0.000385
  154  F  11 ZZ  -0.000733  -0.000164   0.001259   0.000113   0.000505
  155  F  11 XY  -0.000803  -0.000174   0.000086  -0.000192  -0.000321
  156  F  11 XZ  -0.000363   0.000021  -0.000338   0.000096   0.000342
  157  F  11 YZ  -0.000100   0.000052  -0.000410  -0.000386   0.000300
  158  F  11 XX   0.006332  -0.004260   0.002459  -0.006775  -0.006818
  159  F  11 YY  -0.002567   0.001991  -0.001838   0.003919   0.002451
  160  F  11 ZZ  -0.003766   0.002269  -0.000620   0.002856   0.004368
  161  F  11 XY   0.002429   0.001858  -0.000864  -0.003626  -0.003298
  162  F  11 XZ   0.000495   0.004011   0.000491   0.000542  -0.000985
  163  F  11 YZ  -0.001812  -0.000852   0.001982  -0.001165  -0.001034

                     31         32         33         34         35
                    0.1006     0.1068     0.1103     0.1216     0.1285
                     A          A          A          A          A   
    1  C   1  S   0.004171  -0.006636   0.012322   0.014428  -0.001463
    2  C   1  S  -0.034667   0.003817   0.081128   0.101358  -0.032514
    3  C   1  S  -0.402143   0.485667  -0.034930  -0.133726  -0.012361
    4  C   1  S  -3.075858   0.836278  -6.119387   0.269848  -6.074674
    5  C   1  X  -0.024312   0.037755  -0.101725   0.077621   0.028511
    6  C   1  Y  -0.062707  -0.058391  -0.015929  -0.123998  -0.129017
    7  C   1  Z  -0.051741   0.039404   0.041961  -0.054993   0.003919
    8  C   1  X   0.083704  -0.263010   0.666183  -0.389424  -0.272081
    9  C   1  Y  -0.277789   0.324597   0.701145   1.161674   0.095984
   10  C   1  Z   0.730780  -0.508229  -1.036509  -0.177857   0.149445
   11  C   1  X  -0.584444  -2.456926   2.471929  -1.086459  -0.289796
   12  C   1  Y  -2.738726   0.732458   0.833482   5.027537   2.185812
   13  C   1  Z   3.101647  -2.185513   0.689826   2.059321   2.280734
   14  C   1 XX  -0.002126   0.005488  -0.012893  -0.003347  -0.002574
   15  C   1 YY  -0.007455  -0.007991   0.008733   0.000257  -0.004240
   16  C   1 ZZ   0.009580   0.002503   0.004161   0.003090   0.006813
   17  C   1 XY  -0.003275  -0.005863   0.004088   0.007189  -0.006834
   18  C   1 XZ   0.004344   0.002295   0.007988   0.000643  -0.008704
   19  C   1 YZ  -0.003484  -0.004399  -0.005127  -0.005117  -0.004352
   20  C   1 XX   0.080763  -0.106394   0.025796  -0.113628  -0.020259
   21  C   1 YY   0.027883   0.076505  -0.102815  -0.254935  -0.130736
   22  C   1 ZZ  -0.108646   0.029889   0.077019   0.368563   0.150995
   23  C   1 XY   0.074102   0.069226  -0.034810  -0.107913  -0.073417
   24  C   1 XZ  -0.116171  -0.178034   0.047960  -0.082256   0.033645
   25  C   1 YZ   0.057970  -0.137430  -0.256316  -0.012375   0.125851
   26  C   2  S  -0.004628  -0.005478   0.001532  -0.002323  -0.000224
   27  C   2  S  -0.031694  -0.012197  -0.050296  -0.021707   0.064190
   28  C   2  S  -0.168486   0.331343   0.012517   0.055044   0.512398
   29  C   2  S  -3.499067   7.287701  -0.614336  -0.170268   2.604392
   30  C   2  X  -0.026502  -0.077440  -0.057350   0.028485   0.059559
   31  C   2  Y  -0.151907  -0.054746   0.014768   0.016315   0.067964
   32  C   2  Z   0.049531  -0.035679   0.050048  -0.015849   0.028971
   33  C   2  X   0.665740  -0.267917  -0.430371  -0.418517  -0.243371
   34  C   2  Y  -0.079949   0.419679   0.392970   0.066186  -0.083272
   35  C   2  Z   1.411202  -0.693857  -1.026180  -0.869322  -0.501827
   36  C   2  X   3.188111   0.611272   2.655161  -0.777383  -2.767018
   37  C   2  Y   1.959837  -0.358504  -1.279140   0.462580  -7.845776
   38  C   2  Z   6.360008  -0.983177   1.083031  -4.050355   2.712201
   39  C   2 XX  -0.005272   0.005087   0.003383  -0.005431   0.014714
   40  C   2 YY   0.013840   0.004693   0.000379   0.004079   0.009814
   41  C   2 ZZ  -0.008568  -0.009780  -0.003762   0.001351  -0.024528
   42  C   2 XY   0.006583   0.006357   0.006412  -0.007010   0.002349
   43  C   2 XZ  -0.007086   0.001736   0.006682   0.005550  -0.005679
   44  C   2 YZ   0.003422   0.015479   0.006116  -0.002746   0.003600
   45  C   2 XX  -0.113351   0.079475   0.195209   0.125880  -0.017138
   46  C   2 YY   0.301323   0.080621   0.023299  -0.137517  -0.337979
   47  C   2 ZZ  -0.187971  -0.160096  -0.218508   0.011638   0.355116
   48  C   2 XY   0.083651   0.205139   0.217157   0.096640  -0.229460
   49  C   2 XZ  -0.299537  -0.021232   0.083557   0.152822   0.233478
   50  C   2 YZ  -0.171469   0.220829   0.383883   0.312334   0.041749
   51  C   3  S  -0.003692  -0.001588   0.007338   0.003305   0.001108
   52  C   3  S   0.046478  -0.035274   0.038057   0.004170  -0.040842
   53  C   3  S   0.769324  -0.226020  -0.654973  -0.385619  -0.900970
   54  C   3  S   8.397621  -4.543806   4.512595  -2.092244  -1.484750
   55  C   3  X   0.008152   0.056729  -0.096617   0.050792  -0.155118
   56  C   3  Y  -0.122330  -0.110238   0.054564   0.039375  -0.075545
   57  C   3  Z  -0.026139   0.061105   0.067211  -0.063206   0.113543
   58  C   3  X   0.966465  -0.292399  -0.386908  -0.740054   0.002555
   59  C   3  Y   0.830905   0.247502   0.225905  -0.363754   0.086611
   60  C   3  Z   0.545629  -0.571637  -0.605401  -0.306641  -0.719496
   61  C   3  X   3.089911  -3.962534   0.795772  -2.777302   4.650399
   62  C   3  Y   3.148340   1.232392   1.287304  -2.244698   4.960450
   63  C   3  Z   2.127039  -5.034486   1.701364   1.413469  -3.539487
   64  C   3 XX  -0.003451  -0.002224   0.001059   0.008979  -0.001483
   65  C   3 YY  -0.007995  -0.009505   0.006080   0.001136  -0.002459
   66  C   3 ZZ   0.011446   0.011730  -0.007139  -0.010115   0.003942
   67  C   3 XY  -0.010789  -0.007460  -0.024572  -0.006315  -0.002945
   68  C   3 XZ   0.007713   0.002617  -0.008295  -0.008990  -0.002886
   69  C   3 YZ  -0.008222  -0.003367   0.004145   0.007714   0.002586
   70  C   3 XX  -0.004479  -0.052652  -0.003441   0.081154  -0.260283
   71  C   3 YY  -0.101352   0.029901   0.127296   0.080491   0.019299
   72  C   3 ZZ   0.105831   0.022751  -0.123855  -0.161646   0.240984
   73  C   3 XY   0.102433   0.030923   0.104160   0.134748  -0.294963
   74  C   3 XZ   0.209987   0.048922  -0.133800  -0.107777  -0.212956
   75  C   3 YZ   0.116943  -0.043599  -0.031159   0.050517  -0.339354
   76  H   4  S  -0.032931  -0.004640   0.010632  -0.090186   0.010728
   77  H   4  S  -0.518300  -0.298626   2.027842  -1.661761  -0.942761
   78  H   4  S  -2.493152  -0.064756   2.733682  -5.141331  -4.943813
   79  H   4  X  -0.003397  -0.004728   0.016434  -0.000780  -0.008104
   80  H   4  Y   0.002095   0.000926  -0.011007   0.001703   0.003282
   81  H   4  Z   0.007703   0.000684  -0.007333   0.006589   0.009675
   82  H   4  X  -0.087731   0.008469   0.304645  -0.183723  -0.172201
   83  H   4  Y   0.079286  -0.032835  -0.240799   0.143462   0.045602
   84  H   4  Z   0.034302   0.074003  -0.423309   0.197892   0.251115
   85  H   5  S  -0.018106   0.050557  -0.072722   0.014708   0.003505
   86  H   5  S  -0.117954   0.945268  -0.792024   1.364340   0.199700
   87  H   5  S  -1.110117   1.710394  -3.983941   1.921619   0.409260
   88  H   5  X   0.003722  -0.005165   0.002246  -0.020216  -0.000539
   89  H   5  Y  -0.004202   0.000052   0.004582   0.004309  -0.002749
   90  H   5  Z   0.005931  -0.005873   0.005173   0.002465  -0.001072
   91  H   5  X   0.039480  -0.209138   0.074465  -0.306821  -0.023884
   92  H   5  Y  -0.029094  -0.091264  -0.046544  -0.021359  -0.098022
   93  H   5  Z  -0.034196   0.075980   0.163942  -0.257679  -0.019848
   94  H   6  S  -0.024119  -0.020949   0.059813   0.049709   0.001463
   95  H   6  S  -0.079301  -0.346488   1.805630   2.651057   0.523391
   96  H   6  S  -2.704621   2.162143   3.187083   6.742213   2.421704
   97  H   6  X   0.002735   0.000579   0.005572   0.004595   0.006103
   98  H   6  Y   0.002819   0.001072   0.014726   0.022940   0.006002
   99  H   6  Z   0.010003   0.005271   0.002088   0.007180   0.001533
  100  H   6  X   0.038116   0.039137   0.104603   0.271281   0.111816
  101  H   6  Y   0.032873  -0.032196   0.289153   0.543805   0.112780
  102  H   6  Z  -0.201222  -0.010883   0.045990   0.034764   0.181767
  103  H   7  S   0.025773   0.023380   0.016256  -0.002008   0.010873
  104  H   7  S  -0.929488  -1.286242  -0.764076   0.345014   1.049559
  105  H   7  S  -3.198736   0.225934  -1.620481  -0.520449   6.301381
  106  H   7  X   0.002800   0.005501   0.010082  -0.003133  -0.005702
  107  H   7  Y   0.015326   0.007610   0.000396   0.000023  -0.012290
  108  H   7  Z   0.004729   0.004763   0.000843  -0.000467  -0.000091
  109  H   7  X   0.101389   0.040594  -0.043180  -0.058351  -0.006072
  110  H   7  Y   0.266597   0.371645   0.275257  -0.042384  -0.195187
  111  H   7  Z   0.022542  -0.026618   0.047330  -0.044855  -0.099478
  112  H   8  S   0.021921  -0.026627  -0.010000  -0.031745   0.064847
  113  H   8  S   1.862463   0.180781  -0.263043  -1.712867   1.674493
  114  H   8  S   6.686932  -3.149714   1.633435  -6.014734   7.975749
  115  H   8  X   0.010685   0.001566   0.004884  -0.002804   0.007394
  116  H   8  Y   0.007110   0.002667   0.015183  -0.000403   0.011942
  117  H   8  Z  -0.002774  -0.004425  -0.001150   0.000829   0.003570
  118  H   8  X   0.391131   0.104822   0.067806  -0.230865   0.055604
  119  H   8  Y   0.209164  -0.021209   0.098255  -0.238517   0.293215
  120  H   8  Z   0.017911   0.134967   0.072458   0.084068  -0.257988
  121  H   9  S   0.021931  -0.015812  -0.046279  -0.046449  -0.001282
  122  H   9  S  -0.416993  -0.947368  -0.793769   0.601167  -2.103350
  123  H   9  S  -1.721418  -4.299008   1.024812   2.744855  -5.800479
  124  H   9  X  -0.000491  -0.007643  -0.004905  -0.000273   0.002249
  125  H   9  Y   0.002184   0.002455   0.004252  -0.005533   0.010916
  126  H   9  Z  -0.005666  -0.019594   0.003354   0.009366  -0.014468
  127  H   9  X  -0.033507   0.100646  -0.123653   0.028615  -0.137908
  128  H   9  Y  -0.012292   0.115510   0.039035  -0.131457   0.315537
  129  H   9  Z  -0.135822  -0.214943  -0.080332   0.151565  -0.390974
  130  H  10  S  -0.063860  -0.017885   0.201529   0.065038   0.080366
  131  H  10  S   0.244620   0.326403   0.504105  -0.003952  -0.331895
  132  H  10  S   2.940458   1.058118  -1.382278   1.133700  -2.523407
  133  H  10  X   0.003586   0.000212  -0.009226  -0.008235  -0.002644
  134  H  10  Y   0.008875   0.007842  -0.004143   0.003800  -0.004162
  135  H  10  Z   0.001338   0.000654  -0.000984  -0.002447  -0.005087
  136  H  10  X  -0.156220  -0.128811  -0.010006  -0.281956   0.257309
  137  H  10  Y   0.032025   0.033357  -0.060235   0.014332  -0.121606
  138  H  10  Z   0.082352   0.009825   0.034804   0.055344  -0.079321
  139  F  11  S   0.001034  -0.001090  -0.005981   0.001422  -0.002666
  140  F  11  S   0.010691  -0.002002  -0.059272   0.014466  -0.026601
  141  F  11  S   0.016593   0.014407  -0.083226   0.022561  -0.044198
  142  F  11  S   0.279740  -0.012380  -0.626390   0.725476  -0.564108
  143  F  11  X  -0.051266  -0.035335   0.097786   0.041976   0.066934
  144  F  11  Y  -0.013910  -0.014575   0.004542  -0.013656  -0.007546
  145  F  11  Z   0.023642  -0.007939  -0.010784   0.059050   0.017757
  146  F  11  X  -0.043394  -0.022159   0.093304   0.007534   0.055598
  147  F  11  Y  -0.012736  -0.015249   0.017215  -0.014355  -0.001522
  148  F  11  Z   0.003317  -0.002940   0.002086   0.041987   0.015108
  149  F  11  X  -0.170080  -0.042304   0.268935  -0.364596   0.311397
  150  F  11  Y   0.004520  -0.064015  -0.201488   0.026925   0.011068
  151  F  11  Z   0.195581  -0.115632  -0.265194   0.237169   0.013827
  152  F  11 XX  -0.000396   0.000158   0.002882   0.000940   0.000345
  153  F  11 YY   0.000488  -0.000253  -0.000886   0.000759  -0.000466
  154  F  11 ZZ  -0.000092   0.000095  -0.001996  -0.001700   0.000121
  155  F  11 XY  -0.000241  -0.000332   0.000148  -0.000434   0.000312
  156  F  11 XZ   0.000102  -0.000033  -0.000393  -0.000271   0.000331
  157  F  11 YZ   0.000123   0.000689   0.000709   0.000633  -0.000355
  158  F  11 XX  -0.003413  -0.000312   0.002232   0.008429   0.002688
  159  F  11 YY  -0.000309   0.000232  -0.001598  -0.007513  -0.002980
  160  F  11 ZZ   0.003722   0.000080  -0.000634  -0.000916   0.000292
  161  F  11 XY  -0.002250   0.000535   0.005050   0.001263  -0.004041
  162  F  11 XZ  -0.001477   0.003492   0.004150  -0.001996   0.000284
  163  F  11 YZ   0.002478  -0.001122  -0.003145   0.002199  -0.001731

                     36         37         38         39         40
                    0.1298     0.1458     0.1570     0.1820     0.1986
                     A          A          A          A          A   
    1  C   1  S  -0.009688  -0.017047   0.002887  -0.014785  -0.020291
    2  C   1  S  -0.072085  -0.060608   0.022937  -0.033463  -0.063873
    3  C   1  S  -0.050191   0.692880   0.056911   0.781296   0.888406
    4  C   1  S  11.694670   5.810169  -8.384980  11.011779  27.170795
    5  C   1  X  -0.081685  -0.043562  -0.267942   0.032331  -0.036097
    6  C   1  Y  -0.000845  -0.157365  -0.034484   0.109056  -0.073714
    7  C   1  Z  -0.002792  -0.186331   0.025984  -0.037503   0.056282
    8  C   1  X   0.438443   0.323510  -0.345202   0.107830  -0.188298
    9  C   1  Y  -0.591697  -0.396726   0.218365  -0.026988   0.395477
   10  C   1  Z   1.138283   0.739392  -0.629511   0.729426  -0.514312
   11  C   1  X   2.518375   1.303074   2.222229   0.826484  -1.562927
   12  C   1  Y   4.052029   3.816881  -1.152770   2.476247   2.981954
   13  C   1  Z  -0.852524   0.192744   1.638733  -2.296333  -8.308578
   14  C   1 XX   0.006785   0.026236   0.043467  -0.012373  -0.015027
   15  C   1 YY   0.002298  -0.024525  -0.031789   0.044082   0.003704
   16  C   1 ZZ  -0.009082  -0.001711  -0.011678  -0.031709   0.011324
   17  C   1 XY   0.003525  -0.042312   0.003983   0.013756  -0.000891
   18  C   1 XZ   0.015968  -0.017645   0.011405   0.001323  -0.004401
   19  C   1 YZ   0.005033   0.018363  -0.031225   0.002755  -0.041321
   20  C   1 XX   0.193887   0.152431  -0.220678   0.188930  -0.247188
   21  C   1 YY  -0.161330  -0.064104   0.062694  -0.132751  -0.085319
   22  C   1 ZZ  -0.032557  -0.088327   0.157985  -0.056178   0.332508
   23  C   1 XY  -0.036504   0.248689  -0.173431   0.097974  -0.029047
   24  C   1 XZ   0.114076   0.096393   0.226079  -0.202118   0.126768
   25  C   1 YZ   0.265587   0.240332   0.125187   0.108139  -0.040985
   26  C   2  S   0.003943  -0.006018  -0.003823  -0.007887   0.040030
   27  C   2  S   0.079233  -0.030748   0.003889  -0.015939   0.213755
   28  C   2  S  -0.009896  -0.103838   0.031158   0.055768   0.012050
   29  C   2  S  -7.494409  18.055978   4.776120   8.050287 -47.773894
   30  C   2  X  -0.049068  -0.084192   0.065489   0.034740  -0.027057
   31  C   2  Y   0.060793   0.042491  -0.021739   0.065557  -0.065480
   32  C   2  Z   0.005859  -0.032260  -0.047821  -0.008165   0.097305
   33  C   2  X  -0.163106   1.034107   0.301125   0.583485  -0.807600
   34  C   2  Y  -0.884658   0.657348   0.603439   0.542549  -0.810079
   35  C   2  Z   0.833995   1.594692  -0.261272   0.779207  -1.060339
   36  C   2  X  -1.848503  -4.089632  -0.365575  -3.638031   4.461460
   37  C   2  Y  -1.619149  -3.099922  -1.195724   1.274497  13.527707
   38  C   2  Z  -6.252181  -8.868193   3.936141  -7.472946  -3.030847
   39  C   2 XX  -0.016262  -0.001235   0.020445   0.009585  -0.002565
   40  C   2 YY   0.010904   0.015504  -0.015427  -0.043702  -0.000878
   41  C   2 ZZ   0.005358  -0.014269  -0.005018   0.034116   0.003443
   42  C   2 XY   0.019010  -0.013179   0.008215  -0.020024  -0.003950
   43  C   2 XZ  -0.006733  -0.023590  -0.027331  -0.002149   0.007114
   44  C   2 YZ   0.002478  -0.019906  -0.011927  -0.000578   0.006821
   45  C   2 XX  -0.077262  -0.237535   0.146088  -0.251833   0.399451
   46  C   2 YY  -0.309264   0.317556  -0.022961   0.272493  -0.374118
   47  C   2 ZZ   0.386526  -0.080021  -0.123127  -0.020660  -0.025333
   48  C   2 XY  -0.221901   0.018637   0.052647   0.127185  -0.270415
   49  C   2 XZ   0.028294  -0.395548   0.146201  -0.350392   0.072529
   50  C   2 YZ  -0.393853  -0.204772   0.286369  -0.187488   0.465955
   51  C   3  S  -0.012795   0.011791  -0.015827   0.002671   0.007450
   52  C   3  S  -0.074990   0.048317  -0.062962   0.046769   0.028347
   53  C   3  S   0.597841   0.272203  -0.088157   0.322835  -1.050757
   54  C   3  S  -3.171346 -22.454069   4.714444 -14.774408  20.108281
   55  C   3  X   0.156096  -0.020460  -0.025214   0.014074  -0.060617
   56  C   3  Y  -0.150877   0.020282   0.031806   0.031865   0.037967
   57  C   3  Z  -0.036452  -0.135865  -0.038186  -0.020829  -0.058974
   58  C   3  X  -0.041621   1.145720   0.111715   0.922569  -0.405604
   59  C   3  Y  -0.216624   0.268961   0.028764   0.538646  -0.065234
   60  C   3  Z  -0.019301   1.365021  -0.302397   0.437202  -0.480703
   61  C   3  X  -3.392921  -4.571519   1.281268  -2.521909   2.335073
   62  C   3  Y   0.649847  -2.457849  -0.450431  -0.788854  -1.611699
   63  C   3  Z  -0.351105  -3.209761   0.735728  -4.172369   5.505988
   64  C   3 XX  -0.008556   0.005132   0.014407   0.032157   0.006456
   65  C   3 YY   0.001819  -0.012453  -0.018118  -0.019346  -0.011896
   66  C   3 ZZ   0.006737   0.007321   0.003711  -0.012811   0.005440
   67  C   3 XY   0.017048   0.011991   0.002282   0.022824  -0.019683
   68  C   3 XZ   0.006950   0.015252  -0.012214  -0.017886   0.033130
   69  C   3 YZ  -0.012638   0.015206   0.002668   0.024992   0.033041
   70  C   3 XX   0.003292   0.030726  -0.012490  -0.101133  -0.092797
   71  C   3 YY  -0.097072  -0.035326   0.037702   0.014838   0.195012
   72  C   3 ZZ   0.093781   0.004600  -0.025212   0.086294  -0.102215
   73  C   3 XY  -0.072058  -0.002431   0.118046  -0.213024   0.133151
   74  C   3 XZ   0.164026   0.220269   0.115482   0.133110  -0.438300
   75  C   3 YZ  -0.047588   0.337034   0.075819   0.111096  -0.294265
   76  H   4  S  -0.031908   0.098500  -0.072374  -0.061294  -0.024824
   77  H   4  S  -1.064122  -0.919387   0.259637  -2.053153  -0.494641
   78  H   4  S   0.441728  -1.633115   1.086911   0.715531   2.590977
   79  H   4  X  -0.001619  -0.024894  -0.000747   0.000670  -0.001721
   80  H   4  Y   0.003356   0.016562  -0.014137   0.017264  -0.011201
   81  H   4  Z   0.005545   0.008683  -0.014240  -0.004624   0.010970
   82  H   4  X  -0.145568  -0.471550  -0.236864  -0.088310  -0.188860
   83  H   4  Y   0.131305   0.127792  -0.446447   0.461080  -0.064178
   84  H   4  Z   0.024795   0.375497  -0.309660   0.227005  -0.068580
   85  H   5  S   0.017031   0.038012   0.125086  -0.068491  -0.024439
   86  H   5  S  -2.140034  -1.772945   1.110366  -1.268515   0.058959
   87  H   5  S  -4.486773  -1.759380  -3.799355   0.180048   2.552424
   88  H   5  X   0.020007   0.021587   0.016613   0.006408   0.004168
   89  H   5  Y   0.000746  -0.010173   0.001249   0.004931  -0.010212
   90  H   5  Z   0.007264  -0.013467   0.002210   0.001303   0.011390
   91  H   5  X   0.475785   0.473491   0.108078   0.007368   0.107646
   92  H   5  Y  -0.020400  -0.440691   0.023335  -0.014245   0.024399
   93  H   5  Z   0.151229   0.106918  -0.003091   0.096760  -0.250484
   94  H   6  S   0.026052  -0.084376  -0.066029   0.170820  -0.027372
   95  H   6  S  -0.031812  -1.201172  -0.035365  -0.269444   0.109999
   96  H   6  S   4.128678   5.120744   1.818196   1.775123   0.083741
   97  H   6  X  -0.003182   0.010184  -0.007407  -0.000642  -0.002334
   98  H   6  Y  -0.000571   0.010777   0.012726  -0.019244  -0.012743
   99  H   6  Z  -0.005432  -0.009072   0.009181  -0.004723   0.024558
  100  H   6  X  -0.090225   0.236062  -0.267386  -0.026121   0.154332
  101  H   6  Y  -0.033246  -0.068608   0.236323  -0.391704   0.250067
  102  H   6  Z  -0.003931   0.094728   0.445388   0.175258   0.131170
  103  H   7  S   0.033399   0.017108  -0.026169  -0.192718  -0.040751
  104  H   7  S   2.652797  -2.745301  -1.540342  -2.340096   3.935889
  105  H   7  S   3.128632   2.781822   0.584091  -0.456254  -8.807872
  106  H   7  X  -0.005204   0.000849   0.000490  -0.002050  -0.004593
  107  H   7  Y  -0.010251   0.003926   0.001084  -0.005663  -0.006305
  108  H   7  Z  -0.001369  -0.007726  -0.004047  -0.001461   0.001335
  109  H   7  X  -0.196615   0.134047   0.258955   0.103938  -0.294510
  110  H   7  Y  -0.570085   0.735271   0.326347   0.099622  -0.993608
  111  H   7  Z   0.014025  -0.057213  -0.231915   0.141534  -0.209506
  112  H   8  S  -0.001633   0.003083   0.003642   0.074187  -0.052277
  113  H   8  S  -0.121127   1.743539  -0.341780   2.409342  -0.350989
  114  H   8  S  -3.526042  -3.805915  -1.121054  -0.742855  -1.125771
  115  H   8  X  -0.006643  -0.004487  -0.005232  -0.009735  -0.002840
  116  H   8  Y  -0.012908  -0.000664  -0.002930  -0.000793   0.010634
  117  H   8  Z   0.000250  -0.005598   0.000428  -0.005625  -0.021371
  118  H   8  X   0.047298   0.166876  -0.138466   0.058344   0.151463
  119  H   8  Y  -0.258634   0.308217   0.208557   0.364974   0.321661
  120  H   8  Z   0.107684  -0.244805   0.272333  -0.114010  -0.481879
  121  H   9  S   0.063950  -0.021227  -0.026946  -0.155956  -0.102962
  122  H   9  S  -0.172231   2.162637  -0.540204  -0.251402  -0.695962
  123  H   9  S  -2.827768   0.911023   1.493640  -2.632148   2.752779
  124  H   9  X   0.003594  -0.002195  -0.001080   0.006019  -0.016616
  125  H   9  Y   0.004845  -0.013718  -0.000848  -0.001276  -0.011045
  126  H   9  Z  -0.011280   0.007202  -0.003127   0.005930   0.004934
  127  H   9  X   0.154262  -0.005509   0.089826   0.283948  -0.248282
  128  H   9  Y   0.142951  -0.417908  -0.010765  -0.250012  -0.188718
  129  H   9  Z  -0.231781   0.394821  -0.121849   0.034958   0.128378
  130  H  10  S  -0.175201  -0.014187   0.027532   0.023947   0.062331
  131  H  10  S   0.135911   0.174951  -0.559281   0.387963   0.110655
  132  H  10  S   2.477922  -1.617110  -0.354660  -0.780440   0.704860
  133  H  10  X   0.010099   0.006400  -0.007356   0.003016  -0.008814
  134  H  10  Y   0.003365  -0.000073   0.002477   0.020537  -0.001824
  135  H  10  Z   0.002120   0.008355  -0.005876  -0.005901  -0.001894
  136  H  10  X   0.040052   0.189702   0.076536   0.420491  -0.244779
  137  H  10  Y   0.131519  -0.038097   0.032963  -0.044391  -0.099026
  138  H  10  Z   0.056054  -0.252757  -0.183837  -0.192248   0.034427
  139  F  11  S  -0.000191  -0.003472  -0.000382   0.000079   0.004548
  140  F  11  S   0.026640  -0.020072  -0.011060  -0.027794   0.019646
  141  F  11  S   0.086374  -0.001921  -0.036893  -0.096436  -0.011363
  142  F  11  S  -0.300305  -0.863488   0.104435  -0.760358   1.454568
  143  F  11  X  -0.126763  -0.029986   0.037850  -0.012769   0.043081
  144  F  11  Y   0.005243  -0.003461  -0.047778  -0.124492   0.004650
  145  F  11  Z   0.014026  -0.067155   0.015365   0.048725  -0.008680
  146  F  11  X  -0.076294  -0.002960   0.014069   0.007784   0.002796
  147  F  11  Y  -0.010990   0.003314  -0.060384  -0.123255   0.013145
  148  F  11  Z   0.007408  -0.053294   0.032571   0.080828  -0.022506
  149  F  11  X  -0.065361   0.381203  -0.018624   0.615534  -0.487252
  150  F  11  Y   0.104100  -0.177102   0.151629   0.209935   0.236504
  151  F  11  Z  -0.033944  -0.151138  -0.060686  -0.347427   0.583569
  152  F  11 XX  -0.001329   0.000164  -0.001924   0.001298   0.000985
  153  F  11 YY   0.000165  -0.000869   0.000577  -0.001143  -0.000281
  154  F  11 ZZ   0.001164   0.000705   0.001348  -0.000155  -0.000704
  155  F  11 XY  -0.000719   0.000156  -0.000115   0.000907   0.000615
  156  F  11 XZ  -0.000594   0.001102   0.001574   0.000464   0.000373
  157  F  11 YZ  -0.000598   0.001321   0.000243   0.000180  -0.000156
  158  F  11 XX  -0.010224  -0.006257   0.007114  -0.005556   0.006519
  159  F  11 YY   0.008911   0.005922  -0.003211   0.006420  -0.005830
  160  F  11 ZZ   0.001312   0.000336  -0.003904  -0.000864  -0.000689
  161  F  11 XY   0.000585   0.001363  -0.004102  -0.012738   0.000025
  162  F  11 XZ   0.001382  -0.006421  -0.001383  -0.001256   0.002329
  163  F  11 YZ   0.000530  -0.008698   0.005058  -0.002678   0.001051

                     41         42         43         44         45
                    0.2056     0.2155     0.2249     0.2300     0.2601
                     A          A          A          A          A   
    1  C   1  S  -0.020232  -0.002278  -0.000468   0.021442   0.001015
    2  C   1  S  -0.082206  -0.052792  -0.058594   0.110626  -0.016134
    3  C   1  S   0.866690  -0.458522  -0.796765  -1.204995  -0.559188
    4  C   1  S  17.958998  -2.841756  13.087280   9.655535   2.674838
    5  C   1  X  -0.081433  -0.020273   0.029911  -0.040984   0.066117
    6  C   1  Y   0.115792  -0.093965  -0.090406   0.041829  -0.074944
    7  C   1  Z  -0.020190   0.170581   0.175405  -0.141503   0.094901
    8  C   1  X  -0.009087  -0.067875   0.018379   0.134351   1.036474
    9  C   1  Y   0.066090   0.372344  -0.631077  -1.201085  -0.133159
   10  C   1  Z   0.833326  -0.110635   0.845672   1.565720   0.281473
   11  C   1  X  -0.164417   1.062850   0.477642  -0.807348   1.255792
   12  C   1  Y   4.687328   0.315710   3.501770  -0.274986   1.368946
   13  C   1  Z  -3.677690   0.418678  -3.686355  -2.579601   0.313324
   14  C   1 XX   0.031431  -0.005891  -0.025589   0.011537  -0.002216
   15  C   1 YY  -0.016016  -0.005679   0.007440  -0.005005   0.010695
   16  C   1 ZZ  -0.015415   0.011571   0.018149  -0.006532  -0.008478
   17  C   1 XY   0.040796   0.009050  -0.017656  -0.006892   0.018904
   18  C   1 XZ   0.014008   0.015349   0.016844   0.008199  -0.025541
   19  C   1 YZ   0.003571  -0.026334  -0.010310   0.015021  -0.027644
   20  C   1 XX  -0.034533  -0.262701   0.259652   0.183639   0.048090
   21  C   1 YY   0.293235   0.104403  -0.151758  -0.122517   0.118994
   22  C   1 ZZ  -0.258701   0.158298  -0.107894  -0.061123  -0.167083
   23  C   1 XY  -0.428819  -0.098936   0.456266   0.183056  -0.120412
   24  C   1 XZ  -0.020113  -0.189050  -0.177640  -0.160185   0.434922
   25  C   1 YZ   0.198661  -0.150459   0.059685   0.646197  -0.042216
   26  C   2  S  -0.012714   0.021534   0.006338   0.015486   0.003889
   27  C   2  S  -0.077571   0.109020   0.037320  -0.016517   0.033366
   28  C   2  S  -0.078592  -0.715516  -0.515201  -1.449277  -0.610213
   29  C   2  S  10.906978  11.296597   5.887972 -17.734503   8.035386
   30  C   2  X   0.055672   0.048695   0.002244   0.010380   0.015501
   31  C   2  Y   0.015885  -0.095190  -0.164831   0.048848   0.057117
   32  C   2  Z   0.024126   0.053982   0.114622  -0.057871   0.124643
   33  C   2  X   0.129193   0.685913   0.650916   1.037040   0.727676
   34  C   2  Y  -0.622450   0.685812   0.037325  -0.687921   0.427208
   35  C   2  Z   0.295301   0.414858   1.895601   2.751579   0.754932
   36  C   2  X  -6.984634  -2.340975  -4.193487   2.073709  -1.693857
   37  C   2  Y   0.405099  -0.507685   1.257987   3.270276   1.136330
   38  C   2  Z -13.606587  -2.030497 -10.541522   2.509814  -4.815844
   39  C   2 XX  -0.001464   0.011948   0.018882  -0.048163   0.028747
   40  C   2 YY   0.000661   0.008741   0.004331   0.034387  -0.037009
   41  C   2 ZZ   0.000803  -0.020689  -0.023213   0.013776   0.008261
   42  C   2 XY   0.016827  -0.019484   0.023714  -0.010360  -0.004814
   43  C   2 XZ   0.014642  -0.015689  -0.009953  -0.008798   0.013269
   44  C   2 YZ   0.001284   0.033494   0.033192  -0.031366   0.023999
   45  C   2 XX   0.099398   0.134045  -0.269420  -0.166862  -0.118278
   46  C   2 YY   0.028036   0.340024   0.204380  -0.540323   0.189853
   47  C   2 ZZ  -0.127434  -0.474070   0.065040   0.707185  -0.071575
   48  C   2 XY  -0.001953   0.333924  -0.042012  -0.275152  -0.051528
   49  C   2 XZ   0.176846  -0.313446  -0.609555  -0.434896  -0.078161
   50  C   2 YZ  -0.155698  -0.160583  -0.427482  -1.072407  -0.267033
   51  C   3  S   0.036309  -0.013826   0.009101  -0.009883  -0.007029
   52  C   3  S   0.131998  -0.075139  -0.000967  -0.070453   0.007153
   53  C   3  S  -2.027078   1.024522   0.198470   1.706972   1.498301
   54  C   3  S -30.585675  -7.721346 -21.022666   6.586573  -8.283627
   55  C   3  X  -0.085844  -0.039933  -0.063905  -0.017938   0.086903
   56  C   3  Y   0.033831  -0.006777   0.035416   0.115313  -0.036662
   57  C   3  Z   0.018486   0.012947   0.057818   0.018463   0.071303
   58  C   3  X   0.342305   0.895917   1.162781   0.994254   0.262414
   59  C   3  Y   0.217474  -0.235870   0.241916   0.385729   0.351531
   60  C   3  Z   0.381273   0.778800   1.631561   1.553758   0.427544
   61  C   3  X  -6.629698   0.023844  -5.243694   1.364080  -2.030156
   62  C   3  Y  -2.042578  -2.301965  -3.555672   1.305505  -2.059223
   63  C   3  Z  -7.087562  -0.562420  -2.157449   0.058066  -0.588369
   64  C   3 XX  -0.010032  -0.008468   0.006513   0.033691   0.000066
   65  C   3 YY   0.010317  -0.005383  -0.050732  -0.006007  -0.008231
   66  C   3 ZZ  -0.000285   0.013851   0.044219  -0.027684   0.008165
   67  C   3 XY  -0.020706  -0.013007  -0.012748   0.046611   0.016430
   68  C   3 XZ  -0.002772   0.023453  -0.012664  -0.010576  -0.032119
   69  C   3 YZ  -0.012408  -0.014266  -0.028808  -0.001828  -0.008900
   70  C   3 XX   0.286665   0.184368   0.042042  -0.241525  -0.057473
   71  C   3 YY  -0.142505  -0.009190   0.090362  -0.257073  -0.090105
   72  C   3 ZZ  -0.144160  -0.175178  -0.132404   0.498598   0.147579
   73  C   3 XY  -0.013838  -0.058777  -0.088183  -0.451883   0.006144
   74  C   3 XZ   0.058869   0.072755   0.565331   0.830811   0.370162
   75  C   3 YZ   0.265820   0.275925   0.407600   0.104384   0.168961
   76  H   4  S  -0.088728  -0.039015  -0.015432  -0.007354  -0.053773
   77  H   4  S  -2.397785  -0.463429  -0.955472  -1.697588   1.162925
   78  H   4  S   0.206758   0.632862   1.394601   0.348594   0.199043
   79  H   4  X  -0.006407   0.005282   0.002765  -0.004852  -0.003542
   80  H   4  Y  -0.001549  -0.011938   0.004093   0.003718  -0.006070
   81  H   4  Z   0.002703  -0.004300   0.007763  -0.009894   0.005149
   82  H   4  X  -0.173065   0.046875   0.067344  -0.149849   0.074257
   83  H   4  Y  -0.252648  -0.060491   0.298009   0.269543  -0.497679
   84  H   4  Z   0.378391   0.088280   0.060721   0.102813  -0.129099
   85  H   5  S   0.095671   0.022314  -0.017574   0.005674  -0.089187
   86  H   5  S  -0.975634   0.962867  -0.651319  -0.908097  -2.509709
   87  H   5  S   1.625631  -0.588651   1.327266  -0.127246  -0.650023
   88  H   5  X   0.019380  -0.000265  -0.005002   0.005055  -0.003224
   89  H   5  Y   0.013868  -0.001481  -0.014039  -0.002182   0.003372
   90  H   5  Z   0.001311   0.015471   0.011039   0.002250  -0.009397
   91  H   5  X   0.521400  -0.234975  -0.313906   0.127350   0.574721
   92  H   5  Y   0.460646   0.000072  -0.385824  -0.226204   0.135359
   93  H   5  Z   0.279773   0.071344   0.329410   0.004434  -0.241931
   94  H   6  S   0.063141  -0.002480  -0.031153  -0.073866   0.071712
   95  H   6  S  -0.181967   0.253066  -1.344855  -0.942891   0.619215
   96  H   6  S   2.744853   0.928684   2.184956  -0.735355   1.604080
   97  H   6  X  -0.022705  -0.002637   0.009778   0.001026  -0.004048
   98  H   6  Y  -0.000869  -0.000673  -0.007122   0.005241   0.002139
   99  H   6  Z  -0.004410   0.008519   0.001403  -0.000048   0.014974
  100  H   6  X  -0.617269  -0.242433   0.319711  -0.031224  -0.021230
  101  H   6  Y   0.038245   0.156007  -0.324521   0.208134   0.239987
  102  H   6  Z  -0.111109   0.118900  -0.005838  -0.054262   0.385956
  103  H   7  S   0.055360  -0.025513   0.100533   0.063294  -0.128732
  104  H   7  S   0.696292  -2.501662  -0.576767   3.326034  -1.809320
  105  H   7  S   2.434079  -0.023941   0.280464  -1.369074  -0.578869
  106  H   7  X  -0.000267  -0.006182   0.011443  -0.008459   0.000643
  107  H   7  Y   0.004479  -0.004970   0.001034   0.010118  -0.007434
  108  H   7  Z   0.003758   0.012363   0.014829   0.001181   0.013337
  109  H   7  X  -0.055065  -0.150154   0.471326  -0.590238   0.207953
  110  H   7  Y  -0.092503   0.412343   0.416658  -0.369493  -0.042214
  111  H   7  Z  -0.060177   0.339164   0.336521  -0.014788   0.287329
  112  H   8  S  -0.021103  -0.035202  -0.042435   0.115388   0.037972
  113  H   8  S   2.581964  -0.301713   2.100864   2.675856   0.471503
  114  H   8  S  -3.397594  -0.809349  -5.000473   1.527848  -1.966167
  115  H   8  X   0.016776  -0.005697  -0.003948  -0.032092  -0.001381
  116  H   8  Y   0.018643  -0.000671   0.004950  -0.018408  -0.012541
  117  H   8  Z   0.001033   0.008347   0.010653   0.001678   0.010622
  118  H   8  X   0.804365  -0.159344   0.016961  -0.393247  -0.133117
  119  H   8  Y   0.221346  -0.189664   0.734102   0.015525   0.024235
  120  H   8  Z   0.205766  -0.072663   0.513587   0.386947   0.288694
  121  H   9  S   0.004008   0.131468   0.157060  -0.037457   0.052779
  122  H   9  S   2.552209   1.909399   3.328325   0.342207  -0.362794
  123  H   9  S  -3.856058   1.678333   1.010065  -0.387009   0.658022
  124  H   9  X  -0.006468  -0.006387  -0.003436   0.012332   0.017383
  125  H   9  Y  -0.003996   0.004504  -0.005768   0.004556   0.002636
  126  H   9  Z   0.007802  -0.006256  -0.003745   0.001956  -0.006181
  127  H   9  X  -0.096248  -0.291207   0.349372   0.682744   0.278630
  128  H   9  Y  -0.251507  -0.171736  -0.609439   0.218915   0.403730
  129  H   9  Z   0.613234   0.117566   0.006926   0.195313  -0.424437
  130  H  10  S   0.116806   0.050353   0.099309   0.159417  -0.011238
  131  H  10  S   0.783130   1.903697  -0.026815   2.219637   0.174182
  132  H  10  S   0.680539  -1.771842  -0.253628   0.113136  -0.408925
  133  H  10  X   0.003366   0.015738   0.001971   0.011725   0.002376
  134  H  10  Y  -0.002985   0.000429   0.003258   0.007549  -0.001032
  135  H  10  Z   0.007813   0.019974   0.001159  -0.001337   0.000746
  136  H  10  X  -0.326382   1.178798  -0.244053  -0.242886  -0.389832
  137  H  10  Y  -0.035754  -0.183019   0.153005   0.578530   0.576968
  138  H  10  Z  -0.052112  -0.100482  -0.075636   0.307104  -0.310670
  139  F  11  S  -0.002981   0.002494   0.000028   0.007288  -0.001327
  140  F  11  S  -0.006550  -0.029237  -0.015081  -0.025293  -0.017043
  141  F  11  S   0.037675  -0.134895  -0.047842  -0.191689  -0.028441
  142  F  11  S   0.291809  -2.642969   0.559315   0.420698   0.227713
  143  F  11  X   0.066541  -0.097067   0.093028   0.065922  -0.006589
  144  F  11  Y   0.046565  -0.020118  -0.010881   0.063170   0.087168
  145  F  11  Z  -0.001630  -0.044101   0.036089   0.041240  -0.084909
  146  F  11  X   0.051776  -0.000333   0.072572   0.065072  -0.019424
  147  F  11  Y   0.066771  -0.004191  -0.033820   0.056953   0.122602
  148  F  11  Z  -0.008702  -0.021753   0.062578   0.051931  -0.126311
  149  F  11  X  -0.176296   2.346731  -0.603194   0.422295  -0.129136
  150  F  11  Y  -0.107389   0.011583   0.087390  -0.366833  -1.052172
  151  F  11  Z   0.074561  -0.231901  -0.374573  -0.161112   0.664729
  152  F  11 XX   0.002462   0.010688  -0.002093   0.006009  -0.000985
  153  F  11 YY  -0.002109  -0.005408   0.000157  -0.003246   0.000803
  154  F  11 ZZ  -0.000353  -0.005281   0.001936  -0.002762   0.000181
  155  F  11 XY   0.000169   0.001853  -0.000886  -0.005693  -0.007188
  156  F  11 XZ  -0.000531  -0.001325  -0.000882  -0.002118   0.005045
  157  F  11 YZ  -0.000122   0.000779   0.000332  -0.000136   0.000539
  158  F  11 XX   0.001200  -0.030519   0.014492  -0.005191  -0.001565
  159  F  11 YY   0.003958   0.012336  -0.000146  -0.001008   0.005727
  160  F  11 ZZ  -0.005157   0.018183  -0.014346   0.006199  -0.004162
  161  F  11 XY  -0.001369  -0.008302   0.003274   0.012407   0.017539
  162  F  11 XZ  -0.001789  -0.007368  -0.003286   0.007604  -0.002746
  163  F  11 YZ   0.003934   0.000935  -0.005856  -0.005019   0.004489

                     46         47         48         49         50
                    0.2614     0.2812     0.2896     0.2957     0.3095
                     A          A          A          A          A   
    1  C   1  S  -0.004138   0.015976  -0.042740   0.005818   0.004950
    2  C   1  S  -0.036148  -0.031085  -0.067911   0.073799  -0.038043
    3  C   1  S  -0.256420  -1.356022   3.089384   0.499341  -0.145603
    4  C   1  S   4.191346   0.102775  -5.625454  -2.023371  -5.045375
    5  C   1  X  -0.010318  -0.094606   0.015309  -0.079963   0.000985
    6  C   1  Y  -0.032933  -0.010908   0.047510   0.155418  -0.011343
    7  C   1  Z   0.007162   0.104794   0.080859   0.019408  -0.033420
    8  C   1  X   0.502999  -0.288229   0.197178  -0.180751  -0.043616
    9  C   1  Y   0.601420  -0.019594   1.792702  -0.110735  -0.395102
   10  C   1  Z  -0.326969   1.476692  -2.275462   0.569831  -0.744191
   11  C   1  X  -0.270391  -2.070210  -0.262291  -1.506012  -1.590698
   12  C   1  Y  -0.311636  -0.188322   1.806803   0.503010  -3.558833
   13  C   1  Z  -1.525431   0.894575   0.213980   2.861574  -0.243373
   14  C   1 XX  -0.000502   0.012615  -0.025012  -0.006320  -0.016671
   15  C   1 YY   0.006774   0.020617  -0.012923   0.021597  -0.012622
   16  C   1 ZZ  -0.006272  -0.033232   0.037935  -0.015277   0.029293
   17  C   1 XY  -0.015978  -0.024577  -0.017452  -0.016737   0.022412
   18  C   1 XZ  -0.004624   0.003030   0.025941   0.012695   0.030712
   19  C   1 YZ  -0.008793   0.008352  -0.039176   0.022026   0.030750
   20  C   1 XX   0.080605  -0.105991   0.126684   0.318098   0.174500
   21  C   1 YY  -0.268223   0.012684  -0.657338  -0.442491   0.370257
   22  C   1 ZZ   0.187618   0.093306   0.530654   0.124393  -0.544757
   23  C   1 XY   0.100256   0.407937  -0.200949   0.373075  -0.136972
   24  C   1 XZ   0.100487  -0.401600  -0.122882  -0.377589  -0.515428
   25  C   1 YZ  -0.293061   0.133401  -0.459083   0.306816  -0.596802
   26  C   2  S   0.012986   0.016080   0.010452  -0.022237   0.028895
   27  C   2  S   0.028230   0.110114   0.089081  -0.078799   0.154812
   28  C   2  S  -1.650048  -0.653800   0.173481   1.320262  -1.458348
   29  C   2  S  -7.415657   2.069034  18.750259  -3.815842   1.589289
   30  C   2  X   0.053916   0.055322   0.026832   0.043606  -0.096854
   31  C   2  Y   0.136189   0.078527  -0.085995  -0.020172   0.083743
   32  C   2  Z   0.125152  -0.101938   0.130808  -0.133070  -0.093153
   33  C   2  X  -0.084987   1.010434  -0.722683  -0.852298   1.019526
   34  C   2  Y   0.288754   0.387180   1.452189  -0.736953   0.559182
   35  C   2  Z   0.509841   2.003631  -2.364537   0.064245   1.374946
   36  C   2  X   1.467777   2.625838  -0.248041   0.984722   2.555999
   37  C   2  Y   5.407095   2.840590  -3.878370  -2.327590   4.259318
   38  C   2  Z   0.509482  -1.639761  -0.082610   2.071149   3.638768
   39  C   2 XX   0.013672  -0.007766   0.005851  -0.016789   0.013999
   40  C   2 YY  -0.013546  -0.005965   0.012825   0.005759   0.000232
   41  C   2 ZZ  -0.000127   0.013730  -0.018676   0.011031  -0.014231
   42  C   2 XY  -0.003707  -0.027786  -0.013603  -0.005830  -0.024062
   43  C   2 XZ  -0.014983  -0.026625  -0.034602  -0.018425  -0.035377
   44  C   2 YZ  -0.005603   0.025071  -0.028196  -0.015999  -0.026339
   45  C   2 XX   0.076639  -0.031551   0.366279   0.040441  -0.077971
   46  C   2 YY   0.145343   0.468633  -0.300090  -0.374652   0.952313
   47  C   2 ZZ  -0.221982  -0.437082  -0.066189   0.334211  -0.874341
   48  C   2 XY   0.013607   0.154241   0.658067   0.290674   0.531603
   49  C   2 XZ  -0.044519  -0.751281   0.487328   0.030298  -0.751070
   50  C   2 YZ   0.202097  -0.678848   1.763857   0.293136   0.183541
   51  C   3  S   0.000540  -0.006337   0.005677   0.004906  -0.013215
   52  C   3  S  -0.062707  -0.059421  -0.026181   0.005057  -0.148895
   53  C   3  S  -0.855992   1.676439  -2.468967  -1.622083   0.131666
   54  C   3  S  -0.815934  -1.604283  -9.743030   6.460131   0.977531
   55  C   3  X  -0.019702  -0.021963  -0.059832  -0.024414  -0.141415
   56  C   3  Y  -0.021552  -0.056890  -0.088023  -0.057459   0.055658
   57  C   3  Z   0.066844  -0.027945  -0.159126  -0.050359  -0.055001
   58  C   3  X   0.814477   1.559084  -1.757599   0.552362   1.134223
   59  C   3  Y   0.071193   0.811344  -0.458314  -0.286650   2.039149
   60  C   3  Z   0.434494   1.241150  -1.138628  -1.158719   1.741065
   61  C   3  X  -2.539264  -0.294613  -3.113628   2.888163   0.365519
   62  C   3  Y  -1.256744  -0.778849  -0.751499   1.134351   0.716991
   63  C   3  Z   0.508678   1.121161  -2.867631   1.114521   1.581760
   64  C   3 XX  -0.013408   0.004752  -0.017403   0.034871  -0.007397
   65  C   3 YY   0.028589  -0.000109   0.018782  -0.030056  -0.034690
   66  C   3 ZZ  -0.015181  -0.004644  -0.001378  -0.004815   0.042087
   67  C   3 XY   0.009315   0.002992   0.012964  -0.012782   0.012811
   68  C   3 XZ  -0.016884   0.045551  -0.007036   0.004273   0.022274
   69  C   3 YZ  -0.030834  -0.001995  -0.004237   0.015561   0.023081
   70  C   3 XX   0.587494   0.255150   0.076974  -0.189977   0.128165
   71  C   3 YY  -0.464904  -0.323269   0.142355   0.661367   0.025896
   72  C   3 ZZ  -0.122589   0.068119  -0.219330  -0.471389  -0.154061
   73  C   3 XY  -0.190223   0.137903   0.299443  -0.062798   0.591017
   74  C   3 XZ   0.221978   0.281711  -0.150861  -0.168986   0.724081
   75  C   3 YZ   0.534187   0.288352   0.130502   0.048850   0.502421
   76  H   4  S   0.010243  -0.020060  -0.070525  -0.068386   0.036205
   77  H   4  S   1.063756  -1.490030  -0.890044  -1.822361   1.955662
   78  H   4  S   1.037954  -0.495319  -0.792196  -2.498004   0.827996
   79  H   4  X  -0.001471  -0.004527   0.003202   0.003139   0.016177
   80  H   4  Y  -0.000067   0.005904   0.001952   0.016339   0.004041
   81  H   4  Z   0.002978  -0.012619   0.003995  -0.014638   0.006785
   82  H   4  X  -0.059062  -0.411079   0.263971   0.226750   0.970219
   83  H   4  Y   0.125361   0.719272  -0.156002   0.531121  -0.029764
   84  H   4  Z  -0.276399  -0.474313   0.380412  -0.387370   0.324832
   85  H   5  S   0.016612   0.068249   0.000393  -0.002740   0.042749
   86  H   5  S  -0.579678   1.667018  -1.122531  -0.145077   1.690201
   87  H   5  S  -0.071146   1.780988  -0.128152   0.001885   1.782543
   88  H   5  X  -0.002314   0.004288   0.003087  -0.005451  -0.009862
   89  H   5  Y  -0.009153  -0.008177  -0.003156  -0.000730   0.011283
   90  H   5  Z   0.001145   0.001053   0.015226   0.001241   0.012768
   91  H   5  X   0.322985  -0.089580  -0.115735   0.006452  -0.344614
   92  H   5  Y  -0.225157  -0.327923  -0.384171  -0.391844   0.567549
   93  H   5  Z  -0.034113  -0.102028   0.947111   0.315946   0.474859
   94  H   6  S  -0.006979   0.050901  -0.037710   0.020657   0.040469
   95  H   6  S   2.009618   0.452653   2.094502   0.083431  -0.708373
   96  H   6  S   0.008508  -0.728246   2.473646  -0.803300  -3.030295
   97  H   6  X   0.002378   0.005687   0.000493  -0.000727  -0.008230
   98  H   6  Y   0.002321   0.002483  -0.007969  -0.005181  -0.000934
   99  H   6  Z   0.009443   0.001274   0.007513  -0.004620  -0.016650
  100  H   6  X   0.385124   0.281537   0.295987   0.585200  -0.484816
  101  H   6  Y   0.427070   0.012725   0.007101  -0.291970  -0.339976
  102  H   6  Z  -0.257525  -0.287083   0.442842  -0.046046  -0.937042
  103  H   7  S  -0.066324  -0.141119  -0.088151   0.040331  -0.083262
  104  H   7  S   0.678921  -2.317767  -3.465434   1.241629  -3.663826
  105  H   7  S  -2.902830  -2.611497   0.967800   1.380392  -3.956335
  106  H   7  X  -0.002454  -0.003098  -0.002579   0.000162  -0.019173
  107  H   7  Y  -0.017479  -0.014081   0.004860   0.006047  -0.019663
  108  H   7  Z   0.000743   0.001717  -0.019136  -0.017369  -0.014997
  109  H   7  X  -0.137441  -0.310528  -0.350627  -0.240127   0.142098
  110  H   7  Y  -0.617052   0.048506   0.868461   0.052958   0.407601
  111  H   7  Z  -0.464001   0.661824  -1.503189  -0.331417  -0.183402
  112  H   8  S   0.063201   0.039656   0.038470  -0.015442   0.032822
  113  H   8  S   2.408815   1.887291  -2.486423   0.933905   2.645086
  114  H   8  S  -2.374306   0.782581  -2.744544   2.387388   1.716174
  115  H   8  X  -0.005861  -0.000450   0.008559  -0.008521   0.000080
  116  H   8  Y  -0.006891  -0.008841   0.003071   0.015509   0.001083
  117  H   8  Z   0.011483  -0.005411  -0.004661  -0.000898  -0.002960
  118  H   8  X   0.715585   0.258013  -0.139109  -0.007632   0.465145
  119  H   8  Y  -0.293596   0.055296  -0.457395   1.292609   0.089195
  120  H   8  Z   0.687222  -0.164117   0.187048   0.110942   0.205057
  121  H   9  S   0.096848   0.047207   0.005650  -0.082756   0.036530
  122  H   9  S   3.041711   0.753976   1.134638  -1.186037   1.774585
  123  H   9  S   0.444386   0.773049   0.811607  -0.506325   0.921194
  124  H   9  X  -0.004349  -0.007861   0.006668  -0.005597  -0.008486
  125  H   9  Y   0.015060   0.002504  -0.005203  -0.011136  -0.009035
  126  H   9  Z  -0.002762  -0.010484   0.003779  -0.001752  -0.016650
  127  H   9  X   0.394195  -0.503833   0.234166  -0.264129   0.094817
  128  H   9  Y   0.368193   0.235363   0.033439  -0.132365  -0.973578
  129  H   9  Z   0.541136  -0.096996   0.618966  -0.432726  -0.330467
  130  H  10  S   0.186978  -0.006271  -0.072895   0.044371   0.033629
  131  H  10  S   0.208220  -0.455802  -0.933625   0.093502   0.785399
  132  H  10  S   4.242647  -0.347840  -1.345981   0.674902   1.878110
  133  H  10  X   0.001386   0.006873  -0.000073  -0.001288   0.003359
  134  H  10  Y  -0.002410  -0.004444  -0.007562  -0.001836   0.001625
  135  H  10  Z  -0.001348   0.015425  -0.007931   0.008979  -0.005636
  136  H  10  X   0.121622  -0.577510  -0.341734   1.280682  -0.949771
  137  H  10  Y  -0.378437   0.094425   0.034486   0.044041   0.180661
  138  H  10  Z   0.096726   0.468007   0.008826  -0.216475  -0.147449
  139  F  11  S   0.005075  -0.004843  -0.005185   0.004715  -0.000805
  140  F  11  S   0.032617  -0.020247  -0.025476   0.037723  -0.019721
  141  F  11  S   0.019577   0.015026   0.006175   0.034937  -0.046234
  142  F  11  S   0.743873   0.917541   0.231471  -2.113641   1.364437
  143  F  11  X   0.130683   0.043810  -0.017340   0.009070   0.051705
  144  F  11  Y  -0.098823   0.069176   0.027778   0.015277  -0.005443
  145  F  11  Z  -0.067979   0.014780   0.014644  -0.130827  -0.037643
  146  F  11  X   0.149298   0.003907  -0.049501   0.125801  -0.003625
  147  F  11  Y  -0.122017   0.112684   0.055699   0.030923  -0.004108
  148  F  11  Z  -0.109920   0.041781   0.018343  -0.206026  -0.063747
  149  F  11  X  -0.831250  -0.848893  -0.340673   0.787462  -0.710656
  150  F  11  Y   1.028856  -0.832527  -0.547912  -0.204465  -0.135420
  151  F  11  Z   0.737232  -0.513285  -0.611117   1.178030   0.569829
  152  F  11 XX   0.002746  -0.004433  -0.003473   0.003051  -0.000295
  153  F  11 YY  -0.000429   0.002887   0.001164  -0.000311   0.000750
  154  F  11 ZZ  -0.002318   0.001545   0.002310  -0.002741  -0.000455
  155  F  11 XY   0.006128  -0.002791  -0.002393  -0.000850  -0.001152
  156  F  11 XZ   0.001400  -0.005258  -0.001737   0.004929   0.003430
  157  F  11 YZ  -0.000543   0.001260   0.001699  -0.000515   0.000306
  158  F  11 XX   0.013283   0.003924   0.001984  -0.001504   0.005562
  159  F  11 YY  -0.008044  -0.006249   0.013510   0.003391   0.001338
  160  F  11 ZZ  -0.005239   0.002326  -0.015494  -0.001887  -0.006900
  161  F  11 XY  -0.020838   0.011801   0.005086  -0.003696   0.003301
  162  F  11 XZ  -0.005763   0.001850   0.003854  -0.017476  -0.006264
  163  F  11 YZ   0.004035   0.002967  -0.001315  -0.002795   0.002706

                     51         52         53         54         55
                    0.3216     0.3248     0.3396     0.3442     0.3571
                     A          A          A          A          A   
    1  C   1  S  -0.005438   0.007951  -0.012340  -0.002322   0.008647
    2  C   1  S   0.084646   0.035268  -0.140139  -0.074578  -0.064758
    3  C   1  S   0.399416   0.337595   0.585557  -0.515282  -2.083080
    4  C   1  S   6.109289   3.898628 -14.445693 -14.789283 -15.902966
    5  C   1  X  -0.091067   0.129015  -0.017359  -0.091732   0.094535
    6  C   1  Y  -0.063808   0.114215  -0.071205   0.033668   0.009883
    7  C   1  Z  -0.073259  -0.096954  -0.105957  -0.025701   0.028319
    8  C   1  X  -1.493061   0.753847  -0.599872  -1.648432   1.029788
    9  C   1  Y  -1.687017   0.527190   0.551295  -0.011499  -0.530912
   10  C   1  Z   0.625597   0.719159  -3.820633  -1.090020  -0.831675
   11  C   1  X  -2.376823   2.551653  -0.657478  -1.249971   1.471434
   12  C   1  Y  -1.601706   0.856758  -3.604798  -0.034403  -1.859110
   13  C   1  Z  -1.809276   0.215706   0.490348   3.354803   2.426611
   14  C   1 XX  -0.016746   0.030537  -0.021165  -0.018067   0.009820
   15  C   1 YY   0.022555   0.008532   0.012972   0.022486  -0.023953
   16  C   1 ZZ  -0.005809  -0.039070   0.008193  -0.004419   0.014133
   17  C   1 XY  -0.006329  -0.016789  -0.001340   0.002560   0.000580
   18  C   1 XZ   0.034023  -0.008978   0.008220   0.009727   0.029098
   19  C   1 YZ   0.013918  -0.001181  -0.008961  -0.016782  -0.017424
   20  C   1 XX   0.165128   0.338325  -0.448092  -0.460411   0.150806
   21  C   1 YY   0.478479  -0.689984   0.238050  -0.341062  -0.049547
   22  C   1 ZZ  -0.643606   0.351660   0.210041   0.801473  -0.101258
   23  C   1 XY   0.823552   0.152910   0.328893  -0.069016  -0.064899
   24  C   1 XZ  -0.336954   0.523590  -0.206974   0.236473   0.647042
   25  C   1 YZ  -0.110552   0.407363  -0.877330   0.065383  -0.249126
   26  C   2  S  -0.006002   0.020276   0.016332   0.023411   0.026350
   27  C   2  S  -0.021295   0.031719   0.041961   0.014116   0.049374
   28  C   2  S   0.269937  -1.049394   0.625999  -2.419876  -1.267933
   29  C   2  S   0.258872 -13.501902  -3.706100  13.113520   9.864225
   30  C   2  X   0.066566  -0.061795   0.202176  -0.110165  -0.069313
   31  C   2  Y   0.087872   0.063403  -0.040750  -0.243432  -0.108940
   32  C   2  Z  -0.027416  -0.115801   0.078608   0.014054   0.042517
   33  C   2  X   0.511363   0.836872  -1.445442  -0.339267   0.686613
   34  C   2  Y   0.137500   0.007145   0.610077  -0.142441   1.453755
   35  C   2  Z   1.065000   1.862367  -3.578822  -1.773246   0.272190
   36  C   2  X   0.101916   1.180575   5.002003  -2.069814  -1.382120
   37  C   2  Y   1.539590   4.957673   1.012790  -7.606452  -7.042191
   38  C   2  Z   0.073112  -0.076258   5.733644   1.733175   6.160991
   39  C   2 XX   0.005819   0.005345   0.000272   0.009386   0.010091
   40  C   2 YY  -0.029236  -0.005752  -0.011386   0.005202   0.012472
   41  C   2 ZZ   0.023417   0.000407   0.011114  -0.014588  -0.022563
   42  C   2 XY   0.033919   0.024384   0.010219   0.002387   0.021368
   43  C   2 XZ   0.014961  -0.011815   0.028902  -0.012147  -0.031315
   44  C   2 YZ  -0.008928  -0.040515   0.023543   0.006894   0.014874
   45  C   2 XX  -0.695063  -0.112207   0.731124  -0.293799  -0.417236
   46  C   2 YY   0.586789   0.011948  -0.071441  -1.048645  -0.180218
   47  C   2 ZZ   0.108273   0.100259  -0.659683   1.342444   0.597454
   48  C   2 XY  -0.313542  -0.233331   0.595045  -0.660310  -0.964851
   49  C   2 XZ  -0.491773  -0.254690   0.154326   0.663467   0.128277
   50  C   2 YZ  -0.717028   0.351030   1.218847   0.099246  -0.758459
   51  C   3  S  -0.006346  -0.010926   0.012386   0.014021   0.010650
   52  C   3  S   0.035489  -0.053694   0.076528  -0.039987  -0.042335
   53  C   3  S   1.645311   0.138054  -1.174576  -1.656635  -1.689993
   54  C   3  S  -1.025496   8.004752  17.525244  -7.096881  -0.530066
   55  C   3  X   0.001798  -0.073984   0.023613  -0.065531   0.121685
   56  C   3  Y   0.096224  -0.087087  -0.038363   0.022304   0.141985
   57  C   3  Z   0.074013   0.123650  -0.013629   0.123933  -0.166463
   58  C   3  X   0.167708   0.424229  -1.496234  -1.550385   2.531084
   59  C   3  Y   1.048976   0.110893  -0.389900  -1.129722   1.008408
   60  C   3  Z   0.676653   1.874014  -2.917477   0.942159  -0.138339
   61  C   3  X  -0.278306   0.692376   2.277265  -0.925422   5.679780
   62  C   3  Y   0.693173  -2.815743  -0.033799   0.888445   5.692495
   63  C   3  Z  -1.761791   5.299083   2.630121  -0.591785  -2.889686
   64  C   3 XX  -0.010949  -0.013405   0.011053   0.011619   0.017269
   65  C   3 YY   0.028785  -0.015229   0.000295   0.010469  -0.009557
   66  C   3 ZZ  -0.017836   0.028635  -0.011348  -0.022088  -0.007712
   67  C   3 XY   0.003160  -0.014313  -0.017336   0.024116  -0.002286
   68  C   3 XZ  -0.006035   0.019540  -0.049208   0.008211   0.030258
   69  C   3 YZ   0.005012   0.007190  -0.016845   0.017200   0.011537
   70  C   3 XX  -0.020542   0.201594  -0.135442  -0.486233  -0.408330
   71  C   3 YY  -0.441842  -0.114993   0.699275  -0.471805  -0.714131
   72  C   3 ZZ   0.462384  -0.086600  -0.563833   0.958038   1.122461
   73  C   3 XY   0.123080   0.749543   0.104637  -0.630615  -0.988929
   74  C   3 XZ  -0.043472   0.219342  -0.283589  -0.079266   0.030135
   75  C   3 YZ  -0.216168   0.504579   0.001537  -0.712923  -0.621874
   76  H   4  S  -0.104860   0.037711   0.115319  -0.001558  -0.025446
   77  H   4  S  -1.296866  -0.611290   5.719980  -0.304886   4.323949
   78  H   4  S  -0.384932   0.569680   2.686831  -2.382086  -0.086387
   79  H   4  X   0.008518  -0.010421   0.008387   0.004723   0.003407
   80  H   4  Y   0.014106   0.007444   0.000530   0.001462  -0.005844
   81  H   4  Z   0.000371  -0.008940   0.008629  -0.005957   0.002511
   82  H   4  X   0.100497  -1.018067   0.513411  -0.174747   0.003353
   83  H   4  Y   0.602180   0.468018   0.126472   0.543768  -0.728191
   84  H   4  Z   0.215504  -0.034158  -0.540532   0.197143  -0.616476
   85  H   5  S  -0.024213   0.054870   0.079427   0.051033   0.081479
   86  H   5  S   1.902646  -1.814076   4.761042   3.622214  -1.313071
   87  H   5  S   2.022974  -1.791773  -0.045626   1.102841  -1.141487
   88  H   5  X  -0.004117   0.000350  -0.004461   0.000804   0.002687
   89  H   5  Y  -0.002212  -0.004844  -0.004371   0.003230   0.002678
   90  H   5  Z   0.005184  -0.015002   0.018281  -0.001446   0.004570
   91  H   5  X  -0.980680   0.215036  -0.701752  -0.089971   0.209673
   92  H   5  Y  -0.180698  -0.300132  -0.241826   0.233033   0.157041
   93  H   5  Z   0.516860  -0.483298   0.238208  -0.182900   0.391428
   94  H   6  S  -0.018115   0.029291   0.078280   0.101759   0.012403
   95  H   6  S  -5.720330   2.622046  -0.491560   1.265111   0.944902
   96  H   6  S  -2.321709   1.078647  -1.881468   0.302221  -0.866018
   97  H   6  X   0.006026   0.007047   0.000685   0.002014  -0.007524
   98  H   6  Y   0.000223  -0.004770  -0.007995  -0.009816   0.007490
   99  H   6  Z  -0.016294   0.007383  -0.003522   0.010981   0.001814
  100  H   6  X   0.247013   0.286616  -0.165610   0.279236  -0.037607
  101  H   6  Y  -0.935216   0.129602  -0.631391  -0.288067  -0.173338
  102  H   6  Z  -0.508472   0.501166  -0.225345   0.849413   0.117410
  103  H   7  S  -0.040980   0.038682  -0.003433   0.046771   0.015775
  104  H   7  S  -1.422616   0.525443  -1.122050   4.897209  -0.197731
  105  H   7  S  -0.560158  -3.351721  -1.607155   5.209694   3.250534
  106  H   7  X   0.014893  -0.003877   0.002895   0.008966   0.017803
  107  H   7  Y  -0.007464   0.003234  -0.009434   0.015255   0.015491
  108  H   7  Z   0.009986  -0.025524   0.002808   0.000768   0.013411
  109  H   7  X   1.023231   0.627797  -0.308470  -0.223612   0.990751
  110  H   7  Y  -0.283022  -0.141242   0.332631  -0.804317   0.119951
  111  H   7  Z   0.258417  -0.821399   0.076852  -0.208796   0.295064
  112  H   8  S   0.006440  -0.030132  -0.045199   0.058980  -0.008865
  113  H   8  S   1.390343  -0.910940  -2.784974  -0.246749   8.977635
  114  H   8  S   0.510038  -1.277033   0.523445  -1.148868   8.494781
  115  H   8  X   0.002228   0.015003   0.002839  -0.019257  -0.030755
  116  H   8  Y  -0.001556   0.011574   0.009508  -0.005081  -0.015436
  117  H   8  Z  -0.000569   0.000716   0.006003  -0.011578  -0.015432
  118  H   8  X   0.912713   0.487586  -0.156965  -0.465269   0.796376
  119  H   8  Y  -0.259217   0.277970   0.371208  -0.625774   0.918575
  120  H   8  Z  -0.499999   0.173275   1.044806  -1.471098  -0.915338
  121  H   9  S  -0.018863   0.048087  -0.068604   0.036857  -0.072282
  122  H   9  S  -1.860876   3.217269  -2.696285   0.453415  -4.516159
  123  H   9  S  -1.551239   4.347397   1.514817   0.566319  -4.107831
  124  H   9  X   0.002534  -0.011545   0.009120   0.012249   0.001192
  125  H   9  Y   0.006297  -0.002516  -0.003271   0.001886   0.001920
  126  H   9  Z   0.006833  -0.016577  -0.003766   0.025822   0.017178
  127  H   9  X  -0.124406  -0.429439   0.197400   0.569693  -0.282695
  128  H   9  Y   0.619913  -0.372100   0.260869   0.511430   0.948995
  129  H   9  Z  -0.230751   0.208879  -0.320311   0.276518  -0.310330
  130  H  10  S  -0.008138   0.078259  -0.035552   0.050118   0.041460
  131  H  10  S   1.013864   1.390853   0.365086  -0.042043  -0.248271
  132  H  10  S  -0.095183  -0.021461  -1.175457   0.563465  -1.286937
  133  H  10  X   0.001025  -0.000110   0.000481   0.000213   0.009898
  134  H  10  Y  -0.002581  -0.005972   0.004814   0.001800  -0.005674
  135  H  10  Z  -0.001099  -0.011421  -0.012110  -0.000959   0.002667
  136  H  10  X  -0.350518  -0.378356   0.855680  -0.332621   0.783154
  137  H  10  Y  -0.107807   0.153961   0.358900  -0.008057  -0.132023
  138  H  10  Z  -0.143867  -0.117574  -0.202012  -0.403219   0.220122
  139  F  11  S  -0.004462  -0.000643   0.000167  -0.003374  -0.001758
  140  F  11  S   0.008322  -0.007437   0.050707  -0.014188   0.020084
  141  F  11  S   0.124811  -0.002210   0.192450   0.007724   0.111670
  142  F  11  S  -0.334523   0.406561  -2.159257   0.338923  -1.948183
  143  F  11  X  -0.025099   0.001292  -0.024046   0.041590   0.009141
  144  F  11  Y   0.034800   0.016129   0.024959  -0.013599   0.013288
  145  F  11  Z   0.033437   0.058710   0.067535  -0.008286  -0.007009
  146  F  11  X  -0.027543  -0.021562   0.092699   0.014143   0.087845
  147  F  11  Y   0.062535   0.031937   0.045280  -0.018023   0.039600
  148  F  11  Z   0.010381   0.081890   0.072398  -0.006769  -0.046611
  149  F  11  X   0.451733   0.512343   0.924253  -0.270562   0.594036
  150  F  11  Y  -0.150802  -0.140588  -0.774783   0.153906  -0.246600
  151  F  11  Z   0.017530  -0.096520  -0.200541   0.412691  -0.125520
  152  F  11 XX   0.003365   0.006192   0.004003   0.000524   0.001903
  153  F  11 YY  -0.002867  -0.003361  -0.000416   0.000288  -0.000981
  154  F  11 ZZ  -0.000498  -0.002832  -0.003586  -0.000812  -0.000921
  155  F  11 XY   0.001375  -0.002241  -0.005989  -0.000423  -0.000003
  156  F  11 XZ   0.001213  -0.000115   0.000834   0.003394  -0.001963
  157  F  11 YZ  -0.001009   0.000378   0.001573   0.000545  -0.000544
  158  F  11 XX  -0.006531  -0.006273  -0.013664   0.003224  -0.002945
  159  F  11 YY   0.025317   0.008943   0.000214  -0.001082   0.012963
  160  F  11 ZZ  -0.018786  -0.002670   0.013451  -0.002142  -0.010018
  161  F  11 XY  -0.002249   0.003666   0.007432  -0.001682  -0.006558
  162  F  11 XZ   0.001433   0.004065   0.006828  -0.004352  -0.000167
  163  F  11 YZ   0.008366   0.011891   0.001988   0.006209   0.003784

                     56         57         58         59         60
                    0.3648     0.3724     0.3839     0.4096     0.4120
                     A          A          A          A          A   
    1  C   1  S   0.008210   0.004591  -0.005992   0.015565   0.017325
    2  C   1  S  -0.066602   0.031973  -0.020639   0.001271  -0.002456
    3  C   1  S  -1.127090   0.385583   0.146766  -2.173004  -0.631828
    4  C   1  S  -0.574526   1.046842  -5.268350   7.547285   9.311801
    5  C   1  X  -0.058092   0.058625  -0.073266  -0.008233  -0.013702
    6  C   1  Y   0.130526  -0.038568  -0.013153  -0.136996  -0.142322
    7  C   1  Z   0.099428  -0.000354  -0.044647   0.123267   0.100004
    8  C   1  X  -1.292561   2.442533  -2.193388   0.158179  -2.132580
    9  C   1  Y   2.946430  -0.290243   0.900001  -2.383724  -1.016382
   10  C   1  Z   0.168034  -0.273002  -0.422613   2.614585   0.495003
   11  C   1  X  -1.830869   1.123747  -2.075670  -0.495473  -0.827756
   12  C   1  Y   3.755387  -0.281296  -1.708236  -0.718513   0.053872
   13  C   1  Z   1.544900  -0.101282   0.404894  -0.907652  -2.134919
   14  C   1 XX  -0.006251   0.018035  -0.021272   0.019457  -0.019032
   15  C   1 YY   0.003437   0.004394   0.013313  -0.019928   0.013809
   16  C   1 ZZ   0.002814  -0.022429   0.007959   0.000470   0.005223
   17  C   1 XY  -0.041040  -0.000176  -0.002708  -0.013646   0.005876
   18  C   1 XZ  -0.007723   0.030741   0.005190   0.010501  -0.016990
   19  C   1 YZ  -0.007394  -0.014922   0.005236   0.017256   0.015377
   20  C   1 XX  -0.237901   0.422464  -0.190765   0.332814   0.350759
   21  C   1 YY  -0.609890  -0.172730   0.238185   0.141637  -0.728512
   22  C   1 ZZ   0.847791  -0.249734  -0.047420  -0.474450   0.377753
   23  C   1 XY   0.113870   0.321322  -0.240283  -0.178162  -0.391484
   24  C   1 XZ  -0.364576   0.065058  -0.074749  -0.008147   0.293332
   25  C   1 YZ  -0.162756  -0.395528  -0.240187   0.368313   0.448925
   26  C   2  S  -0.003510  -0.001429   0.005891  -0.005693   0.009556
   27  C   2  S  -0.002213   0.001100  -0.017248  -0.007503   0.018164
   28  C   2  S   0.344228  -0.867364  -0.621727  -0.538316  -1.390685
   29  C   2  S  -9.034381  -3.167245  -2.561090 -19.494213  -7.733335
   30  C   2  X   0.014689   0.059894  -0.182677  -0.087321  -0.013143
   31  C   2  Y  -0.023833  -0.115957   0.090869  -0.055739  -0.080700
   32  C   2  Z   0.082357  -0.086053   0.128702   0.047414  -0.020172
   33  C   2  X  -0.648361  -0.581782  -0.698218  -0.570150   0.578586
   34  C   2  Y   0.335989  -1.675415   0.535701  -1.906921  -1.466913
   35  C   2  Z  -1.226830  -0.518316  -0.311849   1.844240   0.166186
   36  C   2  X   0.792767   0.552332  -0.309539   2.002071  -0.398967
   37  C   2  Y   0.824651  -1.562974   1.506035   2.799627   0.912480
   38  C   2  Z   0.136359  -0.261953   4.059411   1.348062  -1.553712
   39  C   2 XX   0.010942  -0.003786   0.015376   0.012632   0.025363
   40  C   2 YY  -0.002969  -0.018905  -0.016575  -0.003655   0.008917
   41  C   2 ZZ  -0.007974   0.022691   0.001199  -0.008977  -0.034280
   42  C   2 XY   0.021111  -0.004642   0.015691  -0.000535   0.002226
   43  C   2 XZ   0.021068  -0.009001  -0.006582  -0.032757  -0.005068
   44  C   2 YZ   0.011877   0.000930  -0.003460   0.013460  -0.026938
   45  C   2 XX   0.161222   0.184671   0.032320  -0.413404  -0.068538
   46  C   2 YY  -0.242959   0.150210   0.329605  -0.293715  -0.425815
   47  C   2 ZZ   0.081738  -0.334881  -0.361925   0.707119   0.494354
   48  C   2 XY   0.120771   0.337209  -0.203836  -0.998286  -0.393529
   49  C   2 XZ   0.033983  -0.275485   0.132750  -0.152875   0.389633
   50  C   2 YZ   0.597204   0.287326   0.197100  -1.797715   1.018127
   51  C   3  S  -0.000679   0.003174  -0.006573  -0.000894   0.019784
   52  C   3  S   0.047088  -0.005403   0.015980  -0.009640  -0.033137
   53  C   3  S   0.344714  -0.444288   0.636827   2.179646  -3.377150
   54  C   3  S   6.683140  -0.060375   5.840208  13.096973  -3.907630
   55  C   3  X   0.020041  -0.012580   0.149533  -0.217346  -0.005771
   56  C   3  Y   0.187685   0.039657  -0.124722   0.006186  -0.023336
   57  C   3  Z  -0.005375  -0.044996  -0.061432  -0.083583  -0.107166
   58  C   3  X  -1.283691  -0.110705   0.498494  -1.854870   0.543504
   59  C   3  Y   1.596609   0.256906  -1.883664  -1.046821   0.965315
   60  C   3  Z  -1.494536  -0.389143   0.321408   1.202607  -0.723836
   61  C   3  X   0.340695   0.109853   3.072402   0.562975  -0.232018
   62  C   3  Y   2.195352   1.291327  -1.035964   0.335615   1.056294
   63  C   3  Z  -0.358466   0.280314   0.667750   2.169400  -1.605789
   64  C   3 XX  -0.030661  -0.015908  -0.002666   0.004557  -0.023573
   65  C   3 YY   0.018441   0.011319  -0.002900   0.010110   0.005999
   66  C   3 ZZ   0.012220   0.004589   0.005566  -0.014667   0.017574
   67  C   3 XY  -0.010585  -0.008041  -0.010323   0.018626  -0.012748
   68  C   3 XZ  -0.020705   0.012058   0.011537  -0.006298  -0.005403
   69  C   3 YZ  -0.018140  -0.005974   0.003429   0.011439  -0.013991
   70  C   3 XX  -0.236501   0.630514   0.497841   0.346420  -0.859430
   71  C   3 YY   0.071752  -0.238038  -0.183746  -1.040465   0.093279
   72  C   3 ZZ   0.164749  -0.392476  -0.314095   0.694045   0.766151
   73  C   3 XY   0.244755   0.345228  -0.017022  -0.697362  -0.136736
   74  C   3 XZ   0.109743  -0.111523  -0.333298   0.123410   0.190399
   75  C   3 YZ  -0.310819   0.419332   0.000134  -0.354477   0.648097
   76  H   4  S   0.034394  -0.071707   0.002799  -0.000020   0.034283
   77  H   4  S  -3.601220   3.300433  -1.919286  -0.159876  -2.509631
   78  H   4  S  -3.880998   1.137967  -1.578530   0.333844   0.662547
   79  H   4  X  -0.004485  -0.002857   0.002949  -0.005090   0.006191
   80  H   4  Y   0.001871  -0.006563  -0.000267  -0.003903   0.003421
   81  H   4  Z   0.002549  -0.014536   0.007615  -0.003911   0.013931
   82  H   4  X  -0.508435   0.786553   0.349002   0.118107   0.288023
   83  H   4  Y   0.729282   0.516255   0.412869   0.152352   0.950305
   84  H   4  Z   0.417898  -0.931388   1.306057  -0.377364   0.111243
   85  H   5  S   0.037533   0.021129   0.026830   0.051007  -0.048262
   86  H   5  S   4.061414  -4.337275   4.521965  -0.759872   1.499418
   87  H   5  S   1.490714  -1.431662   3.124949   0.054286   0.879456
   88  H   5  X  -0.003320   0.003886  -0.009454   0.002038  -0.013120
   89  H   5  Y  -0.015821   0.000496   0.001927  -0.003283   0.001318
   90  H   5  Z   0.005038   0.008376  -0.000042   0.003330  -0.011390
   91  H   5  X  -0.736635   0.848638  -0.904676  -0.022388  -0.895221
   92  H   5  Y  -1.001207  -0.779962   0.083291   0.168938   0.840902
   93  H   5  Z  -0.780511   0.544558  -0.675643  -0.360450  -1.060730
   94  H   6  S   0.011231  -0.017663   0.028067  -0.090919  -0.079430
   95  H   6  S   5.625224   0.558207   0.187071  -2.495709  -0.796002
   96  H   6  S   4.147092  -0.610158  -2.008455  -1.692330  -1.426502
   97  H   6  X   0.013066  -0.005375   0.011183   0.003840   0.005470
   98  H   6  Y  -0.001628   0.002754  -0.005549   0.013885  -0.015556
   99  H   6  Z   0.004297   0.001909  -0.000357  -0.003677  -0.003184
  100  H   6  X   0.691762  -0.578177  -0.137645  -0.672643   0.352858
  101  H   6  Y   0.847777   0.514717   0.103718  -0.470917  -0.158300
  102  H   6  Z  -0.212182   0.092557  -0.217127  -0.752368   0.572252
  103  H   7  S   0.039731   0.007130   0.022191  -0.033662   0.023132
  104  H   7  S   0.441350   2.374817   0.019784   6.593900   4.117421
  105  H   7  S  -0.880604   1.105861  -0.456920  -0.598746   0.496255
  106  H   7  X   0.005904  -0.002913  -0.006084   0.008633  -0.002461
  107  H   7  Y   0.002850  -0.012768  -0.005893   0.000530   0.006553
  108  H   7  Z   0.001372  -0.005065   0.004586   0.014296  -0.015007
  109  H   7  X   0.425894  -0.775656   0.859438   0.190451  -0.325575
  110  H   7  Y   0.162109  -0.399213  -0.487196  -1.915181  -1.099557
  111  H   7  Z  -0.078567   0.293306  -0.342343   0.710326  -1.189582
  112  H   8  S  -0.022632   0.016295  -0.035449  -0.073482  -0.056783
  113  H   8  S   0.337777  -0.994447  -3.298288  -3.289817   5.394673
  114  H   8  S   0.320257   1.389849   1.227381  -0.533310   1.382978
  115  H   8  X   0.009946   0.010908   0.012196  -0.014325  -0.007887
  116  H   8  Y  -0.000054   0.007183   0.001591  -0.007378  -0.008737
  117  H   8  Z   0.007604   0.003936  -0.005006  -0.013729  -0.004083
  118  H   8  X   0.416597   0.219511  -1.133893   0.401010   0.750826
  119  H   8  Y  -0.636574  -0.822174  -0.358249  -1.675781   0.817734
  120  H   8  Z   0.475163   0.545107   0.172282  -0.496513   0.741658
  121  H   9  S   0.010395  -0.010378  -0.036678  -0.069215   0.048933
  122  H   9  S  -4.000049   1.577227   2.661946   0.007413  -0.210241
  123  H   9  S  -2.030217  -0.800518   1.276199  -0.041132  -1.698434
  124  H   9  X   0.006826  -0.005913  -0.003540   0.009663  -0.004424
  125  H   9  Y   0.002635   0.001874  -0.000693  -0.000524  -0.000868
  126  H   9  Z  -0.003011  -0.006185   0.000305   0.009712  -0.007953
  127  H   9  X   0.288121  -0.679054  -0.943995   0.721691   0.138334
  128  H   9  Y   0.171283  -0.252368  -0.155830   0.249691   0.412925
  129  H   9  Z  -0.633946   0.627554   1.176594   0.677544   0.369379
  130  H  10  S  -0.084080  -0.024123   0.026841   0.074402  -0.027273
  131  H  10  S   0.793514  -2.076650  -2.506640   1.096938   0.749520
  132  H  10  S   1.108144   0.322684  -1.139973   1.245250   0.397637
  133  H  10  X  -0.004457  -0.003518  -0.004915   0.004736   0.005190
  134  H  10  Y  -0.001188   0.000153  -0.005169   0.007557  -0.010723
  135  H  10  Z   0.001677   0.000218  -0.007841   0.000039  -0.002873
  136  H  10  X  -0.962286  -0.532958  -0.168345  -0.247025   0.217080
  137  H  10  Y  -0.009280  -0.519600  -0.004615   1.231645  -0.107924
  138  H  10  Z   0.064343  -0.772024  -0.043544   0.832080  -0.281694
  139  F  11  S   0.001245  -0.005956   0.006751   0.001658  -0.004616
  140  F  11  S  -0.006467  -0.032159  -0.048238  -0.013709   0.025328
  141  F  11  S  -0.038783  -0.015921  -0.325732  -0.086033   0.190355
  142  F  11  S   1.645241   1.457481   2.658819   0.563149  -0.720767
  143  F  11  X  -0.042578  -0.000797  -0.027244   0.058480   0.000844
  144  F  11  Y   0.018811  -0.032832  -0.019936  -0.076829   0.020893
  145  F  11  Z  -0.038842   0.007504  -0.002538  -0.048924  -0.011181
  146  F  11  X  -0.116180  -0.099619  -0.162740   0.066158   0.057975
  147  F  11  Y   0.017049  -0.019374  -0.004874  -0.104688   0.027967
  148  F  11  Z  -0.046158   0.004674   0.013304  -0.086136   0.071609
  149  F  11  X  -0.219361  -0.971383  -0.607818  -0.150897   0.253225
  150  F  11  Y  -0.075862   0.378144   0.056980  -0.275798   0.051155
  151  F  11  Z   0.797895   0.525311   0.319046   0.119735  -0.341898
  152  F  11 XX   0.000740  -0.004673  -0.003697   0.002352   0.002274
  153  F  11 YY   0.000716   0.002841   0.001885  -0.001256  -0.003115
  154  F  11 ZZ  -0.001457   0.001832   0.001811  -0.001097   0.000841
  155  F  11 XY  -0.000322   0.002665  -0.001584  -0.010056   0.000514
  156  F  11 XZ   0.001060   0.006361   0.000441  -0.005309  -0.002022
  157  F  11 YZ   0.000573   0.000712  -0.001025  -0.001005   0.001158
  158  F  11 XX  -0.010548   0.014651   0.012304  -0.008352  -0.024244
  159  F  11 YY  -0.010222   0.000431  -0.008601   0.003113  -0.007726
  160  F  11 ZZ   0.020770  -0.015083  -0.003703   0.005239   0.031969
  161  F  11 XY   0.007791  -0.008895  -0.004262  -0.002630   0.005979
  162  F  11 XZ   0.000782  -0.001780   0.000030   0.010350  -0.001834
  163  F  11 YZ  -0.000434   0.002453   0.010184  -0.001983   0.013329

                     61         62         63         64         65
                    0.4220     0.4350     0.4555     0.4626     0.4778
                     A          A          A          A          A   
    1  C   1  S   0.035299  -0.060493  -0.039850  -0.001303   0.011282
    2  C   1  S  -0.039219  -0.052439   0.006742  -0.018814  -0.024870
    3  C   1  S  -3.953802   5.489104   3.151975  -0.332687  -0.673568
    4  C   1  S  -1.772028   2.433370  -1.879459   0.964692   1.686464
    5  C   1  X   0.004461   0.023468  -0.016757  -0.165611   0.200919
    6  C   1  Y  -0.073567  -0.142172  -0.084410   0.019659  -0.095609
    7  C   1  Z  -0.104358   0.288514  -0.159349   0.055722   0.008797
    8  C   1  X   0.952765   0.438789  -0.055357  -1.011074  -0.821207
    9  C   1  Y   0.265130  -2.856079   0.531765   0.454699   1.148509
   10  C   1  Z  -2.900688   4.131932  -1.649309   0.662498  -0.909864
   11  C   1  X  -0.259222   0.088872   0.599014  -1.016450   0.274607
   12  C   1  Y  -2.196042  -1.548746  -0.239926   0.545151  -0.368869
   13  C   1  Z  -1.682480   1.814609   0.228348   0.447314  -0.333330
   14  C   1 XX   0.012178   0.013681  -0.002570   0.009340  -0.021519
   15  C   1 YY  -0.012049  -0.008327   0.008119  -0.015645   0.018688
   16  C   1 ZZ  -0.000129  -0.005354  -0.005549   0.006305   0.002830
   17  C   1 XY  -0.002282   0.004366  -0.001332  -0.013754  -0.001250
   18  C   1 XZ   0.034464   0.018496  -0.018348   0.009300  -0.009937
   19  C   1 YZ  -0.011369   0.011608  -0.003473   0.003462   0.002064
   20  C   1 XX   0.169004   0.246568  -0.199700   0.824038  -1.164967
   21  C   1 YY  -0.822825  -0.390900  -0.340656   0.036882   0.177043
   22  C   1 ZZ   0.653821   0.144332   0.540356  -0.860920   0.987924
   23  C   1 XY  -0.335174   0.089888  -0.794975  -0.237090  -0.599628
   24  C   1 XZ  -0.005690   0.164800  -0.316324   0.605801  -0.660962
   25  C   1 YZ  -0.007343   0.583333  -0.593171  -0.602725   0.237776
   26  C   2  S  -0.021524  -0.050371  -0.002666  -0.017258  -0.006231
   27  C   2  S  -0.012494   0.036591  -0.009883   0.062524  -0.012448
   28  C   2  S   1.776332   3.172808  -0.380494   1.967589  -0.062674
   29  C   2  S -23.401215  -0.808905   3.587196   0.347614 -13.286088
   30  C   2  X  -0.087728  -0.016457  -0.118852  -0.017879  -0.039962
   31  C   2  Y   0.048703  -0.121305   0.021801  -0.064631  -0.025342
   32  C   2  Z  -0.065548   0.152719  -0.068486  -0.116141   0.089014
   33  C   2  X  -2.174265   0.843955  -2.412853   0.334061  -1.547382
   34  C   2  Y   0.520392  -0.164734  -0.521574  -0.841368  -0.282029
   35  C   2  Z  -3.985670   2.723014  -2.417002  -1.543415  -1.655226
   36  C   2  X   3.630843   0.464350  -1.123589  -0.262492   1.599033
   37  C   2  Y   5.994824  -0.893213  -2.026251   0.086470   2.659394
   38  C   2  Z   5.258601   2.984557  -0.704679  -1.233771   1.893278
   39  C   2 XX  -0.003672  -0.015595   0.007714   0.004873  -0.007339
   40  C   2 YY   0.029935   0.035962  -0.012165  -0.019742   0.003039
   41  C   2 ZZ  -0.026263  -0.020367   0.004451   0.014870   0.004300
   42  C   2 XY   0.020806   0.024508  -0.025584   0.010606  -0.017802
   43  C   2 XZ  -0.011947  -0.006182  -0.002634  -0.015501   0.016785
   44  C   2 YZ   0.029581  -0.000769  -0.005592   0.004446   0.007294
   45  C   2 XX   0.055253  -0.430749   0.596986  -0.159605   0.707328
   46  C   2 YY  -1.017839  -0.331158  -0.226301   0.390425  -0.437812
   47  C   2 ZZ   0.962586   0.761907  -0.370686  -0.230820  -0.269516
   48  C   2 XY  -0.107837  -0.176901   0.414314  -0.256458   0.427074
   49  C   2 XZ   0.710969   0.147313   0.473860  -0.008260   0.569750
   50  C   2 YZ   0.313421  -0.342923   0.747637  -0.419839   1.191160
   51  C   3  S   0.012452  -0.023109  -0.071802  -0.019801  -0.006146
   52  C   3  S   0.027420  -0.010127  -0.030291  -0.064744   0.006456
   53  C   3  S  -1.724014   1.545094   5.386459   2.440145  -0.448901
   54  C   3  S  23.708292   5.331284   1.490803  -0.593048  10.177893
   55  C   3  X  -0.083493  -0.034937  -0.065970  -0.064555   0.026473
   56  C   3  Y  -0.093745   0.005575   0.098640  -0.002899   0.027970
   57  C   3  Z  -0.102786  -0.031571  -0.153755  -0.120061   0.002132
   58  C   3  X  -2.820654   0.237585  -2.034719  -1.589936  -1.497214
   59  C   3  Y  -1.163629   0.499595   0.544793  -1.213314  -1.531380
   60  C   3  Z  -3.336783  -0.240111  -4.253104  -0.613836  -0.738963
   61  C   3  X   2.767094   1.446623  -0.496116  -0.520353   1.188088
   62  C   3  Y  -0.363346   1.723089   0.853295  -0.092159   0.035209
   63  C   3  Z   3.507904  -0.773206  -1.462282  -0.461075   1.714376
   64  C   3 XX   0.005083   0.003483   0.004051   0.015038  -0.001313
   65  C   3 YY   0.007581  -0.012022  -0.003393  -0.010075   0.008273
   66  C   3 ZZ  -0.012664   0.008539  -0.000657  -0.004963  -0.006960
   67  C   3 XY   0.001946  -0.003442   0.009916   0.023853  -0.009105
   68  C   3 XZ  -0.014682   0.004191  -0.001441  -0.000389  -0.009969
   69  C   3 YZ  -0.008323  -0.008069   0.005437  -0.003244  -0.017228
   70  C   3 XX  -0.761548  -0.593610   0.618931   0.127580   0.059592
   71  C   3 YY   0.025798  -0.133125   0.287899  -0.465077   0.327218
   72  C   3 ZZ   0.735750   0.726735  -0.906830   0.337497  -0.386810
   73  C   3 XY  -0.276230  -0.527627   0.456742   0.330575   0.471031
   74  C   3 XZ  -0.335040   0.468297  -0.199343  -0.402890  -0.088284
   75  C   3 YZ  -1.284047  -0.813876   0.101130  -0.073805   0.020075
   76  H   4  S   0.041684  -0.021016   0.060771  -0.072303   0.105872
   77  H   4  S   5.175687  -4.544697  -0.429871   0.466394  -2.747303
   78  H   4  S   2.081873  -1.509455   0.787780  -1.237444   0.904756
   79  H   4  X  -0.000037   0.001157  -0.012399  -0.003953   0.013984
   80  H   4  Y  -0.011072  -0.000237  -0.002937  -0.002704   0.006758
   81  H   4  Z  -0.006551  -0.006230   0.003315  -0.000701   0.021847
   82  H   4  X   1.010594  -1.117592   0.269726   0.152843  -1.897120
   83  H   4  Y  -0.091297   1.425670   0.597346  -0.628853   0.442008
   84  H   4  Z  -1.558530   0.701448   0.246593   0.539839  -0.646716
   85  H   5  S   0.112279   0.033623  -0.000462   0.142452  -0.130481
   86  H   5  S   1.003521  -4.604929   0.056156  -0.003653   5.069702
   87  H   5  S   0.923449  -1.421920  -0.477088   1.516639  -1.045521
   88  H   5  X   0.002581   0.007337   0.001456   0.003420  -0.011493
   89  H   5  Y  -0.006232   0.002456  -0.005039  -0.006827  -0.008088
   90  H   5  Z   0.020494   0.007120  -0.009937   0.007338  -0.015274
   91  H   5  X  -0.215310   1.726099   0.230994  -0.381125  -1.704751
   92  H   5  Y   0.537225   0.262635   0.733614   0.649391   1.142091
   93  H   5  Z  -0.025071  -0.134485   0.315091  -0.433349   0.539841
   94  H   6  S  -0.053175  -0.012940  -0.065593  -0.025356   0.028924
   95  H   6  S   3.956815  -3.337068   0.850125  -0.067768   2.333668
   96  H   6  S  -1.559661  -1.490491  -0.517836  -0.135169  -0.023927
   97  H   6  X  -0.008517  -0.006948   0.007475  -0.008995   0.016680
   98  H   6  Y   0.005008  -0.003220  -0.000878   0.011198  -0.016337
   99  H   6  Z  -0.000566  -0.004318   0.003490   0.007892   0.002882
  100  H   6  X   0.302826  -0.560913  -0.557545   1.084849  -0.210885
  101  H   6  Y   1.015192  -1.036226  -0.207012  -0.808616   0.994594
  102  H   6  Z   0.717796  -0.364862   0.514519  -1.104015  -0.096479
  103  H   7  S   0.070434   0.097084   0.003631  -0.029473   0.016589
  104  H   7  S   3.722590  -0.337264   1.697242   0.064636   1.887989
  105  H   7  S  -3.654582   0.941253   1.625479   0.017831  -1.173426
  106  H   7  X   0.002892   0.008808  -0.012167   0.006145  -0.011300
  107  H   7  Y   0.016530   0.020053  -0.002433  -0.011297  -0.002405
  108  H   7  Z   0.000287   0.001516  -0.006216   0.000660   0.001788
  109  H   7  X  -0.068426   0.012018   0.017302  -0.199827  -0.360973
  110  H   7  Y  -1.099945   0.191573  -0.434794   0.197295  -0.318780
  111  H   7  Z   0.288090  -0.517564  -0.178817   1.094289  -0.728492
  112  H   8  S  -0.022101  -0.045679   0.084508   0.070760   0.037886
  113  H   8  S  -1.883676   1.718113  -5.686569  -4.576444  -5.789295
  114  H   8  S  -0.296901   1.940993  -0.186949  -0.173690  -0.097237
  115  H   8  X   0.004373  -0.013444   0.003576  -0.004227   0.006121
  116  H   8  Y  -0.003336  -0.008830   0.018885   0.002808   0.009048
  117  H   8  Z  -0.012640  -0.003256   0.000360  -0.006767  -0.007572
  118  H   8  X  -0.267811  -0.277910  -0.975581  -0.951110  -1.502303
  119  H   8  Y   0.911020   0.618139  -1.504195  -1.186220  -1.204618
  120  H   8  Z  -0.249461  -0.362439   1.252905   0.201145   1.106031
  121  H   9  S   0.060897   0.065506  -0.078654   0.006306   0.015672
  122  H   9  S  -6.123386  -4.071793  -6.035067   0.018065   2.411860
  123  H   9  S   1.517468  -1.641057  -2.612103  -0.620097   0.387240
  124  H   9  X  -0.001127  -0.000175   0.001022   0.003261   0.005988
  125  H   9  Y  -0.007416  -0.003293  -0.003178  -0.005783  -0.001975
  126  H   9  Z   0.010326   0.001480   0.004267  -0.000382   0.001701
  127  H   9  X   0.894023   0.704108  -0.487904  -0.458041  -0.443801
  128  H   9  Y   1.469931   0.743395   1.176505   0.605614  -0.913848
  129  H   9  Z  -0.576072  -0.321894  -2.501858   0.597896   1.221469
  130  H  10  S  -0.094944   0.001173   0.153021   0.008178  -0.015929
  131  H  10  S   0.340049   0.708759   0.527887   0.450746  -0.251172
  132  H  10  S   0.193906   0.205898   0.286030   0.155414   0.881352
  133  H  10  X  -0.011719   0.000747   0.003918   0.006607  -0.006843
  134  H  10  Y   0.004223  -0.002065  -0.008458   0.016449   0.001527
  135  H  10  Z   0.010877   0.000046   0.000529  -0.008781   0.010596
  136  H  10  X  -0.398521  -0.122736   0.245570  -0.195569  -0.200128
  137  H  10  Y  -0.246036   0.119783  -0.143712  -0.176273   0.173396
  138  H  10  Z   0.564786  -0.051724   0.285146  -0.533835  -0.434142
  139  F  11  S   0.011565   0.003494  -0.007091  -0.000204   0.002147
  140  F  11  S  -0.015375   0.010654  -0.008752  -0.016421  -0.028739
  141  F  11  S  -0.296028  -0.016307   0.094344  -0.053953  -0.182017
  142  F  11  S   2.043043  -0.197429  -1.279164   0.098135   1.300489
  143  F  11  X  -0.053080  -0.014415   0.065104   0.018550  -0.012615
  144  F  11  Y   0.022557   0.029555   0.020588  -0.031231  -0.015428
  145  F  11  Z  -0.041606   0.016885  -0.029644   0.036248  -0.023569
  146  F  11  X  -0.126092  -0.002350   0.107077   0.021278  -0.059007
  147  F  11  Y   0.016093   0.012962   0.023797  -0.028372  -0.031886
  148  F  11  Z  -0.056965  -0.000650  -0.024927   0.019989  -0.017402
  149  F  11  X  -0.118633   0.222554   0.345842   0.100265  -0.253946
  150  F  11  Y   0.468972  -0.000268  -0.013650   0.211291   0.176114
  151  F  11  Z   0.601504   0.166182  -0.216903   0.401442   0.819558
  152  F  11 XX  -0.001695   0.000553   0.003123   0.001013  -0.001843
  153  F  11 YY   0.002637  -0.000222  -0.001737  -0.000171   0.000541
  154  F  11 ZZ  -0.000941  -0.000331  -0.001386  -0.000842   0.001302
  155  F  11 XY   0.003928   0.001406   0.001548   0.000365  -0.001278
  156  F  11 XZ  -0.000960   0.002278  -0.002946   0.004047   0.005049
  157  F  11 YZ  -0.001790  -0.001859  -0.001346   0.000868  -0.000465
  158  F  11 XX   0.004791   0.005656   0.001747   0.005128   0.009386
  159  F  11 YY  -0.005341  -0.002895   0.002027  -0.004320  -0.007079
  160  F  11 ZZ   0.000549  -0.002760  -0.003774  -0.000808  -0.002307
  161  F  11 XY   0.003316   0.005638   0.005434  -0.001330   0.003176
  162  F  11 XZ  -0.009013   0.003503  -0.005608   0.008411  -0.003640
  163  F  11 YZ  -0.000979   0.006770   0.019929   0.003357  -0.003887

                     66         67         68         69         70
                    0.4907     0.5000     0.5156     0.5211     0.5343
                     A          A          A          A          A   
    1  C   1  S  -0.044670   0.031204  -0.036710   0.011488  -0.038816
    2  C   1  S   0.008183  -0.020874  -0.007111   0.003379  -0.010750
    3  C   1  S   3.769173  -2.291706   2.749693  -0.429656   3.438526
    4  C   1  S   6.716359   1.353378   9.296245   0.282109  10.861597
    5  C   1  X  -0.179184  -0.016252   0.033171  -0.135885   0.031550
    6  C   1  Y  -0.028086  -0.032502  -0.099697  -0.015170  -0.154021
    7  C   1  Z  -0.120797   0.151904  -0.051952   0.009990  -0.036901
    8  C   1  X   0.497859   0.814363  -0.975136  -1.265545   0.811377
    9  C   1  Y   3.141624  -1.862004  -2.840812   0.913235   1.232874
   10  C   1  Z  -2.470073   0.930688  -2.024249   2.249634   0.203373
   11  C   1  X  -1.084085  -0.603465  -1.584816  -0.388710  -0.294498
   12  C   1  Y   0.565687  -2.198638  -0.048821  -0.688997   1.667244
   13  C   1  Z  -1.866404  -0.674499  -2.572295  -0.065145  -2.195459
   14  C   1 XX   0.017921   0.003062  -0.002201   0.014914   0.012254
   15  C   1 YY  -0.006978   0.039087   0.015157  -0.004514  -0.022043
   16  C   1 ZZ  -0.010943  -0.042149  -0.012956  -0.010401   0.009789
   17  C   1 XY  -0.001335   0.017063   0.007198   0.008024  -0.025037
   18  C   1 XZ   0.009629   0.004448   0.001987   0.008369  -0.003137
   19  C   1 YZ  -0.007122  -0.010399  -0.002380  -0.004623   0.005286
   20  C   1 XX   0.416794  -0.065894  -0.166463   1.091131  -0.422379
   21  C   1 YY  -1.395467   0.109255  -0.362523  -0.732458   0.143062
   22  C   1 ZZ   0.978673  -0.043361   0.528986  -0.358673   0.279316
   23  C   1 XY  -0.459317   0.645058  -0.221746   0.488215  -1.054050
   24  C   1 XZ   0.229407   0.523125  -0.543617  -1.040869  -0.957465
   25  C   1 YZ  -1.203682   0.188875   0.002876  -0.259539  -0.868112
   26  C   2  S   0.040271  -0.007835   0.017707   0.027350   0.037463
   27  C   2  S  -0.098130  -0.006570  -0.069223  -0.000149   0.026414
   28  C   2  S  -2.633665   0.536713  -1.662738  -3.820728  -3.583546
   29  C   2  S -15.889210 -33.290545 -17.183373  -8.730179 -11.296820
   30  C   2  X   0.130401   0.024076   0.143934   0.044164  -0.074429
   31  C   2  Y   0.033839   0.007385   0.106912   0.015164   0.024576
   32  C   2  Z   0.004840   0.171888   0.118755   0.099118   0.015250
   33  C   2  X  -1.447084  -1.296616   1.468010  -0.489885  -3.391211
   34  C   2  Y   0.979611  -3.666793   1.509070  -2.631805  -3.380974
   35  C   2  Z  -4.055360   1.704277   1.123889   1.605016  -3.622975
   36  C   2  X   2.519259   4.996212   1.764016   1.753828  -1.111221
   37  C   2  Y   4.751447   4.269329   4.200564   1.279836   2.523058
   38  C   2  Z  -0.795219   7.532918   0.407959   2.237994  -3.681107
   39  C   2 XX  -0.002323   0.000511   0.014885   0.017642   0.000554
   40  C   2 YY   0.013491  -0.028182  -0.012991  -0.017506  -0.018840
   41  C   2 ZZ  -0.011168   0.027671  -0.001894  -0.000136   0.018285
   42  C   2 XY   0.022637  -0.014375  -0.006911  -0.022031   0.003302
   43  C   2 XZ   0.000854  -0.007096   0.007822   0.020182   0.018720
   44  C   2 YZ  -0.000133  -0.001840   0.008422  -0.005741   0.001185
   45  C   2 XX   0.537529   0.895013   0.573295   0.306621   0.777940
   46  C   2 YY   0.086482  -1.741490  -0.777280  -0.549136  -0.955127
   47  C   2 ZZ  -0.624010   0.846477   0.203985   0.242515   0.177187
   48  C   2 XY   0.837393   0.089344  -0.241782   0.269602   0.133689
   49  C   2 XZ   0.352881   0.208238  -0.141448  -0.287088   0.205073
   50  C   2 YZ   1.555394   0.552743   0.248791  -0.446784   0.354803
   51  C   3  S   0.028996  -0.008135   0.016905  -0.027389   0.060106
   52  C   3  S   0.058591   0.015209   0.087436   0.064980   0.021620
   53  C   3  S  -2.319508  -0.913195  -3.330854   3.941475  -6.685857
   54  C   3  S   9.017090  28.294896   2.934084   6.146296  -1.550756
   55  C   3  X   0.089209   0.024263   0.182367   0.027340   0.117006
   56  C   3  Y   0.033196   0.068066   0.008504  -0.026749  -0.014433
   57  C   3  Z   0.145552  -0.022209   0.146901   0.043579   0.030070
   58  C   3  X  -1.250822  -0.952473   3.290971   0.231159  -0.919701
   59  C   3  Y   0.304536   0.749402   2.789866  -1.441532  -1.979833
   60  C   3  Z  -0.591067  -1.454859   0.904726   1.259259  -1.386991
   61  C   3  X   1.573532   4.268885   0.423607   0.472620   0.175874
   62  C   3  Y  -0.262918   1.377631   0.913937   0.190910  -0.519424
   63  C   3  Z   2.580522   5.238446   0.738628   1.705233  -0.220703
   64  C   3 XX  -0.014762  -0.018399  -0.012315   0.006338   0.006894
   65  C   3 YY   0.007185  -0.001714   0.015311   0.001057   0.005099
   66  C   3 ZZ   0.007577   0.020113  -0.002996  -0.007395  -0.011993
   67  C   3 XY  -0.010118  -0.024968  -0.009020   0.009771   0.011550
   68  C   3 XZ  -0.010401  -0.014042  -0.019456  -0.008839  -0.036299
   69  C   3 YZ  -0.014834  -0.011379   0.020846   0.031686   0.007246
   70  C   3 XX   0.091667   0.338138  -0.210109  -0.348423   0.158475
   71  C   3 YY   0.656122   0.525645  -0.381154   0.630153   0.649973
   72  C   3 ZZ  -0.747789  -0.863783   0.591264  -0.281729  -0.808448
   73  C   3 XY  -0.139338   1.205067  -0.082147  -0.395463   0.634039
   74  C   3 XZ  -1.344485  -0.296068  -0.151919   0.819048  -0.607126
   75  C   3 YZ  -0.936768  -0.031874  -0.436674   0.812085  -0.496243
   76  H   4  S  -0.048010  -0.115050   0.067063  -0.055225   0.053676
   77  H   4  S  -0.629618   3.024500   2.302043  -6.121686  -2.691591
   78  H   4  S   0.399837   0.139045   0.520440  -0.100857   0.288911
   79  H   4  X  -0.015870   0.003622   0.007675  -0.006155  -0.016847
   80  H   4  Y  -0.011479   0.006535   0.004823  -0.010447  -0.000704
   81  H   4  Z  -0.011127  -0.022944  -0.001765  -0.014634   0.008506
   82  H   4  X   0.093657  -0.013030   0.652678  -1.145156   0.098256
   83  H   4  Y   1.148796   0.157920  -0.284400   1.931920   0.171079
   84  H   4  Z   0.297022  -0.554880  -1.262561   1.923666   0.686677
   85  H   5  S   0.107510   0.006485  -0.050617   0.098870  -0.053997
   86  H   5  S  -2.183240  -1.023667   1.836714   2.470977  -1.513204
   87  H   5  S   1.747519   0.073853   1.402370   0.173021   0.837146
   88  H   5  X   0.012933  -0.004808  -0.002712   0.013807   0.007389
   89  H   5  Y  -0.016453   0.008662   0.002003   0.002202  -0.016631
   90  H   5  Z   0.013693   0.007135  -0.007470   0.002125  -0.003583
   91  H   5  X   0.705860   0.958368  -0.504578  -1.925662   0.987595
   92  H   5  Y   0.826861   0.263208   0.354780  -0.412954   0.382697
   93  H   5  Z   0.089621  -0.691743   0.460172   0.843632   0.427791
   94  H   6  S  -0.146351   0.121482  -0.033891   0.002236  -0.150951
   95  H   6  S   6.115490   0.310885  -5.773293   2.621868   2.265772
   96  H   6  S  -0.920662  -1.939458  -1.385821  -0.769237   0.223381
   97  H   6  X  -0.013153  -0.011656  -0.001084  -0.001374   0.017589
   98  H   6  Y   0.012752  -0.010961  -0.007786   0.007551   0.023915
   99  H   6  Z  -0.011758   0.023208   0.005005   0.005324  -0.010254
  100  H   6  X   1.440965   0.847154  -0.923195   0.196054  -0.615891
  101  H   6  Y   1.142896   0.801830  -2.653531   0.786813   0.680301
  102  H   6  Z   0.739246  -0.317008  -0.711491  -0.979955  -1.025675
  103  H   7  S   0.169674  -0.155595  -0.029348  -0.055665  -0.075116
  104  H   7  S   1.406670   8.224218   0.631184   6.183973   9.244250
  105  H   7  S  -3.212657  -2.116802  -2.205724  -0.634193  -0.565792
  106  H   7  X   0.010904  -0.007326   0.003291  -0.001230  -0.002504
  107  H   7  Y   0.004945  -0.013232  -0.009142  -0.016529  -0.004685
  108  H   7  Z  -0.007789  -0.010523   0.002747   0.001035  -0.000045
  109  H   7  X  -0.944673  -1.351798  -0.291933  -1.223520  -0.907343
  110  H   7  Y  -1.187271  -0.732965   0.949978  -1.912841  -3.279634
  111  H   7  Z  -0.159214  -1.322404  -0.225326   0.087713   0.565219
  112  H   8  S  -0.025831   0.017371  -0.003730  -0.080721   0.081098
  113  H   8  S  -2.254285  -2.747576  11.378542  -4.164773  -1.182367
  114  H   8  S   0.903319   2.007437   1.126544   0.034551   0.287442
  115  H   8  X   0.012357   0.025306   0.000521   0.005633   0.001877
  116  H   8  Y   0.004605   0.021804  -0.006805  -0.000594   0.009672
  117  H   8  Z   0.023572   0.006257  -0.000374   0.006200   0.006223
  118  H   8  X  -0.290065   0.415716   2.726757  -2.313477  -0.181174
  119  H   8  Y  -0.764695   0.107960   2.179114  -0.412652   1.009184
  120  H   8  Z  -1.120050   0.956255  -1.285264   0.447492   0.112825
  121  H   9  S   0.083147  -0.025622  -0.009606  -0.126459   0.032506
  122  H   9  S  -0.159099  -1.478198  -2.770939   2.917821   3.181652
  123  H   9  S   1.004720   1.287165  -0.314206   0.752482  -0.336147
  124  H   9  X  -0.003219   0.000492   0.004783   0.003130   0.017327
  125  H   9  Y   0.005784  -0.003296  -0.009620  -0.004359  -0.000955
  126  H   9  Z  -0.001622  -0.008611   0.005204   0.016226   0.005339
  127  H   9  X  -0.562903  -0.616773  -0.112525   0.895461  -0.255659
  128  H   9  Y  -1.500608  -0.603892   1.228771  -0.691965  -1.428450
  129  H   9  Z  -0.143318  -0.592046  -0.958550   0.123263   1.241473
  130  H  10  S   0.018086  -0.030664  -0.109572  -0.035413  -0.120943
  131  H  10  S  -1.407709   0.407333  -1.226772  -0.323353   1.340167
  132  H  10  S  -0.277799   0.601861   1.410232   0.764095  -0.366069
  133  H  10  X  -0.011736  -0.003964  -0.001131  -0.001593   0.011382
  134  H  10  Y  -0.001956   0.007923   0.004575  -0.002388   0.013189
  135  H  10  Z  -0.004572  -0.003064  -0.001651  -0.008273  -0.008226
  136  H  10  X   0.037871  -0.974694  -1.188256   0.217830   0.655827
  137  H  10  Y   0.058760  -0.093337  -0.005303  -0.423612  -1.027960
  138  H  10  Z   0.208233   1.258212  -0.098145   0.258202  -0.346132
  139  F  11  S   0.003024   0.002964   0.003019   0.006866  -0.003539
  140  F  11  S  -0.007085  -0.020639  -0.027777   0.000605   0.032566
  141  F  11  S  -0.099733  -0.139911  -0.177070  -0.142632   0.223265
  142  F  11  S   1.163079   2.446424   3.582991   0.785473  -1.685794
  143  F  11  X  -0.003312  -0.020066  -0.070610  -0.029365   0.004514
  144  F  11  Y   0.009687  -0.040934  -0.036039   0.028930   0.026075
  145  F  11  Z   0.001503  -0.040975  -0.024491  -0.045575   0.018528
  146  F  11  X  -0.057439  -0.098183  -0.193347  -0.033483   0.070939
  147  F  11  Y   0.030702  -0.029190  -0.041328   0.051599   0.134216
  148  F  11  Z  -0.034449  -0.099272  -0.012797  -0.043049   0.056960
  149  F  11  X  -0.490893  -0.488460  -1.316845  -0.246287   1.152326
  150  F  11  Y  -0.352847   0.492164   0.367609   0.220668  -0.009157
  151  F  11  Z   0.299811   0.160219   0.557828   0.170153  -0.028298
  152  F  11 XX  -0.001599  -0.000082  -0.004941  -0.002932   0.005043
  153  F  11 YY   0.002075   0.001478   0.002756   0.000840  -0.001988
  154  F  11 ZZ  -0.000475  -0.001395   0.002184   0.002092  -0.003055
  155  F  11 XY  -0.002314  -0.000525  -0.001050   0.003962   0.004218
  156  F  11 XZ  -0.000749  -0.008110   0.001341  -0.000893   0.000257
  157  F  11 YZ  -0.000201   0.000320   0.001088   0.000073   0.001608
  158  F  11 XX   0.012126  -0.001237  -0.001917  -0.001050  -0.035129
  159  F  11 YY   0.006167   0.011710  -0.010992   0.013719   0.034137
  160  F  11 ZZ  -0.018293  -0.010473   0.012909  -0.012668   0.000992
  161  F  11 XY  -0.007422  -0.003146   0.000007   0.010535  -0.020270
  162  F  11 XZ   0.005320   0.008152   0.006055  -0.009183  -0.006827
  163  F  11 YZ  -0.008239   0.004813   0.009863   0.010243   0.021242

                     71         72         73         74         75
                    0.5434     0.5613     0.5630     0.5863     0.6054
                     A          A          A          A          A   
    1  C   1  S   0.045860  -0.000163   0.017666  -0.017626   0.026143
    2  C   1  S  -0.013047   0.011848  -0.014375  -0.042381   0.029319
    3  C   1  S  -3.118386   1.577529   0.432805   2.182335  -3.778658
    4  C   1  S -16.462132   8.065775  -4.478714   2.407050   7.779521
    5  C   1  X  -0.099875  -0.005646   0.050809  -0.062489  -0.095375
    6  C   1  Y  -0.200353  -0.073919  -0.016884  -0.016633  -0.010386
    7  C   1  Z  -0.012134   0.009071   0.009612   0.066203  -0.021707
    8  C   1  X   0.417179   1.736403   3.995438  -0.769485   5.195835
    9  C   1  Y  -1.591501   0.111141  -0.569865  -0.103427  -1.816126
   10  C   1  Z   0.867336   5.784342   2.472841  -2.365856  -1.139130
   11  C   1  X   0.272720  -0.107725  -0.107883   0.054073   0.039048
   12  C   1  Y  -2.125504   1.765199  -1.282867   0.295367   0.746560
   13  C   1  Z   4.134131  -0.741397   1.138352  -0.816039  -1.600683
   14  C   1 XX  -0.001269  -0.005364  -0.019147   0.009405   0.027291
   15  C   1 YY  -0.010193  -0.010801   0.004720   0.003200  -0.001148
   16  C   1 ZZ   0.011462   0.016165   0.014427  -0.012605  -0.026143
   17  C   1 XY  -0.008083  -0.014981  -0.001972   0.002773  -0.012694
   18  C   1 XZ  -0.012158  -0.003370  -0.002862   0.013281   0.020232
   19  C   1 YZ  -0.022860  -0.012759   0.003630  -0.021070   0.010814
   20  C   1 XX   1.351749   1.194257   1.617335   0.600352   0.599646
   21  C   1 YY  -0.848426  -0.039590   0.056029  -0.058904  -1.186768
   22  C   1 ZZ  -0.503322  -1.154666  -1.673365  -0.541449   0.587122
   23  C   1 XY  -0.598571  -0.076376  -0.375594   0.068406   0.632567
   24  C   1 XZ  -0.806699  -0.912210  -0.185698   0.307441   0.395944
   25  C   1 YZ  -0.062605   1.784492   1.248804   0.608501  -1.416221
   26  C   2  S  -0.064034  -0.064503   0.020233  -0.065650   0.009987
   27  C   2  S  -0.021838   0.013596  -0.036062  -0.037527   0.036948
   28  C   2  S   5.698204   6.243344  -1.656335  11.585882  -1.848711
   29  C   2  S  28.270550   3.607967  -0.824628 -10.527118 -10.448687
   30  C   2  X   0.100486  -0.030911   0.118150   0.052226   0.073020
   31  C   2  Y  -0.001152  -0.050071  -0.107005   0.102371   0.031719
   32  C   2  Z   0.260175  -0.015731   0.131831  -0.029540  -0.033275
   33  C   2  X   1.517822  -1.333079   1.446161  -4.815993   0.171537
   34  C   2  Y   1.519080  -4.360046  -3.672686  -0.810773   0.799752
   35  C   2  Z   2.489705   2.553207   2.993853  -7.315495   0.300814
   36  C   2  X  -1.383272  -2.991110   1.695457  -0.026149  -0.481210
   37  C   2  Y  -6.835667   0.374911  -0.729688  -1.124183   3.596916
   38  C   2  Z   2.527290  -5.759290   4.539999   1.672091  -2.209328
   39  C   2 XX   0.002325  -0.005860   0.008249  -0.005466  -0.003928
   40  C   2 YY  -0.015932   0.006304  -0.001896  -0.016625   0.000926
   41  C   2 ZZ   0.013606  -0.000444  -0.006353   0.022091   0.003002
   42  C   2 XY  -0.005064  -0.008321   0.016511   0.019790   0.004317
   43  C   2 XZ   0.021989   0.007200  -0.000327   0.013225  -0.009022
   44  C   2 YZ   0.000045   0.000902   0.007628   0.018853  -0.014389
   45  C   2 XX  -0.765197  -0.588696  -0.729021   0.633067  -0.421019
   46  C   2 YY   0.416215   0.095417   0.507461  -1.711821  -0.655857
   47  C   2 ZZ   0.348981   0.493279   0.221560   1.078754   1.076876
   48  C   2 XY   0.993727   0.098633   0.305273  -1.445488  -0.563074
   49  C   2 XZ   0.688172  -0.749974  -0.463154   1.410231  -0.490369
   50  C   2 YZ   0.290939  -1.863199  -0.091327   1.820465  -0.638482
   51  C   3  S   0.015786   0.067779  -0.062727   0.037524   0.001000
   52  C   3  S   0.065113  -0.009160   0.004296  -0.046299   0.051519
   53  C   3  S  -1.087521  -3.276616   7.010394  -4.754877   3.771424
   54  C   3  S  -9.043158 -13.997009   7.218823   9.289391  -1.225420
   55  C   3  X   0.147495   0.014586   0.010035   0.090179  -0.032528
   56  C   3  Y   0.119632  -0.057348   0.042301  -0.157464  -0.018432
   57  C   3  Z   0.145308  -0.116939   0.122758   0.049822  -0.020785
   58  C   3  X  -0.592218  -0.331196   0.408969  -5.208465  -1.446006
   59  C   3  Y  -1.595963  -0.165879   1.180956  -3.652368  -2.170352
   60  C   3  Z   2.947104  -0.737088   1.154127  -4.658631   2.209605
   61  C   3  X   0.108376  -2.943026   2.059612   2.861917  -1.337844
   62  C   3  Y   0.725594  -1.221291   1.599604   1.634319  -1.257422
   63  C   3  Z  -1.187097  -2.287044   0.837247   0.281113   0.465132
   64  C   3 XX   0.019491  -0.019959   0.011876   0.010551   0.000935
   65  C   3 YY   0.003494   0.010180  -0.007437   0.013383   0.009554
   66  C   3 ZZ  -0.022985   0.009778  -0.004439  -0.023934  -0.010490
   67  C   3 XY  -0.000737   0.006903  -0.009451   0.018289   0.006560
   68  C   3 XZ  -0.015758  -0.008574   0.003584  -0.022161   0.008100
   69  C   3 YZ   0.007755  -0.004140  -0.012405  -0.016800   0.028551
   70  C   3 XX   0.237140   0.479629  -0.901517  -1.606296  -0.667542
   71  C   3 YY  -0.050456   0.439868  -0.426683   2.360546   0.805118
   72  C   3 ZZ  -0.186685  -0.919497   1.328200  -0.754250  -0.137576
   73  C   3 XY   0.896719  -0.363645   0.125230  -0.604239  -1.028050
   74  C   3 XZ  -0.360663  -0.444378  -0.886256  -3.057098   1.275746
   75  C   3 YZ   0.798554   1.075419   0.141537  -3.355260   0.423097
   76  H   4  S   0.049307   0.062970   0.079752  -0.054023  -0.010919
   77  H   4  S   0.685550  -8.542995   1.577049   1.357318  11.743265
   78  H   4  S  -0.818005  -0.362622  -0.460299  -0.180322   0.348318
   79  H   4  X  -0.018501  -0.007267  -0.005641  -0.001094  -0.025629
   80  H   4  Y  -0.014785  -0.009887   0.011353  -0.001413   0.000358
   81  H   4  Z   0.006341  -0.006818  -0.001253  -0.021826  -0.025345
   82  H   4  X   1.570366  -1.327618   1.395084   0.663753   2.798825
   83  H   4  Y   0.692698   1.178210  -1.422627  -0.587679  -1.045188
   84  H   4  Z  -0.256028   2.447709   0.216304  -0.023879  -3.896120
   85  H   5  S   0.048234   0.006774  -0.002825   0.078894   0.083194
   86  H   5  S  -1.799670  -5.559163 -10.364041   0.109356 -10.503495
   87  H   5  S  -0.394753   0.664336  -0.705752   0.029255   0.584889
   88  H   5  X   0.008309  -0.007293  -0.015682   0.010029   0.021381
   89  H   5  Y  -0.013872  -0.021452  -0.001363   0.002276  -0.008457
   90  H   5  Z  -0.000466  -0.005753  -0.000321   0.008883   0.026463
   91  H   5  X   0.139969   1.881717   3.529347  -0.611626   4.230912
   92  H   5  Y   0.569661   0.235289  -0.603286  -0.457510  -0.032316
   93  H   5  Z   0.744677   1.688770   1.945966   0.143365   0.364536
   94  H   6  S  -0.080503  -0.027305   0.070227   0.051461  -0.034176
   95  H   6  S   1.623951   3.411081   2.485836  -1.731761   3.462225
   96  H   6  S  -1.463930   0.660025  -0.815006  -0.253857   0.328726
   97  H   6  X   0.009556   0.011501   0.002505  -0.002258  -0.012075
   98  H   6  Y   0.017329   0.022895  -0.000063   0.000732   0.008959
   99  H   6  Z   0.013333  -0.004037  -0.009291   0.016854   0.008755
  100  H   6  X   0.062692   0.770359   0.652927  -0.349080   1.715799
  101  H   6  Y   0.350389   1.093037   0.843972  -0.360261   0.697122
  102  H   6  Z   0.162208   1.115222   0.164059   0.253712  -1.381740
  103  H   7  S  -0.051889  -0.056551   0.117679  -0.163446  -0.083255
  104  H   7  S  -9.061816   3.901965   4.503233   3.802438   2.061360
  105  H   7  S   2.497148   1.014604  -0.281327   0.651011  -1.085610
  106  H   7  X   0.001331  -0.007539   0.019150   0.004738  -0.000532
  107  H   7  Y  -0.007366   0.003927   0.009170   0.000961  -0.013154
  108  H   7  Z   0.003862  -0.007072   0.011668  -0.000629  -0.003159
  109  H   7  X   0.848831   0.072538  -1.044719   1.087315   0.857325
  110  H   7  Y   2.994676  -0.983277  -2.444201  -0.103641  -0.220185
  111  H   7  Z  -0.190886   1.638244  -0.745365  -0.832127   0.073272
  112  H   8  S   0.055118   0.018633  -0.066065   0.160353  -0.112759
  113  H   8  S  -5.671453   2.120964  -2.427567  -7.302887  -4.651335
  114  H   8  S   1.428210  -1.403982   1.788681   1.862153  -1.532107
  115  H   8  X  -0.003022   0.000986  -0.009047   0.004023   0.016753
  116  H   8  Y   0.007987  -0.012189   0.003088  -0.003767  -0.008521
  117  H   8  Z   0.000591  -0.008896   0.015911  -0.016814  -0.017412
  118  H   8  X  -1.196254   0.893618  -1.610348  -2.680640  -2.503628
  119  H   8  Y  -1.177093  -0.102054  -1.125208  -0.115568  -1.025376
  120  H   8  Z  -0.342785   1.238684  -1.320909  -2.483505   1.266529
  121  H   9  S  -0.050556   0.008554   0.033549   0.231689  -0.122819
  122  H   9  S   7.203725   4.039590  -3.213309  -4.900608   4.172431
  123  H   9  S  -0.011767  -0.929881  -0.110984  -0.725165   0.536752
  124  H   9  X   0.014302   0.000892  -0.001234   0.000148   0.001512
  125  H   9  Y   0.003127   0.005872   0.003389   0.013170  -0.005526
  126  H   9  Z   0.015972  -0.021220  -0.000716  -0.004770   0.026391
  127  H   9  X  -0.728389   0.172324  -1.002949  -0.600667   0.979904
  128  H   9  Y  -1.624988  -0.785286   0.861935  -1.038559  -0.853549
  129  H   9  Z   2.236567   0.536872  -0.612291  -0.615087   0.515499
  130  H  10  S   0.022176  -0.141568   0.055236   0.022465  -0.169280
  131  H  10  S   1.093648  -1.880267   0.116973  -0.321225   0.169279
  132  H  10  S  -0.521656   0.667778   0.158548  -1.049834   0.908930
  133  H  10  X  -0.009858   0.002771  -0.009533  -0.011295   0.014844
  134  H  10  Y   0.004964   0.003028   0.004599   0.009523  -0.011141
  135  H  10  Z  -0.013255   0.005440   0.000242   0.013719  -0.007684
  136  H  10  X   0.526354  -0.363627   0.036219   1.162411  -1.193703
  137  H  10  Y   0.096431  -0.347250  -0.053717  -0.492499   0.516640
  138  H  10  Z   0.570262   0.274043   0.003463  -0.585389  -0.334096
  139  F  11  S  -0.000824   0.006839   0.000397   0.001015   0.010220
  140  F  11  S   0.027049  -0.007105   0.004735   0.003825   0.029211
  141  F  11  S   0.125909  -0.174467   0.012172  -0.012140  -0.034901
  142  F  11  S  -2.527306   2.447460  -0.308440  -1.673066   2.570964
  143  F  11  X   0.032205  -0.081542   0.018439   0.024335  -0.090819
  144  F  11  Y   0.032829  -0.006074  -0.007841   0.016466  -0.018383
  145  F  11  Z   0.007715  -0.022542   0.027219  -0.008764   0.049742
  146  F  11  X   0.100001  -0.180302   0.005488   0.094696  -0.159106
  147  F  11  Y   0.010251   0.022012   0.007244   0.023494  -0.055072
  148  F  11  Z  -0.015881  -0.070378  -0.007190   0.013666   0.050814
  149  F  11  X   0.630310  -0.786480   0.076730   0.894514  -0.560610
  150  F  11  Y  -0.084350   0.265291  -0.068399   0.127658   0.163342
  151  F  11  Z  -0.473550   0.497583   0.007109   0.078478   0.554801
  152  F  11 XX   0.002688  -0.004468  -0.000141   0.000765  -0.000225
  153  F  11 YY  -0.000477   0.002143   0.000078  -0.001104   0.002329
  154  F  11 ZZ  -0.002210   0.002325   0.000062   0.000338  -0.002104
  155  F  11 XY   0.002458   0.002057   0.000335   0.000732  -0.002822
  156  F  11 XZ   0.000127  -0.000274   0.000166  -0.000398   0.004502
  157  F  11 YZ  -0.003797  -0.000153   0.000517   0.002574  -0.000128
  158  F  11 XX  -0.001857   0.007775   0.012161   0.006214  -0.010748
  159  F  11 YY  -0.008450   0.031091   0.023670  -0.017136  -0.004112
  160  F  11 ZZ   0.010307  -0.038866  -0.035831   0.010922   0.014860
  161  F  11 XY  -0.004272  -0.011458   0.006189   0.003472   0.016942
  162  F  11 XZ  -0.002660  -0.009590  -0.008399  -0.003242  -0.003152
  163  F  11 YZ  -0.030318  -0.016980   0.007903  -0.001873   0.001305

                     76         77         78         79         80
                    0.6172     0.6258     0.6431     0.6535     0.6680
                     A          A          A          A          A   
    1  C   1  S  -0.092125  -0.008419   0.005256   0.040126  -0.007232
    2  C   1  S  -0.047326   0.002926  -0.000697  -0.008742  -0.033728
    3  C   1  S   4.641292  -1.574411  -0.544751  -4.027119   1.459961
    4  C   1  S  -4.872139   3.175990  -6.741843  10.600571   8.073593
    5  C   1  X   0.022862   0.050679   0.106263   0.017700  -0.130821
    6  C   1  Y   0.158529   0.071034   0.033317  -0.022212   0.019279
    7  C   1  Z   0.041203   0.037477  -0.034354   0.097177   0.138650
    8  C   1  X   0.243623   0.981240   1.552266   1.043374   0.654021
    9  C   1  Y   2.220081   4.349558   3.594366  -1.266928   5.889656
   10  C   1  Z  -4.665545  -0.923470   3.011646   2.746111   0.838317
   11  C   1  X   0.189345  -0.264045  -0.164287  -0.951142   0.607153
   12  C   1  Y  -0.484792   0.459744   0.777351   0.540664   0.464794
   13  C   1  Z   0.403485  -0.997517   2.369847  -1.433742  -1.752870
   14  C   1 XX  -0.018638   0.002239  -0.002384   0.009942  -0.008387
   15  C   1 YY   0.023898   0.005910  -0.005837  -0.025279   0.000805
   16  C   1 ZZ  -0.005260  -0.008150   0.008221   0.015336   0.007583
   17  C   1 XY   0.028044   0.012409   0.005449  -0.005066   0.013363
   18  C   1 XZ   0.012010   0.015753   0.008521  -0.004190   0.015664
   19  C   1 YZ   0.003243   0.007989   0.021389  -0.004300   0.002027
   20  C   1 XX  -0.932624  -0.757724   0.673041   0.022814   0.574782
   21  C   1 YY  -0.873919  -0.110671  -1.893874  -0.444953  -0.649782
   22  C   1 ZZ   1.806542   0.868395   1.220833   0.422139   0.075000
   23  C   1 XY   0.335567  -1.054381   0.124819   3.149153  -1.637518
   24  C   1 XZ   1.326681   0.011631  -1.190116  -0.985068   0.471167
   25  C   1 YZ  -1.576188  -0.842324   0.490775   0.156062  -1.263038
   26  C   2  S   0.041277   0.008281  -0.012192  -0.006817   0.020906
   27  C   2  S  -0.005078   0.017657   0.013111   0.001043  -0.013723
   28  C   2  S  -3.116237  -0.303915   3.067188   2.267425  -2.374838
   29  C   2  S  -3.413542   0.483669  12.276764 -19.081007 -10.882207
   30  C   2  X   0.043885   0.050601  -0.118852  -0.123680   0.143251
   31  C   2  Y   0.101592   0.006497   0.206380  -0.220190  -0.127685
   32  C   2  Z  -0.145262  -0.110850   0.049315   0.161060   0.065274
   33  C   2  X   2.296134   0.494348  -2.222878  -2.252094  -0.215075
   34  C   2  Y   6.288224   3.933082   0.425462  -2.922619  -1.197691
   35  C   2  Z  -4.375823  -2.646600  -1.579654   3.323760  -1.677250
   36  C   2  X   0.939700  -1.038368  -1.321996   2.506520  -0.143447
   37  C   2  Y  -0.219674   0.041972  -6.262583   6.749717   5.168042
   38  C   2  Z   1.911858  -0.993426  -0.322216  -1.747674  -1.858942
   39  C   2 XX   0.014156   0.004650   0.003710  -0.006849  -0.015161
   40  C   2 YY  -0.000895   0.014487   0.019639   0.011778  -0.003451
   41  C   2 ZZ  -0.013260  -0.019137  -0.023349  -0.004930   0.018612
   42  C   2 XY  -0.001355   0.020046  -0.005315  -0.012280   0.008854
   43  C   2 XZ  -0.024435  -0.016864   0.000664   0.003151   0.001278
   44  C   2 YZ   0.013687   0.004851  -0.006560  -0.016363   0.004002
   45  C   2 XX  -0.283868   1.083786   0.850581  -0.087635  -0.738619
   46  C   2 YY   0.058900  -0.807685  -2.284454   1.815627   1.606502
   47  C   2 ZZ   0.224968  -0.276101   1.433873  -1.727992  -0.867883
   48  C   2 XY  -1.282519  -0.434688  -0.101742   0.659962  -0.802151
   49  C   2 XZ   0.152315   0.048674   0.804702  -1.750008   0.095324
   50  C   2 YZ   1.024458  -0.393773  -1.017305  -1.447570   3.323908
   51  C   3  S  -0.028838  -0.007243  -0.000210  -0.000660  -0.007493
   52  C   3  S  -0.072565   0.034727  -0.006786  -0.021412   0.000715
   53  C   3  S   1.170760   1.326885   0.199825   4.063759  -1.720929
   54  C   3  S   7.493838  -6.322225  -2.441789   8.388630   1.325987
   55  C   3  X  -0.042346   0.052591  -0.045836   0.077256   0.104160
   56  C   3  Y  -0.027551  -0.138081  -0.016614   0.045736   0.175808
   57  C   3  Z   0.028181  -0.077879  -0.003038  -0.217804  -0.066881
   58  C   3  X  -1.206154   0.122040  -1.445058   1.883759  -0.249230
   59  C   3  Y  -4.152175  -3.941440  -0.603886   0.734887   2.391739
   60  C   3  Z   3.735312   2.316470  -3.605236  -0.060175  -0.200918
   61  C   3  X   1.693542  -1.447297   0.998315   0.500910  -0.934606
   62  C   3  Y   0.201177  -0.130221   1.161094  -1.630603  -2.537694
   63  C   3  Z   1.436959  -1.292591  -1.318347   3.180951   2.447143
   64  C   3 XX   0.028096  -0.012867  -0.000558  -0.011157   0.040199
   65  C   3 YY  -0.006591  -0.015819  -0.003879  -0.006615   0.006679
   66  C   3 ZZ  -0.021505   0.028686   0.004437   0.017772  -0.046878
   67  C   3 XY   0.016462   0.038505  -0.008342   0.021050  -0.004556
   68  C   3 XZ   0.003828   0.021350  -0.009254   0.006480  -0.004895
   69  C   3 YZ  -0.021053   0.016326   0.029814   0.008238   0.001697
   70  C   3 XX  -1.768661   1.861099  -1.451850   1.476878   0.190171
   71  C   3 YY  -0.387193  -2.054098   0.869153   0.417274   0.800729
   72  C   3 ZZ   2.155853   0.192999   0.582697  -1.894152  -0.990900
   73  C   3 XY   0.568121  -2.183652  -0.351810   1.072386   2.094807
   74  C   3 XZ  -0.640951  -0.640351  -0.379526  -1.905676  -1.025026
   75  C   3 YZ   0.162283  -0.064395  -2.188753   0.531606   0.778014
   76  H   4  S  -0.104295  -0.022058   0.067577   0.036718  -0.093955
   77  H   4  S   4.782601  -3.013954  -9.223816   2.629248  -6.588387
   78  H   4  S   0.208354   0.058918  -1.303858   0.247820   0.642682
   79  H   4  X   0.029247   0.005771  -0.007151   0.003705   0.009030
   80  H   4  Y  -0.006718  -0.011494  -0.013336  -0.019019  -0.012064
   81  H   4  Z  -0.005801  -0.007226   0.010999   0.014739  -0.018145
   82  H   4  X   0.199787  -0.185833  -0.763903  -0.105386  -0.694362
   83  H   4  Y   0.299845   0.884099   2.731338   0.709352   1.397523
   84  H   4  Z  -0.933811   0.745103   2.050916  -2.445507   2.639033
   85  H   5  S  -0.068528  -0.045878  -0.041860  -0.003244   0.067438
   86  H   5  S  -1.330227  -1.482915  -5.598806   1.599793  -3.468137
   87  H   5  S  -0.108080   0.283188  -0.379690   0.899642   0.327795
   88  H   5  X  -0.017885  -0.002522  -0.001293   0.007439   0.005449
   89  H   5  Y   0.018106  -0.002594   0.000750   0.005804  -0.017568
   90  H   5  Z   0.006598   0.002918  -0.020927   0.011784   0.022342
   91  H   5  X   1.588961   0.867170   1.971713  -0.447362   1.006496
   92  H   5  Y  -0.302966   0.968736  -0.171484  -1.777248   1.531903
   93  H   5  Z  -0.270432   0.183223   1.846995  -0.878794   0.132602
   94  H   6  S   0.073436   0.073105  -0.013857   0.009722  -0.008982
   95  H   6  S   2.950814  10.680157  12.938621  -3.585760  13.574405
   96  H   6  S  -0.038273   0.227839   0.551534  -0.430523   0.039790
   97  H   6  X  -0.015183   0.001310  -0.005508  -0.003394  -0.007423
   98  H   6  Y  -0.033017  -0.017985  -0.010947   0.008239  -0.008970
   99  H   6  Z   0.015961   0.015859  -0.025834   0.006941  -0.010326
  100  H   6  X   0.467488   0.849852   2.263243   0.821903   1.236736
  101  H   6  Y   0.400486   4.518450   4.726153  -1.453248   5.110198
  102  H   6  Z   0.055172  -0.246290   1.051901  -1.213645  -0.305831
  103  H   7  S  -0.019470  -0.002358  -0.135508   0.096640   0.020851
  104  H   7  S  -6.488993  -2.402311   2.695137   1.684480   0.803477
  105  H   7  S  -0.245210   0.391100   3.158107  -3.584018  -2.434756
  106  H   7  X  -0.001333   0.030797   0.002758  -0.002796  -0.016207
  107  H   7  Y   0.000578   0.003757  -0.001972   0.017056   0.008813
  108  H   7  Z  -0.014196   0.009507  -0.006456   0.000029   0.007929
  109  H   7  X   2.136858   0.247861  -0.811173   0.008749   1.357902
  110  H   7  Y   2.243361   1.644856   0.016167  -1.367753  -0.908954
  111  H   7  Z   0.970348   0.186429   0.789485   0.623599  -1.505585
  112  H   8  S   0.055799  -0.105169  -0.051477   0.091268   0.088161
  113  H   8  S  -7.654756  -3.465673  -0.327318  -2.222334   1.027676
  114  H   8  S   0.510064  -0.794907   0.920460  -0.358758  -1.962737
  115  H   8  X  -0.016989  -0.013669   0.012945  -0.000333   0.000148
  116  H   8  Y  -0.005873   0.003558  -0.001545   0.007281  -0.002141
  117  H   8  Z  -0.009073   0.002642   0.011578  -0.000853   0.004238
  118  H   8  X  -2.847396  -0.576591  -1.035007   0.324547   1.218849
  119  H   8  Y  -0.755385  -3.079314   1.497536  -0.415865   1.811577
  120  H   8  Z  -0.343345  -1.315131  -1.756876  -0.480260  -0.850833
  121  H   9  S   0.064117  -0.064793  -0.015677  -0.118564  -0.154939
  122  H   9  S   5.789716   8.048502 -10.564625   1.774427  -0.021383
  123  H   9  S   0.615304  -0.360249  -0.931289   1.391401   2.218364
  124  H   9  X   0.008227   0.005112   0.014011   0.022314   0.006248
  125  H   9  Y   0.004449  -0.017959  -0.020851  -0.021479  -0.014767
  126  H   9  Z  -0.004655  -0.003433   0.015230   0.003015   0.023788
  127  H   9  X  -0.481911   1.310163  -0.926377  -1.591987  -0.743732
  128  H   9  Y  -0.735988  -0.794865   2.152588  -0.728251   0.533233
  129  H   9  Z   3.284549   2.416752  -2.433380  -0.602033  -1.229700
  130  H  10  S   0.063089  -0.247015  -0.059768  -0.155477  -0.104755
  131  H  10  S   0.411365  -2.251641   3.365918   0.198362  -1.593236
  132  H  10  S  -0.477767   0.785134  -1.479008   0.629982   0.711315
  133  H  10  X  -0.009325   0.029740   0.017398   0.016229  -0.004949
  134  H  10  Y   0.012010   0.005284   0.007267   0.010598   0.007035
  135  H  10  Z   0.010805  -0.011919   0.007972  -0.001758   0.016273
  136  H  10  X   0.140699   2.547779  -0.444017   1.146233  -0.884687
  137  H  10  Y  -0.049306  -2.419590   1.974056  -0.775841  -0.021918
  138  H  10  Z   1.052333  -0.860900  -0.234228  -0.099318  -1.292359
  139  F  11  S   0.002343   0.014956  -0.005326   0.010335  -0.003157
  140  F  11  S  -0.022225   0.030798   0.021781   0.010983  -0.014813
  141  F  11  S  -0.160143  -0.173455   0.256683  -0.187078   0.007322
  142  F  11  S  -0.253419  -1.325563  -2.970400  -0.213127   2.454160
  143  F  11  X   0.029088  -0.002104   0.031592   0.004685  -0.052210
  144  F  11  Y   0.013219   0.065593  -0.103711   0.041938  -0.015916
  145  F  11  Z  -0.067076   0.029510   0.023369   0.021868   0.027989
  146  F  11  X   0.063813   0.108836   0.126732   0.076753  -0.137870
  147  F  11  Y  -0.026440   0.196267  -0.168413   0.110684  -0.050806
  148  F  11  Z  -0.142997   0.077685   0.046781   0.053719   0.057115
  149  F  11  X   0.030469   0.685612   1.023725   0.309154  -0.539931
  150  F  11  Y   0.080928   0.635069  -0.658724   0.088912   0.337981
  151  F  11  Z  -0.122252  -0.018577  -0.185916   0.209970   0.450537
  152  F  11 XX  -0.002262  -0.000362   0.003878   0.000840  -0.001082
  153  F  11 YY   0.000930   0.001253  -0.001027   0.000473  -0.001420
  154  F  11 ZZ   0.001332  -0.000890  -0.002851  -0.001312   0.002502
  155  F  11 XY  -0.000295   0.011478  -0.011416   0.005171  -0.002566
  156  F  11 XZ  -0.008511   0.003405   0.004167   0.002361   0.002301
  157  F  11 YZ   0.001145   0.002407   0.000183  -0.001964   0.002462
  158  F  11 XX   0.011777  -0.041323  -0.039670  -0.035055   0.008754
  159  F  11 YY  -0.009955   0.021798   0.011835   0.007994  -0.026445
  160  F  11 ZZ  -0.001822   0.019525   0.027835   0.027061   0.017691
  161  F  11 XY   0.012987  -0.025524   0.005829  -0.026654   0.004763
  162  F  11 XZ   0.004262  -0.000730  -0.001165   0.004743  -0.018156
  163  F  11 YZ  -0.028755   0.002367   0.001604   0.008804  -0.022287

                     81         82         83         84         85
                    0.6832     0.6966     0.7185     0.7420     0.7494
                     A          A          A          A          A   
    1  C   1  S  -0.037005   0.026322  -0.025940   0.026180  -0.040798
    2  C   1  S   0.000110   0.031957  -0.051889   0.021575  -0.032367
    3  C   1  S   6.680401  -2.086832   2.787095  -3.073987   6.826084
    4  C   1  S  -2.460429  -0.698390   2.060750  -0.639179   0.949436
    5  C   1  X  -0.031955  -0.053676   0.161893   0.127175   0.032596
    6  C   1  Y   0.040639   0.030459  -0.086511   0.239830   0.076714
    7  C   1  Z  -0.027907  -0.017218  -0.027978   0.101690   0.140669
    8  C   1  X   0.041361  -0.070690   3.522268   0.315247   1.625273
    9  C   1  Y   4.026024   1.203216   2.133862  -1.149119   2.872015
   10  C   1  Z  -7.061339  -0.885597  -2.821270   2.963963  -6.148684
   11  C   1  X  -2.118656   0.958773  -0.018663  -0.916970   0.547818
   12  C   1  Y  -1.300122   0.004758   0.072001  -2.951832   0.050487
   13  C   1  Z  -0.804806   0.341256  -0.421861  -1.000468  -1.224671
   14  C   1 XX   0.019438   0.030008  -0.051221  -0.005656  -0.016702
   15  C   1 YY  -0.004454  -0.016245   0.002500   0.014425   0.039099
   16  C   1 ZZ  -0.014984  -0.013763   0.048721  -0.008769  -0.022397
   17  C   1 XY   0.003950  -0.006461  -0.018623   0.002366   0.009680
   18  C   1 XZ   0.012281   0.037034  -0.038828   0.002603   0.041933
   19  C   1 YZ   0.007759  -0.007351   0.015614  -0.012194  -0.032182
   20  C   1 XX   0.040652  -1.956983   0.004335   0.411728  -0.605139
   21  C   1 YY   0.317848   1.079635   0.904938   3.726014   0.522796
   22  C   1 ZZ  -0.358500   0.877348  -0.909273  -4.137741   0.082343
   23  C   1 XY   0.734285  -1.751808  -1.735144   0.065212   0.554699
   24  C   1 XZ  -2.834628   0.573067   1.991073  -2.943813  -0.379940
   25  C   1 YZ  -3.600876  -0.893290  -1.225612  -2.418653  -0.210934
   26  C   2  S  -0.034648  -0.052728  -0.021995   0.023504   0.024433
   27  C   2  S  -0.025580  -0.032680   0.025536  -0.028644  -0.044224
   28  C   2  S   5.266376   8.625860   3.663965  -2.564275  -0.145356
   29  C   2  S  -7.851396   3.298357 -11.057346   6.652302   6.830038
   30  C   2  X  -0.220604   0.070754  -0.008855  -0.071674  -0.330456
   31  C   2  Y  -0.073446  -0.053306  -0.090994  -0.240787  -0.148968
   32  C   2  Z  -0.276757   0.014842  -0.020200   0.068070  -0.012916
   33  C   2  X  -9.118797  -3.784235  -4.064065   4.816036   0.487220
   34  C   2  Y  -1.920861  -2.223569  -2.180536   0.664851   4.109510
   35  C   2  Z -13.888135  -8.475391  -6.810146   6.890548  -0.083116
   36  C   2  X   3.098175  -0.863894   1.218096   0.572316   1.309545
   37  C   2  Y   1.962288  -1.117203   2.574739   1.849888   3.367247
   38  C   2  Z   4.144721  -1.394568   0.301072   0.600789  -2.254819
   39  C   2 XX   0.009071  -0.011582  -0.006536  -0.001788  -0.033634
   40  C   2 YY  -0.031942  -0.011105  -0.007057  -0.011439   0.011771
   41  C   2 ZZ   0.022871   0.022687   0.013593   0.013227   0.021863
   42  C   2 XY   0.002751   0.019477   0.001155  -0.021737   0.001589
   43  C   2 XZ   0.045096  -0.000013  -0.018376  -0.024033  -0.005769
   44  C   2 YZ  -0.000535  -0.013434  -0.007385   0.003104   0.031130
   45  C   2 XX   1.401341   0.531871   3.013478  -0.973669   3.399379
   46  C   2 YY   0.071214  -0.981250  -0.324621   5.173802   1.531668
   47  C   2 ZZ  -1.472556   0.449379  -2.688857  -4.200133  -4.931047
   48  C   2 XY   2.770688   1.825481   0.579068   1.065328   3.865924
   49  C   2 XZ   1.964069   1.345812   3.950265  -4.571384  -1.456151
   50  C   2 YZ   5.390339   0.565212   1.136991  -3.822174   3.602352
   51  C   3  S   0.109654   0.053335   0.023572  -0.044138   0.010244
   52  C   3  S   0.041048   0.037531  -0.031777  -0.043492  -0.010706
   53  C   3  S -12.409534  -0.916811  -9.055112   9.764076   1.325179
   54  C   3  S  10.101617  -1.115017   8.379449  -2.317094  -3.510297
   55  C   3  X   0.014474  -0.031370  -0.002312  -0.061495   0.143109
   56  C   3  Y  -0.059350   0.006562   0.061289  -0.130953   0.206159
   57  C   3  Z   0.099935   0.025516  -0.142605   0.007626  -0.059557
   58  C   3  X  -7.882243  -6.465386  -1.254107   8.573490  -0.596025
   59  C   3  Y   1.251043  -2.008480  -1.340291   4.581765   0.962887
   60  C   3  Z -11.594189  -5.870890  -6.802460   5.143204   0.857934
   61  C   3  X   0.597434   0.191920   0.573051   1.093155  -2.636108
   62  C   3  Y   1.141713  -0.101869  -0.889505   0.614117  -3.308749
   63  C   3  Z  -0.241746  -0.301573   1.991937  -0.810283   1.115754
   64  C   3 XX  -0.006648   0.030084  -0.009870  -0.007562   0.000337
   65  C   3 YY  -0.003461  -0.013420   0.007856  -0.006604  -0.020883
   66  C   3 ZZ   0.010109  -0.016665   0.002014   0.014166   0.020545
   67  C   3 XY  -0.009575  -0.012653   0.007912  -0.003368   0.004374
   68  C   3 XZ  -0.008949  -0.014375   0.007260   0.022147   0.008035
   69  C   3 YZ   0.001947   0.003424   0.010696  -0.023545   0.002131
   70  C   3 XX  -0.180410  -1.950508   1.226861  -0.456974   1.952173
   71  C   3 YY   0.982550   2.484841   1.117082   0.653074   1.729222
   72  C   3 ZZ  -0.802140  -0.534333  -2.343943  -0.196100  -3.681396
   73  C   3 XY   0.757082   0.107392   0.866037   0.622385   2.988908
   74  C   3 XZ  -2.687382  -3.975825  -1.265509   1.430686   1.532975
   75  C   3 YZ  -0.637995  -1.216190  -0.542869   1.073982   2.252547
   76  H   4  S  -0.069153  -0.081126   0.106379  -0.027259  -0.130687
   77  H   4  S   4.680668  -0.142581  11.141233   0.793153   4.603536
   78  H   4  S  -0.189019   0.485683   0.275258   1.385872   1.532688
   79  H   4  X   0.006161   0.008520  -0.022784   0.007782   0.025729
   80  H   4  Y  -0.009004  -0.001697   0.018530   0.001862  -0.010074
   81  H   4  Z  -0.008080  -0.011810   0.062094  -0.015855  -0.045413
   82  H   4  X   1.841892  -0.981518   2.586032   1.518413   0.702641
   83  H   4  Y   0.584456  -0.018607  -1.809697   0.079400  -1.042013
   84  H   4  Z  -0.931114  -0.359407  -2.747415   1.127165  -0.800890
   85  H   5  S  -0.041327   0.038587  -0.096984  -0.009491  -0.034991
   86  H   5  S   4.022387   4.960940 -10.801020   3.899257   0.470410
   87  H   5  S   1.397053  -0.496978   0.182394   0.792118  -0.328867
   88  H   5  X   0.018448   0.018290  -0.044093  -0.019011  -0.020015
   89  H   5  Y   0.013318  -0.013678   0.001526  -0.005243   0.014035
   90  H   5  Z   0.019372   0.034265  -0.013971   0.000510   0.016719
   91  H   5  X  -1.165918  -1.660166   4.516111  -1.577265  -0.302983
   92  H   5  Y  -0.258140   1.247224  -0.125027   1.380722  -0.795541
   93  H   5  Z   1.405573  -1.749828   0.796769   1.216269   0.504789
   94  H   6  S   0.014126  -0.024938   0.014593   0.082680   0.080198
   95  H   6  S   1.327404   2.051574   4.356953  -7.092310  -1.677768
   96  H   6  S  -0.859230   0.100943  -0.107398  -2.513248   0.685849
   97  H   6  X  -0.006685   0.010342   0.010887  -0.015127  -0.002425
   98  H   6  Y   0.003984   0.000776  -0.002804  -0.044819  -0.030462
   99  H   6  Z   0.002384   0.005065  -0.004969   0.000552   0.016831
  100  H   6  X   0.401964  -2.303771   0.469239  -1.312690  -0.300917
  101  H   6  Y   0.285191   1.440204   1.440365  -0.831579  -0.655665
  102  H   6  Z  -2.392482  -0.825747  -0.326260  -2.406494   0.755771
  103  H   7  S   0.080401   0.006235   0.000001   0.144821   0.164100
  104  H   7  S   1.829952   1.495989   2.985342 -13.106021 -15.316284
  105  H   7  S  -1.316041   0.715687  -1.156135  -1.566297  -2.688448
  106  H   7  X  -0.005746   0.024627   0.002583  -0.002435   0.007907
  107  H   7  Y   0.003780  -0.003323  -0.008210   0.019601   0.038549
  108  H   7  Z   0.007164  -0.014550  -0.005688  -0.010665   0.000558
  109  H   7  X  -1.050226  -1.330898  -0.728043   1.460361  -0.400507
  110  H   7  Y  -0.744112  -0.074727  -0.660969   2.582579   4.266734
  111  H   7  Z  -2.369687   0.256019  -0.376928   2.688893  -0.358470
  112  H   8  S   0.048505  -0.021379   0.133204   0.034566   0.017287
  113  H   8  S  -3.344341 -10.695372  -1.778561   9.163312 -11.206023
  114  H   8  S   0.522272   0.251994  -0.695856   1.972827  -3.036632
  115  H   8  X   0.005071   0.023639   0.006382   0.011142  -0.004824
  116  H   8  Y   0.014509   0.020154  -0.005868  -0.020360  -0.003749
  117  H   8  Z   0.004992   0.010174  -0.004117  -0.005462  -0.001299
  118  H   8  X   0.171568  -4.346628   0.775886   1.203268  -1.813102
  119  H   8  Y  -0.354303  -0.377132   0.858063   2.475072  -1.226756
  120  H   8  Z   0.193607  -2.465344  -0.261083  -0.169408   2.671651
  121  H   9  S   0.160510  -0.036338   0.006099   0.092659  -0.075171
  122  H   9  S  -7.823021  -6.469223  -1.925144  -0.447955  10.885081
  123  H   9  S  -0.615203  -0.385324   0.859134  -0.851642   2.580436
  124  H   9  X  -0.009611   0.016119  -0.014608  -0.020255   0.003814
  125  H   9  Y  -0.011406  -0.011156  -0.001813   0.034992  -0.014580
  126  H   9  Z  -0.049550   0.007097   0.016846  -0.013915  -0.010982
  127  H   9  X  -0.300465  -1.851099  -0.160862  -0.384744   0.356477
  128  H   9  Y   1.577341   0.587424  -0.146683  -0.350217  -2.478472
  129  H   9  Z  -1.136530  -2.138744  -0.947509  -0.501973   2.098988
  130  H  10  S   0.069472  -0.066716   0.314157  -0.007503  -0.232284
  131  H  10  S  -1.374353   1.177914  -1.413080   1.780799   2.238781
  132  H  10  S   0.363833  -0.700082   0.398333  -0.212173  -0.642483
  133  H  10  X  -0.012201   0.006206  -0.039584  -0.003962   0.041849
  134  H  10  Y  -0.002084   0.010313  -0.011898   0.002927   0.011762
  135  H  10  Z  -0.024920  -0.009092  -0.015738   0.020850   0.013851
  136  H  10  X  -1.356827  -1.168133   1.257178   1.574780  -2.439427
  137  H  10  Y   0.495254   0.858948   0.161373   0.371113   0.631819
  138  H  10  Z   0.540837   1.260819   0.434733  -0.481113   0.638754
  139  F  11  S  -0.004510  -0.000554   0.011708   0.006768  -0.014073
  140  F  11  S  -0.014409   0.038538  -0.035628  -0.013419   0.023270
  141  F  11  S   0.020998   0.253642  -0.536263  -0.254924   0.542024
  142  F  11  S   2.850737  -0.015977   1.333485  -2.674971  -0.035120
  143  F  11  X  -0.036329  -0.043602   0.016924   0.063615  -0.022882
  144  F  11  Y  -0.011195  -0.033452   0.033328  -0.000413  -0.068135
  145  F  11  Z   0.004727  -0.008261   0.055685  -0.007424  -0.057574
  146  F  11  X  -0.171084  -0.070633   0.010456   0.207833  -0.070425
  147  F  11  Y  -0.046796  -0.064828   0.032343  -0.008154  -0.048170
  148  F  11  Z  -0.033153  -0.045554  -0.037792   0.008771  -0.030730
  149  F  11  X  -0.994349  -0.155274  -0.593576   0.814573   0.053253
  150  F  11  Y  -0.015017  -0.138905   0.158697  -0.281769  -0.476216
  151  F  11  Z   0.264948  -0.488384   0.435027  -0.079074  -0.612668
  152  F  11 XX   0.001047   0.000254  -0.003748  -0.001709   0.004491
  153  F  11 YY   0.000811   0.000940   0.001102  -0.000721  -0.001781
  154  F  11 ZZ  -0.001858  -0.001194   0.002646   0.002430  -0.002710
  155  F  11 XY  -0.003291  -0.003262   0.003316   0.000561  -0.005545
  156  F  11 XZ  -0.001613  -0.003833   0.001731   0.001788  -0.004796
  157  F  11 YZ  -0.001468  -0.000964  -0.004245  -0.000101   0.001825
  158  F  11 XX   0.035994  -0.016700   0.093204  -0.026949  -0.073787
  159  F  11 YY  -0.023686   0.011121  -0.022935   0.005645   0.027884
  160  F  11 ZZ  -0.012308   0.005580  -0.070269   0.021304   0.045902
  161  F  11 XY  -0.001270   0.009994   0.007237  -0.001409  -0.008038
  162  F  11 XZ  -0.008015   0.014471   0.022082   0.000272  -0.017448
  163  F  11 YZ  -0.021766  -0.027207   0.019674   0.009407   0.031992

                     86         87         88         89         90
                    0.7845     0.8537     0.8903     0.9075     0.9259
                     A          A          A          A          A   
    1  C   1  S  -0.020137  -0.020009  -0.022217   0.050932   0.047051
    2  C   1  S  -0.000098  -0.130793   0.031988   0.174247   0.087547
    3  C   1  S   3.918160   0.260208   1.659895  -0.227131  -4.011791
    4  C   1  S  -3.256990  10.581150  -9.106787  -9.707886   2.687135
    5  C   1  X  -0.047764   0.321901   0.557602   0.116546   0.353525
    6  C   1  Y  -0.153253   0.072333  -0.227235  -0.327299   0.480159
    7  C   1  Z  -0.004351  -0.332329   0.268901   0.006861   0.263293
    8  C   1  X   0.738150  -2.220290  -6.108864  -0.409705  -2.841939
    9  C   1  Y   2.789783   2.816683   2.490162   5.743453  -7.634109
   10  C   1  Z  -4.316048   2.628214  -5.012503  -1.919519   0.525680
   11  C   1  X   0.904476  -1.199058  -2.016518  -0.321206  -0.827145
   12  C   1  Y   0.544780   1.692539  -0.461942   0.073059  -1.442898
   13  C   1  Z   0.794378  -1.119674   1.202999   2.111534  -1.156499
   14  C   1 XX   0.031912  -0.048360  -0.106924  -0.041742  -0.144099
   15  C   1 YY   0.001784   0.032881   0.019146  -0.100631   0.236955
   16  C   1 ZZ  -0.033696   0.015480   0.087778   0.142374  -0.092856
   17  C   1 XY  -0.006904   0.012908   0.022080  -0.116973   0.121937
   18  C   1 XZ   0.063989  -0.086184  -0.089601  -0.041828   0.009248
   19  C   1 YZ  -0.029438   0.089166  -0.009506  -0.040878  -0.035705
   20  C   1 XX  -0.900315   0.250982   0.055962  -0.102166   1.780993
   21  C   1 YY  -1.566200  -1.670769  -0.944227   2.059191  -2.806638
   22  C   1 ZZ   2.466515   1.419787   0.888266  -1.957025   1.025645
   23  C   1 XY   0.600060   0.679358   0.341384   0.409211  -1.774550
   24  C   1 XZ  -1.208145  -0.555383  -0.962988   0.186265   2.023450
   25  C   1 YZ  -0.298089  -0.292644  -0.744180  -2.313714   1.320574
   26  C   2  S  -0.019985  -0.008929   0.038771  -0.038955  -0.034523
   27  C   2  S  -0.025656   0.006472   0.083805  -0.112148  -0.027693
   28  C   2  S   2.949746   1.501654  -2.086306  -0.879774   2.451777
   29  C   2  S   2.437124  -7.149790   5.014722  14.622138 -10.992242
   30  C   2  X  -0.228391  -0.047847   0.268208  -0.284059  -0.350503
   31  C   2  Y   0.117962  -0.165956  -0.119201   0.384610   0.179328
   32  C   2  Z   0.012856   0.121416  -0.280661   0.430803   0.115110
   33  C   2  X  -2.565698   0.702831  -0.604833   2.411846   0.292648
   34  C   2  Y  -0.366597   0.478748   3.717828   0.215077  -4.435211
   35  C   2  Z  -5.776968   0.079395  -3.135260  -6.131327  -1.871969
   36  C   2  X   0.538096  -0.084713   0.692485  -1.230220   0.839089
   37  C   2  Y  -1.039065   1.883988  -0.496627  -3.437349   1.039971
   38  C   2  Z   0.244926  -2.823737   2.280441  -0.187559   1.129466
   39  C   2 XX   0.014067  -0.018162   0.049349   0.003995  -0.049604
   40  C   2 YY  -0.025481   0.022362   0.038253  -0.018441  -0.013671
   41  C   2 ZZ   0.011415  -0.004201  -0.087603   0.014446   0.063275
   42  C   2 XY  -0.017755   0.013731  -0.018210  -0.045202  -0.002794
   43  C   2 XZ  -0.012512   0.059425  -0.046377  -0.017168   0.002862
   44  C   2 YZ   0.008720  -0.056013   0.010015   0.060835   0.037019
   45  C   2 XX   0.733372  -0.131821  -0.506458  -0.624880  -2.118922
   46  C   2 YY  -1.576979  -0.136244  -0.857771   2.964977  -3.128757
   47  C   2 ZZ   0.843607   0.268064   1.364228  -2.340097   5.247679
   48  C   2 XY   3.827613   0.614458   0.764357  -0.344147  -2.456711
   49  C   2 XZ  -0.318031  -2.106560  -0.051363  -1.247965   3.505976
   50  C   2 YZ   4.870043   1.992409   2.298571   0.400219  -0.795553
   51  C   3  S   0.019931  -0.056576  -0.033450  -0.033237   0.019071
   52  C   3  S   0.020556  -0.142754  -0.056477  -0.034950   0.010240
   53  C   3  S  -7.044964   1.024013  -0.804695   2.814103  -3.510640
   54  C   3  S   1.018529  -1.090057   0.811140  -7.230905   6.117888
   55  C   3  X   0.016595  -0.097283  -0.203896   0.029420   0.104978
   56  C   3  Y   0.017317   0.031718   0.074917  -0.055441  -0.021961
   57  C   3  Z  -0.014001   0.176303  -0.402061  -0.026828   0.041014
   58  C   3  X  -1.032907   0.626520  -1.739458  -0.845309  -5.540612
   59  C   3  Y   1.761458  -0.614798  -1.633629   0.413992  -2.322870
   60  C   3  Z  -5.862983   1.337888   3.076345   2.010081  -2.256595
   61  C   3  X   0.099114  -0.758818   0.138698  -0.832311   0.706987
   62  C   3  Y  -0.289255  -0.578192  -0.530086   0.477937   0.634798
   63  C   3  Z   0.465887  -0.139484   1.009234  -1.076036   0.592468
   64  C   3 XX   0.015640  -0.019364   0.053673   0.016287   0.013089
   65  C   3 YY  -0.012844   0.004123  -0.033162   0.022922  -0.008597
   66  C   3 ZZ  -0.002796   0.015241  -0.020511  -0.039209  -0.004492
   67  C   3 XY   0.023872   0.006188  -0.013923  -0.038525   0.015394
   68  C   3 XZ   0.024867  -0.020526   0.070359  -0.081413   0.013536
   69  C   3 YZ  -0.020812  -0.081663   0.048224   0.009193  -0.028359
   70  C   3 XX  -1.832318   0.338072  -1.201834   0.057979  -1.013398
   71  C   3 YY   3.573902   0.987214   0.975268  -0.742366  -0.480167
   72  C   3 ZZ  -1.741584  -1.325286   0.226566   0.684387   1.493566
   73  C   3 XY   0.146283   0.320350   0.116224   0.088932  -2.023326
   74  C   3 XZ  -0.900011  -0.218085  -0.650297  -0.651528  -1.907046
   75  C   3 YZ   1.639867   1.407400  -0.451249   0.253132  -1.607241
   76  H   4  S  -0.115636   0.321051  -0.119692  -0.114018  -0.174478
   77  H   4  S  -1.588213 -10.427885  -4.541789   3.855104   3.786564
   78  H   4  S   0.360443  -0.948072  -1.252726  -1.122426   0.781138
   79  H   4  X   0.008231  -0.078371   0.001883  -0.015038   0.078283
   80  H   4  Y  -0.015482   0.084836   0.004696  -0.031481  -0.039165
   81  H   4  Z  -0.022939   0.126317   0.038585   0.071887  -0.072291
   82  H   4  X  -0.908951  -1.237769  -0.093217   0.914527   1.288180
   83  H   4  Y   0.731200   2.162996   0.944204  -0.839362   0.305573
   84  H   4  Z  -0.194019   1.716023   2.090220  -0.104891  -1.149707
   85  H   5  S   0.034438   0.153576  -0.274714  -0.222055  -0.184026
   86  H   5  S   3.577765   3.150119  12.284406   2.195371  -3.451328
   87  H   5  S  -1.337756   0.976928   1.857526   0.492568   0.850132
   88  H   5  X   0.015681  -0.011123  -0.199206  -0.089762  -0.160974
   89  H   5  Y  -0.009174   0.014654   0.004694  -0.035362   0.036611
   90  H   5  Z   0.036986  -0.043971  -0.081369  -0.009667  -0.042690
   91  H   5  X  -1.109036  -1.378315  -3.298516  -0.181470   1.521723
   92  H   5  Y  -0.229018   0.425154   0.053185  -0.233234   1.150406
   93  H   5  Z  -0.395189  -1.181534  -0.588978   0.016868  -0.262045
   94  H   6  S  -0.083638   0.323600  -0.229924  -0.458639   0.140002
   95  H   6  S   4.089610   6.030072   0.790959   3.462915  -2.813478
   96  H   6  S   0.970159   0.371549  -0.168833   0.728983  -1.930039
   97  H   6  X  -0.003886  -0.022642   0.031273   0.074413  -0.069782
   98  H   6  Y   0.033868  -0.100986   0.015627   0.162934  -0.207532
   99  H   6  Z   0.002616  -0.044520   0.028372   0.007103   0.000053
  100  H   6  X   0.381989   1.556608   0.404121   0.575893   0.365916
  101  H   6  Y   0.669929   2.514025  -0.691819   0.774100  -1.279418
  102  H   6  Z   0.212477  -0.736942   0.093511  -1.325129   0.854604
  103  H   7  S  -0.065504   0.102696  -0.061395  -0.008791   0.054943
  104  H   7  S  -2.177340  -2.632435  -3.106552  -6.836045  16.565941
  105  H   7  S   0.134915  -0.553709  -0.267216   1.628668   0.096742
  106  H   7  X  -0.010919   0.010124   0.015451  -0.069056  -0.032969
  107  H   7  Y  -0.026548   0.046261  -0.017964  -0.053171   0.030155
  108  H   7  Z   0.006280  -0.007096  -0.003548   0.024097  -0.019746
  109  H   7  X  -1.505131   0.250475   0.327386   1.096341  -1.350661
  110  H   7  Y   1.419310   1.107343   1.052361   1.941245  -4.963036
  111  H   7  Z  -1.549344   0.098475  -0.752991   0.904013  -0.420057
  112  H   8  S   0.054325   0.181858  -0.115424  -0.025087   0.012000
  113  H   8  S   3.386954  -3.457141  -5.167459  -2.705385  -0.459252
  114  H   8  S  -0.290724  -0.752935  -0.798844   0.036067   0.476535
  115  H   8  X  -0.004787  -0.015627   0.035648  -0.009840  -0.033838
  116  H   8  Y  -0.026403  -0.015907   0.020174   0.020600  -0.001385
  117  H   8  Z  -0.002058   0.001151  -0.032101   0.005025  -0.009939
  118  H   8  X   0.361339  -0.830837  -2.240214  -0.824718   0.186315
  119  H   8  Y   2.378116  -0.305085  -0.454601  -1.272438  -0.862588
  120  H   8  Z   0.706781   0.407714  -1.256022  -1.058313  -1.264118
  121  H   9  S   0.023710   0.192667  -0.148589  -0.085067  -0.070825
  122  H   9  S  -2.628587   6.408303   3.613450   2.482960  -5.668804
  123  H   9  S   0.535427  -0.273273   1.425003  -0.369458  -0.322344
  124  H   9  X  -0.040157  -0.009312  -0.019652   0.011487   0.008894
  125  H   9  Y   0.012480   0.086274  -0.052297  -0.005740   0.012998
  126  H   9  Z  -0.002048  -0.051160   0.095049   0.008598  -0.004515
  127  H   9  X   0.138672   0.395306  -0.310809   0.130073   0.069747
  128  H   9  Y  -0.108395  -1.730955  -1.031124  -0.252754   0.921211
  129  H   9  Z  -1.572533   1.555813   0.591945   0.749419  -1.465694
  130  H  10  S  -0.017102   0.631289   0.004557   0.164652  -0.077306
  131  H  10  S   0.592248  -7.048125  -0.176671  -4.257787  -0.132130
  132  H  10  S  -0.034553   0.032695   0.306943  -0.160380   0.301669
  133  H  10  X  -0.017266  -0.059535   0.003055  -0.042144   0.000242
  134  H  10  Y   0.007625   0.006640  -0.022952   0.073316   0.022245
  135  H  10  Z   0.004840  -0.004288  -0.030088   0.086370   0.045883
  136  H  10  X   5.500556  -0.178461  -0.829335  -0.937993   0.618328
  137  H  10  Y  -0.578131  -1.852872   0.092802  -1.296932  -0.217770
  138  H  10  Z  -0.934644  -0.992387   0.266983  -1.237940   0.017642
  139  F  11  S   0.027589  -0.030503   0.007882  -0.027317   0.000921
  140  F  11  S  -0.030046  -0.033963   0.027756  -0.029488  -0.005344
  141  F  11  S  -0.922507   0.445004   0.029652   0.438474  -0.103352
  142  F  11  S  -5.041531   2.705503   1.151756   1.574261   0.217113
  143  F  11  X   0.138138  -0.000407  -0.047311  -0.020300   0.012436
  144  F  11  Y   0.012647   0.017712   0.028661  -0.047954   0.019023
  145  F  11  Z   0.040764  -0.026427   0.044285  -0.098207  -0.022912
  146  F  11  X   0.497368  -0.347361  -0.044471  -0.254038   0.008718
  147  F  11  Y   0.041161   0.096075  -0.038029   0.088800   0.031746
  148  F  11  Z   0.074604   0.053361  -0.037588   0.070860   0.067700
  149  F  11  X   1.607429  -0.983446  -0.422569  -0.626643   0.052583
  150  F  11  Y   0.000035   0.235114   0.007844   0.095824   0.181400
  151  F  11  Z  -0.152737   0.060721   0.148127   0.201314   0.103112
  152  F  11 XX  -0.001454  -0.003607  -0.000208  -0.003736   0.001396
  153  F  11 YY   0.003725  -0.000479   0.001166  -0.000387   0.001961
  154  F  11 ZZ  -0.002271   0.004086  -0.000958   0.004123  -0.003357
  155  F  11 XY   0.001172   0.003375   0.000236   0.000912   0.000633
  156  F  11 XZ   0.004761  -0.001823  -0.000116  -0.002065   0.001628
  157  F  11 YZ   0.000574   0.002829   0.001106  -0.000862  -0.002603
  158  F  11 XX  -0.064391   0.183758   0.028914   0.073090  -0.044018
  159  F  11 YY   0.033305  -0.046117   0.014543  -0.046783  -0.029369
  160  F  11 ZZ   0.031085  -0.137641  -0.043457  -0.026307   0.073387
  161  F  11 XY  -0.014218  -0.022191   0.013342  -0.042279  -0.019114
  162  F  11 XZ  -0.020140  -0.025975   0.065535  -0.097057  -0.088161
  163  F  11 YZ   0.028651   0.072103  -0.083169   0.199689   0.048147

                     91         92         93         94         95
                    0.9502     0.9722     0.9912     1.0616     1.0663
                     A          A          A          A          A   
    1  C   1  S  -0.166422   0.041032  -0.020315   0.143621   0.078110
    2  C   1  S  -0.423618   0.081272  -0.036331   0.271444   0.131585
    3  C   1  S   2.820707  -1.015935   1.670416  -6.950512  -0.687454
    4  C   1  S   7.535810  -5.479946   4.994453   1.009920   6.081444
    5  C   1  X   0.051941  -0.221131   0.297018   0.058814   0.110232
    6  C   1  Y   0.109171   0.268363   0.009307  -0.049527   0.165144
    7  C   1  Z  -0.139034   0.333492  -0.182300  -0.555025  -0.293113
    8  C   1  X  -1.161756   2.269969  -2.658823  -0.636117   1.178095
    9  C   1  Y  -2.628126  -1.188789   1.254512  -5.352546  -3.119763
   10  C   1  Z   1.545245  -1.168932  -0.352282  15.075261   9.289097
   11  C   1  X  -0.056845   0.463327  -1.034671  -0.211292  -0.662503
   12  C   1  Y   0.975197  -1.855260   0.573942  -0.394265   0.312829
   13  C   1  Z  -1.001578   0.313516  -0.778162   1.644792   0.116532
   14  C   1 XX   0.140131   0.077757   0.006757  -0.004500   0.071871
   15  C   1 YY  -0.042005  -0.031980  -0.018649  -0.011428  -0.003902
   16  C   1 ZZ  -0.098125  -0.045777   0.011892   0.015928  -0.067969
   17  C   1 XY  -0.054845   0.022069  -0.005776  -0.008683   0.024680
   18  C   1 XZ  -0.010878   0.119532  -0.038287   0.032003   0.116257
   19  C   1 YZ   0.190069  -0.050102  -0.004836  -0.024075   0.007900
   20  C   1 XX  -0.007252  -0.512791  -0.616344   1.955896   0.523066
   21  C   1 YY   1.282055   0.946448   1.018074   0.163591   0.696921
   22  C   1 ZZ  -1.274802  -0.433656  -0.401730  -2.119487  -1.219987
   23  C   1 XY  -0.110343   0.602786   0.668073  -0.179992   1.040014
   24  C   1 XZ  -0.263469  -2.223257  -0.595749   0.424945  -2.235657
   25  C   1 YZ  -0.829161  -0.006357  -0.975255   3.049052   1.331396
   26  C   2  S   0.003388   0.021518  -0.036407  -0.004537  -0.029214
   27  C   2  S   0.036208   0.080075  -0.094744  -0.012755  -0.067535
   28  C   2  S  -2.017875  -0.231449   4.047052   4.318147  -3.964863
   29  C   2  S   7.675326  -0.848922  -6.592556   1.193413  -6.294591
   30  C   2  X  -0.194698   0.110532   0.398514  -0.284223   0.189720
   31  C   2  Y   0.333893   0.275345   0.086346  -0.084005   0.324747
   32  C   2  Z  -0.122376  -0.014359   0.186442  -0.460420  -0.204891
   33  C   2  X   3.323010  -2.325742  -5.915177   8.147100   0.814473
   34  C   2  Y  -2.060494  -2.364776  -1.767297  -2.557817  -9.478071
   35  C   2  Z   2.675785  -0.242189  -7.982272  15.989415  13.469029
   36  C   2  X  -2.181949   0.982952   0.346013  -0.303046   1.243269
   37  C   2  Y  -1.787864  -0.942235   1.731768  -0.578178   1.991468
   38  C   2  Z  -3.148910   1.999253  -1.862267   1.132044  -0.956521
   39  C   2 XX  -0.018311   0.075749  -0.008517  -0.089766  -0.071624
   40  C   2 YY   0.028738  -0.104406  -0.108948   0.014228  -0.095969
   41  C   2 ZZ  -0.010427   0.028656   0.117465   0.075538   0.167594
   42  C   2 XY  -0.076989   0.001571   0.026291  -0.000981   0.012560
   43  C   2 XZ  -0.135644   0.027634   0.142480  -0.027859  -0.097102
   44  C   2 YZ  -0.033527  -0.097596   0.048615  -0.186353  -0.088555
   45  C   2 XX  -0.997011   0.577619   0.314988  -2.654197   0.471284
   46  C   2 YY   1.060593   0.532679  -0.110398   0.819834   2.673344
   47  C   2 ZZ  -0.063582  -1.110297  -0.204590   1.834363  -3.144628
   48  C   2 XY  -0.001227   1.350968   0.066680  -3.214792   3.160286
   49  C   2 XZ  -0.166622  -1.663096   0.170245  -1.702787  -2.522983
   50  C   2 YZ   0.170434  -0.324802  -0.425305  -5.019889  -0.098755
   51  C   3  S  -0.010894  -0.026844   0.032356   0.070027  -0.026273
   52  C   3  S  -0.024923  -0.069490   0.017197   0.145838  -0.024855
   53  C   3  S  -0.264358  -0.019937   1.209991   8.785780   5.062022
   54  C   3  S -12.476565   5.062477   4.513062  -0.769322  -0.319932
   55  C   3  X  -0.102819   0.000332   0.652769  -0.106755   0.261128
   56  C   3  Y   0.149781   0.452618   0.354270   0.375719  -0.619245
   57  C   3  Z  -0.470753  -0.142405   0.081068   0.003496  -0.243505
   58  C   3  X   1.544370   1.310474  -9.466346   6.172040   4.118927
   59  C   3  Y   0.022814  -3.202585  -4.787705  -2.021256  10.736938
   60  C   3  Z   6.084526   0.584018  -5.478931   9.199558   2.530814
   61  C   3  X  -1.815696   0.570323  -2.065763   1.244362  -1.281082
   62  C   3  Y  -0.732780  -0.887966  -1.926242   0.017821   0.346651
   63  C   3  Z  -1.371534   1.884705   0.547692   0.457126   0.818408
   64  C   3 XX   0.059549  -0.027352   0.092422   0.034730   0.049241
   65  C   3 YY  -0.050610   0.059709   0.071256  -0.027735  -0.020672
   66  C   3 ZZ  -0.008940  -0.032356  -0.163678  -0.006995  -0.028569
   67  C   3 XY   0.001626   0.107111   0.043972   0.197122  -0.030055
   68  C   3 XZ   0.048543  -0.058462  -0.139693   0.097602   0.011049
   69  C   3 YZ   0.120640   0.020718  -0.063275   0.101912  -0.105540
   70  C   3 XX  -0.670232   0.772440  -0.726990  -0.860101   1.923722
   71  C   3 YY  -0.049282   0.232735   0.259006  -1.133329   0.207693
   72  C   3 ZZ   0.719514  -1.005175   0.467984   1.993430  -2.131415
   73  C   3 XY   0.267997  -0.354903  -0.537478  -1.774353   3.269953
   74  C   3 XZ  -0.799559  -0.108090  -0.139406  -0.226914   2.400679
   75  C   3 YZ  -0.053250   0.543505  -0.980042  -0.991089   3.423852
   76  H   4  S   0.580958  -0.192135   0.063898  -0.491751  -0.417548
   77  H   4  S  -1.689077   2.041706  -1.402786 -10.246733  -6.404070
   78  H   4  S  -0.449848   1.296293  -0.156046  -1.333228  -0.610264
   79  H   4  X  -0.103251   0.091170  -0.060046  -0.007238   0.023052
   80  H   4  Y   0.100400  -0.098566   0.034983   0.015895  -0.029933
   81  H   4  Z   0.087561  -0.123103   0.074018   0.026480  -0.003101
   82  H   4  X   0.461634   0.076831  -0.043145  -1.405517  -1.007266
   83  H   4  Y  -0.297400   0.208149   0.310067   0.866992   1.250544
   84  H   4  Z   0.373600  -0.338971   0.238210   2.332343   0.729938
   85  H   5  S   0.568858  -0.019433   0.123332  -0.286670  -0.018102
   86  H   5  S  -1.550822   2.263473   6.020334  -5.776345  -1.043307
   87  H   5  S  -0.071208  -0.512958   0.744363  -0.200185  -0.090474
   88  H   5  X   0.146813   0.048981  -0.033276  -0.061791  -0.023373
   89  H   5  Y  -0.005276  -0.001573  -0.007761  -0.010489   0.011508
   90  H   5  Z  -0.018414   0.023439   0.006330   0.032718   0.068053
   91  H   5  X  -0.212422  -0.876180  -1.573585   1.669024   0.308082
   92  H   5  Y   0.203349   0.292455  -0.059967   0.087613  -0.339613
   93  H   5  Z   0.405918   1.161057  -1.058178  -0.060534   0.340566
   94  H   6  S   0.279889  -0.192597   0.043155  -0.270555  -0.160817
   95  H   6  S  -7.827729  -2.052881  -3.352727  -0.952828  -4.135966
   96  H   6  S  -0.042905  -1.430620   0.215296  -0.753220  -0.001082
   97  H   6  X  -0.051070  -0.005349  -0.014678   0.027605  -0.001664
   98  H   6  Y  -0.078501  -0.004407  -0.013705   0.088135  -0.016447
   99  H   6  Z  -0.060499  -0.016527   0.006337   0.084448  -0.017615
  100  H   6  X  -0.947065  -0.686514  -0.225210   0.257869  -0.252500
  101  H   6  Y  -1.712737  -0.141787  -0.855415   0.164295  -1.152983
  102  H   6  Z  -0.662564  -0.122936  -0.925026  -0.316827  -0.824069
  103  H   7  S  -0.006329  -0.063449   0.069342  -0.010298  -0.030316
  104  H   7  S  -1.172961   1.880207   5.195785   2.110956   2.715020
  105  H   7  S   1.303989   0.696379  -0.022649   0.419352  -0.800353
  106  H   7  X  -0.040494   0.010388   0.019007   0.022045   0.010181
  107  H   7  Y  -0.074129  -0.128554  -0.042280   0.072730  -0.159119
  108  H   7  Z   0.028639  -0.045695   0.002043   0.010958  -0.065091
  109  H   7  X  -0.162795  -0.778248  -0.186157   0.584284  -1.519571
  110  H   7  Y   0.414290  -0.338609  -1.657168  -1.002910  -1.012195
  111  H   7  Z  -0.752492   0.704137   0.617704   0.426004  -0.538612
  112  H   8  S  -0.115249  -0.013121  -0.139895   0.087110   0.110529
  113  H   8  S   0.753493  -3.391070 -12.821111   5.491853   4.687100
  114  H   8  S  -1.111972  -0.640603  -3.543357   1.169026  -0.282794
  115  H   8  X  -0.028037  -0.085617  -0.144076  -0.077543   0.038100
  116  H   8  Y   0.015143  -0.069120  -0.132091  -0.073537   0.019266
  117  H   8  Z   0.000892   0.047112   0.035110   0.050659  -0.005233
  118  H   8  X  -0.346513  -0.391447  -2.237329   0.241586   2.430519
  119  H   8  Y   0.151721  -0.093003  -1.770711   1.132155  -0.149215
  120  H   8  Z  -1.857988   0.220845   0.679049  -2.306828   2.223108
  121  H   9  S  -0.122137   0.058050   0.000262   0.016679   0.202572
  122  H   9  S   6.312961   5.993202  -3.519887   3.777126   1.464930
  123  H   9  S   0.252444   1.615199   0.776259   0.442333  -0.148845
  124  H   9  X   0.005242   0.013366  -0.028137   0.027007  -0.009957
  125  H   9  Y  -0.101989  -0.044703  -0.034745  -0.076991   0.083683
  126  H   9  Z   0.106297   0.063424   0.027238   0.042519  -0.054406
  127  H   9  X  -0.520859   0.391514   1.164246  -0.224943  -0.126608
  128  H   9  Y  -1.212874  -1.002434   1.401770  -0.493879  -0.717376
  129  H   9  Z   1.376262   1.600486  -0.394288   1.357528  -0.959468
  130  H  10  S  -0.175570   0.668826  -0.174314  -0.070024   0.163423
  131  H  10  S  -0.027732  -6.717991   4.474481  -0.514191   2.916371
  132  H  10  S  -0.155921  -0.370664   0.381171   0.034992   1.237502
  133  H  10  X   0.009117  -0.078248  -0.007896   0.041315  -0.014613
  134  H  10  Y   0.010078  -0.057569  -0.015178  -0.093548  -0.002261
  135  H  10  Z   0.058672  -0.027381   0.035123  -0.035905   0.067573
  136  H  10  X  -0.105921   1.155152   0.205320   1.020833  -2.924730
  137  H  10  Y  -0.129985  -1.209197   1.270452   0.070618   1.093204
  138  H  10  Z  -0.397510  -1.183477   0.692891  -0.093640   0.268175
  139  F  11  S   0.000509  -0.013635   0.005286  -0.000444  -0.014394
  140  F  11  S   0.006557  -0.003189  -0.030748  -0.014455  -0.016526
  141  F  11  S   0.048469   0.211527  -0.340405  -0.092610   0.276405
  142  F  11  S  -0.373952   1.335100  -1.286772  -0.819185   2.107918
  143  F  11  X  -0.008227  -0.005814   0.016323   0.004656   0.004855
  144  F  11  Y  -0.014060   0.062982  -0.017032   0.022819   0.002203
  145  F  11  Z  -0.019439   0.043391  -0.021368  -0.068409  -0.044314
  146  F  11  X   0.000938  -0.261605   0.239409   0.073363  -0.122357
  147  F  11  Y   0.019351   0.047340  -0.095167  -0.009513  -0.071258
  148  F  11  Z   0.001509   0.104283  -0.071251   0.037522   0.037448
  149  F  11  X  -0.010042  -0.633190   0.635848   0.376238  -0.790634
  150  F  11  Y   0.091745   0.182050  -0.128811  -0.107316  -0.149464
  151  F  11  Z  -0.156217   0.080227   0.002124  -0.041951   0.197487
  152  F  11 XX  -0.001864  -0.003997   0.001304   0.001031   0.002038
  153  F  11 YY  -0.000956   0.005535  -0.001966   0.000685   0.002248
  154  F  11 ZZ   0.002820  -0.001538   0.000663  -0.001716  -0.004286
  155  F  11 XY   0.000970   0.003246  -0.005783   0.000851  -0.003560
  156  F  11 XZ  -0.000465   0.007121  -0.005311  -0.001642  -0.001666
  157  F  11 YZ  -0.001539  -0.000668   0.003043  -0.000567   0.000978
  158  F  11 XX  -0.051269   0.228404  -0.122388  -0.095026   0.106372
  159  F  11 YY   0.013139  -0.174076   0.076597  -0.096410  -0.244827
  160  F  11 ZZ   0.038130  -0.054328   0.045792   0.191437   0.138455
  161  F  11 XY  -0.007204   0.058975   0.064838   0.045748   0.079049
  162  F  11 XZ  -0.025090  -0.016646   0.016102   0.015730   0.017306
  163  F  11 YZ   0.043892   0.072510  -0.099524   0.059093  -0.116411

                     96         97         98         99        100
                    1.1050     1.1489     1.2029     1.2665     1.2878
                     A          A          A          A          A   
    1  C   1  S   0.038862  -0.054290  -0.046001   0.058540  -0.005996
    2  C   1  S   0.078340  -0.133858  -0.138881   0.153702  -0.010837
    3  C   1  S   2.979670  -1.513201  -9.035903   0.715585  -4.352451
    4  C   1  S   0.618092  -1.788971   4.888907   2.212210  -0.950260
    5  C   1  X   0.257073   0.174894  -0.019151  -0.153730   0.164345
    6  C   1  Y   0.130112  -0.526861  -0.283202  -0.020557   0.085657
    7  C   1  Z  -0.066658   0.301943   0.182490  -0.229802   0.115321
    8  C   1  X  -1.081112  -1.944579   3.526848   1.997364  -3.764708
    9  C   1  Y   0.922188   6.770743   0.302732   2.739769  -4.771800
   10  C   1  Z   0.371783  -2.803185   9.812905   0.565405   0.978253
   11  C   1  X  -0.735911  -0.420000   0.627731   0.592037  -0.302555
   12  C   1  Y  -0.318256   2.087022   1.125761   1.015616  -0.392524
   13  C   1  Z  -0.102868  -0.136143  -0.255298   0.217034  -0.135257
   14  C   1 XX   0.095867   0.105797  -0.077108  -0.162568   0.236442
   15  C   1 YY  -0.042155   0.115578   0.056933   0.262955  -0.275418
   16  C   1 ZZ  -0.053712  -0.221375   0.020175  -0.100387   0.038976
   17  C   1 XY  -0.011684   0.074368   0.081364   0.138962  -0.129714
   18  C   1 XZ   0.068358   0.220470  -0.208754   0.128019   0.059829
   19  C   1 YZ   0.002157  -0.038073   0.303701  -0.043152   0.028625
   20  C   1 XX  -0.652707  -0.857629   1.564288   0.845333  -1.092509
   21  C   1 YY   1.690872  -0.378079   0.720271  -2.249982   0.421716
   22  C   1 ZZ  -1.038166   1.235708  -2.284559   1.404649   0.670794
   23  C   1 XY   0.888587  -0.941031   0.091206  -1.204955   0.291871
   24  C   1 XZ  -1.555941  -0.759721   0.993014  -0.491205   1.212872
   25  C   1 YZ  -0.403373  -0.874406  -0.678404   0.146323   1.612067
   26  C   2  S  -0.032240   0.072907  -0.001017  -0.147190   0.008804
   27  C   2  S  -0.043036   0.146028  -0.022278  -0.261386   0.003812
   28  C   2  S   4.774650  -5.803462  -3.020034   5.447655   1.130273
   29  C   2  S  -3.877409  11.756364  -0.248089  -6.884502  -1.822889
   30  C   2  X   0.267572  -0.099613  -0.114909   0.128784   0.101971
   31  C   2  Y   0.322168  -0.162186   0.392263  -0.001873  -0.075384
   32  C   2  Z   0.020480   0.104023  -0.402129   0.030804  -0.136676
   33  C   2  X  -8.076807   1.863768   4.632196  -6.306347   1.513716
   34  C   2  Y  -7.147428   4.514195  -8.511528  -3.077071   0.177992
   35  C   2  Z  -1.471584  -2.977612  14.186215  -7.459986   3.519447
   36  C   2  X  -0.246632  -1.745681  -0.912299  -0.091005  -0.203445
   37  C   2  Y   0.075642  -1.784438   0.917118   0.844458  -0.983605
   38  C   2  Z   0.628611  -3.351486  -2.822813  -0.961871   0.986037
   39  C   2 XX   0.031808   0.109223   0.147937  -0.083896  -0.059081
   40  C   2 YY  -0.112518  -0.158199   0.038176   0.146480   0.276546
   41  C   2 ZZ   0.080711   0.048975  -0.186113  -0.062585  -0.217465
   42  C   2 XY  -0.011286   0.119875  -0.020403   0.127078   0.150161
   43  C   2 XZ   0.041595  -0.093242   0.198795  -0.112659   0.050146
   44  C   2 YZ  -0.021571   0.080039   0.057777   0.099724   0.066309
   45  C   2 XX   2.642621  -0.757275  -2.333499   0.832884  -0.626660
   46  C   2 YY   2.028407   0.935531   4.086005  -3.228415  -2.947149
   47  C   2 ZZ  -4.671028  -0.178256  -1.752505   2.395531   3.573809
   48  C   2 XY   2.662838  -0.807147  -0.408945  -0.611547  -2.803192
   49  C   2 XZ  -0.275158   0.004390  -4.109395   2.751468   1.273199
   50  C   2 YZ   2.042582  -1.870264  -4.643600   1.337459  -2.259624
   51  C   3  S   0.044656  -0.036806  -0.028757  -0.093199  -0.022841
   52  C   3  S   0.094956  -0.074925  -0.021382  -0.197975  -0.012704
   53  C   3  S  -6.262944   2.525615  16.733518  -7.841995   2.370678
   54  C   3  S   2.283014  -9.736886  -3.452174   3.824437   3.106616
   55  C   3  X  -0.551467  -0.002967   0.222646  -0.068526   0.245836
   56  C   3  Y   0.273710   0.010669   0.029237   0.160214  -0.084225
   57  C   3  Z   0.548967   0.134886   0.240934  -0.231059   0.093084
   58  C   3  X   3.275168   1.274664   3.530031  -6.208477  -2.227881
   59  C   3  Y   1.551609  -0.176322   2.428684  -6.726628  -2.775586
   60  C   3  Z -10.293097   0.389971   5.295837  -3.069690   1.874991
   61  C   3  X   1.221625  -1.538355  -0.973785  -0.360870   0.499148
   62  C   3  Y   0.365767  -0.379765  -1.204667  -0.830751   0.311397
   63  C   3  Z  -0.599284  -2.158844   0.328266   1.508076  -0.159411
   64  C   3 XX  -0.091664   0.030533  -0.272782  -0.049464  -0.059447
   65  C   3 YY   0.016554  -0.036038   0.044974  -0.045715  -0.095330
   66  C   3 ZZ   0.075110   0.005505   0.227808   0.095179   0.154777
   67  C   3 XY  -0.175728   0.123428  -0.024626  -0.452265  -0.031562
   68  C   3 XZ  -0.080312   0.005283   0.129177  -0.026918   0.035037
   69  C   3 YZ  -0.006382  -0.001219  -0.099221  -0.053831   0.018212
   70  C   3 XX   2.992432  -0.131794   2.205103   0.076055  -0.621899
   71  C   3 YY   1.683573  -1.175958   0.327950   1.319809  -0.298424
   72  C   3 ZZ  -4.676005   1.307752  -2.533053  -1.395864   0.920323
   73  C   3 XY   1.997781  -1.309464   1.729225   0.882242  -0.233365
   74  C   3 XZ  -1.106693   0.138599  -0.107588  -1.718945   0.094589
   75  C   3 YZ   1.463417  -0.578701   2.769715  -0.794411  -0.780837
   76  H   4  S  -0.208912  -0.161751   0.171878  -0.300331  -0.079168
   77  H   4  S   0.072352  -3.123814  -3.416747  -2.667490  -0.565419
   78  H   4  S  -0.290060  -0.400546  -0.201172  -0.041131  -0.096997
   79  H   4  X  -0.035616  -0.025359  -0.006570   0.089510  -0.066396
   80  H   4  Y  -0.016311   0.072688   0.107539   0.043414   0.024396
   81  H   4  Z  -0.023763  -0.041416   0.000253  -0.016084  -0.069545
   82  H   4  X   0.336901  -0.042744  -0.528422  -0.193602  -0.484184
   83  H   4  Y  -0.010109  -0.104221   0.126542   0.852555  -0.168513
   84  H   4  Z  -0.108370   0.844328   1.685633   0.057426   0.138122
   85  H   5  S   0.254685   0.571890  -0.483587  -0.267218   0.487124
   86  H   5  S   4.251652   2.421246  -6.235711  -4.656160   2.500044
   87  H   5  S   0.558734   0.779307  -0.086545  -0.295323   0.256939
   88  H   5  X  -0.044111   0.021882  -0.064502   0.023151  -0.028343
   89  H   5  Y   0.005827   0.044975   0.087717   0.061015  -0.056678
   90  H   5  Z   0.042740   0.043831  -0.016382  -0.003349   0.028510
   91  H   5  X  -0.957039  -0.360848   1.594731   1.312292  -0.052851
   92  H   5  Y  -0.294371  -0.165458   0.110456  -0.006312   0.008234
   93  H   5  Z  -0.205222   0.627766  -0.280812   0.748728  -0.707240
   94  H   6  S  -0.155677   0.558148   0.206417   0.468998  -0.426459
   95  H   6  S  -4.543907   6.804088   3.343521   9.587241  -4.131676
   96  H   6  S  -0.608545   1.830771   0.574286   0.553771  -0.284258
   97  H   6  X  -0.031732  -0.034451   0.013098   0.067098  -0.050147
   98  H   6  Y  -0.013708   0.023050   0.032845  -0.024498   0.033254
   99  H   6  Z  -0.017459  -0.032936  -0.024086   0.092869  -0.004019
  100  H   6  X  -0.246453   0.929107   0.411803   0.750469  -0.260927
  101  H   6  Y  -1.254329   1.493462   1.237104   2.529623  -0.684503
  102  H   6  Z  -0.682917   0.705511  -1.042356  -0.159922   0.692060
  103  H   7  S  -0.041923  -0.213401   0.098944   0.546779   0.473209
  104  H   7  S   2.889993  -3.464259   1.891474   9.054411   4.269613
  105  H   7  S   0.615395   0.575640  -0.235753  -0.362485   0.845629
  106  H   7  X  -0.039704   0.066383  -0.051435   0.004124  -0.025281
  107  H   7  Y  -0.127973  -0.031104  -0.074470   0.071535   0.097150
  108  H   7  Z  -0.009069  -0.064033  -0.015134  -0.066088   0.105857
  109  H   7  X  -0.644130   0.481022   0.269814  -0.487070   0.474092
  110  H   7  Y  -1.009018   0.294041  -1.323842  -2.139403  -0.352155
  111  H   7  Z  -0.572098   1.419455   1.572414   0.004153  -0.054249
  112  H   8  S  -0.195125   0.081832  -0.256418  -0.582846  -0.131882
  113  H   8  S   1.127067   3.885479  -4.942289 -10.421900  -3.323733
  114  H   8  S   1.154983  -1.135489  -0.802165  -1.101900   0.008887
  115  H   8  X   0.133715  -0.058184   0.012803   0.095842  -0.031140
  116  H   8  Y   0.184922  -0.023317   0.015742   0.067310   0.030261
  117  H   8  Z  -0.021787   0.009875  -0.044695   0.012452  -0.048400
  118  H   8  X   1.207793   0.790735  -0.336717  -1.858916  -0.664596
  119  H   8  Y   0.782579   0.072869  -0.979230  -0.596396  -0.451873
  120  H   8  Z   2.301515  -0.456030   0.626562  -0.306364   0.127096
  121  H   9  S  -0.094887  -0.144809   0.411261   0.291297   0.073553
  122  H   9  S   0.194796  -3.078143   4.814073   3.305371  -0.836684
  123  H   9  S  -1.018215  -0.622029   0.324335   0.676189  -0.329189
  124  H   9  X   0.053408   0.028829   0.030293  -0.082813  -0.000109
  125  H   9  Y   0.022490  -0.001545   0.098830  -0.027429  -0.015918
  126  H   9  Z  -0.052503  -0.021864  -0.066514   0.041567  -0.050543
  127  H   9  X  -1.104071   0.043717  -1.036836  -0.257769  -0.059193
  128  H   9  Y  -0.530108   1.042187  -1.269784  -1.105733   0.000574
  129  H   9  Z  -0.293657  -0.616906  -0.264262   0.609511  -0.044468
  130  H  10  S  -0.372014   0.170062   0.018209   0.083607   0.094489
  131  H  10  S  -2.860422  -1.658957  -0.599509  -0.958288   2.439635
  132  H  10  S  -0.043113  -0.538159  -0.088391   0.563030  -0.429512
  133  H  10  X   0.021667  -0.013825   0.011036  -0.101578   0.024932
  134  H  10  Y   0.030215  -0.033502  -0.142976   0.187842   0.021798
  135  H  10  Z   0.010117  -0.006462  -0.054795   0.095388  -0.222454
  136  H  10  X   2.482878   0.071836  -0.278234   1.045666  -0.580461
  137  H  10  Y  -1.325881   0.006362   0.007099  -1.006990   0.564679
  138  H  10  Z  -0.519244  -0.425665  -0.122599  -0.436672   1.536345
  139  F  11  S   0.012925  -0.002577  -0.009677  -0.007792  -0.019095
  140  F  11  S   0.017134   0.013328  -0.019971  -0.018674  -0.062324
  141  F  11  S  -0.246706   0.154064   0.115551  -0.074543  -0.005304
  142  F  11  S  -0.886093  -0.054151   0.213367  -0.042547  -0.384435
  143  F  11  X  -0.040628   0.013113   0.038964  -0.022710   0.033695
  144  F  11  Y   0.093376   0.086387   0.003965   0.025004  -0.145504
  145  F  11  Z   0.003502  -0.075557   0.010084   0.032840  -0.113725
  146  F  11  X   0.086931  -0.106808  -0.056009  -0.030575   0.065759
  147  F  11  Y   0.033854  -0.068742  -0.002777   0.030454   0.117760
  148  F  11  Z   0.027576   0.129371  -0.026964   0.016950   0.039403
  149  F  11  X   0.439971  -0.151467  -0.005994   0.190266   0.205393
  150  F  11  Y   0.304500  -0.209945  -0.146348   0.464702  -0.053446
  151  F  11  Z   0.169472  -0.081265  -0.016273   0.320813  -0.544085
  152  F  11 XX  -0.003074  -0.000569   0.002663  -0.005341   0.004184
  153  F  11 YY   0.001137   0.007036  -0.002111   0.006362  -0.001192
  154  F  11 ZZ   0.001937  -0.006467  -0.000552  -0.001021  -0.002992
  155  F  11 XY   0.005867   0.001245   0.000491   0.001430  -0.003184
  156  F  11 XZ   0.001189   0.003254  -0.000423   0.001145  -0.003738
  157  F  11 YZ  -0.000464   0.000155   0.002351  -0.001766  -0.003443
  158  F  11 XX  -0.172819   0.040880   0.006799   0.051951  -0.006989
  159  F  11 YY   0.051986  -0.410914   0.013210  -0.211764  -0.070791
  160  F  11 ZZ   0.120833   0.370034  -0.020009   0.159813   0.077780
  161  F  11 XY  -0.076214   0.056388   0.035617  -0.279957  -0.033329
  162  F  11 XZ  -0.031149  -0.014064  -0.007992   0.037538   0.495522
  163  F  11 YZ   0.001388  -0.060091  -0.105383   0.156977   0.436208

                    101        102        103        104        105
                    1.3027     1.3478     1.3748     1.3813     1.4112
                     A          A          A          A          A   
    1  C   1  S  -0.046116  -0.024443  -0.131076  -0.151084  -0.019413
    2  C   1  S  -0.118565  -0.054611  -0.261607  -0.307992  -0.045189
    3  C   1  S  -3.320060  -1.270799   6.644732   0.850943  -4.096666
    4  C   1  S   1.140432  -0.331876   0.661384   3.712159  -5.386862
    5  C   1  X  -0.076439  -0.020814  -0.076571   0.081090   0.026733
    6  C   1  Y  -0.157231   0.040613   0.060727  -0.091024  -0.008608
    7  C   1  Z   0.112095   0.046370  -0.035308  -0.046560   0.041011
    8  C   1  X   2.006919   0.984510   2.144688  -2.390855  -1.214881
    9  C   1  Y   0.590951  -1.482147   1.924156   1.739744  -3.315095
   10  C   1  Z   3.767340   0.373463  -1.676696   4.260386   3.354882
   11  C   1  X   0.237500   0.368851  -0.073242  -0.275116   0.053552
   12  C   1  Y   0.495099  -0.797673  -0.992145   1.112491  -0.630848
   13  C   1  Z  -0.028217  -0.377722  -0.423519  -0.066398   1.741077
   14  C   1 XX  -0.060887  -0.057177  -0.167422   0.200738   0.189114
   15  C   1 YY   0.124338  -0.039195   0.153562   0.036748  -0.269063
   16  C   1 ZZ  -0.063451   0.096372   0.013860  -0.237486   0.079950
   17  C   1 XY   0.062544  -0.136701   0.092180   0.229475  -0.040900
   18  C   1 XZ   0.057744  -0.117234  -0.153961   0.131193   0.113607
   19  C   1 YZ   0.041471   0.068638   0.029482  -0.134675   0.054619
   20  C   1 XX   0.376797   0.366732   0.502279  -0.823352  -0.035244
   21  C   1 YY  -0.180572   0.592194   0.552186   0.753455   0.148175
   22  C   1 ZZ  -0.196225  -0.958926  -1.054465   0.069897  -0.112931
   23  C   1 XY  -0.149108   0.801726   0.261546  -1.547231  -0.195825
   24  C   1 XZ  -1.014934   0.658062  -0.844675  -1.097169   0.375160
   25  C   1 YZ   0.148159  -0.334989  -1.405598   0.844668   1.430393
   26  C   2  S   0.135324   0.033414  -0.071913  -0.063873  -0.190364
   27  C   2  S   0.270642   0.044186  -0.135130  -0.113163  -0.350117
   28  C   2  S  -7.527610  -5.080736   7.380627  -1.363822   0.771346
   29  C   2  S  -1.009435   1.443225  -7.471830   7.618137   3.003275
   30  C   2  X  -0.016589  -0.127482   0.005575   0.052694  -0.161229
   31  C   2  Y   0.170488   0.074628  -0.004725   0.031619  -0.147291
   32  C   2  Z  -0.075214   0.025730  -0.058596  -0.132278  -0.224617
   33  C   2  X   1.863037   4.742589  -3.221248   2.650027   4.804189
   34  C   2  Y  -1.611785   1.577768  -0.991232  -0.425121   1.386270
   35  C   2  Z   6.470429   5.106010  -4.629399   4.219845   6.662518
   36  C   2  X  -0.223817   0.088846   2.388100  -1.799448   0.275940
   37  C   2  Y  -0.611849   0.536588   2.449982  -0.201367  -1.640395
   38  C   2  Z  -0.385114   0.630113   2.096294  -2.818161   2.532477
   39  C   2 XX  -0.319401   0.055807   0.060565   0.114808   0.203946
   40  C   2 YY   0.167838  -0.089093  -0.262145  -0.111596   0.105162
   41  C   2 ZZ   0.151563   0.033286   0.201580  -0.003212  -0.309108
   42  C   2 XY  -0.032625  -0.108215  -0.267720  -0.268975  -0.104915
   43  C   2 XZ  -0.107294  -0.055396   0.098174   0.049390  -0.135144
   44  C   2 YZ   0.160093  -0.007190  -0.010551   0.021133  -0.068020
   45  C   2 XX   0.102140  -0.764375   0.494855  -0.455277  -1.320406
   46  C   2 YY   0.419141   1.686587   3.196307   2.411555  -1.208179
   47  C   2 ZZ  -0.521281  -0.922212  -3.691162  -1.956278   2.528584
   48  C   2 XY   0.286943   0.121149   3.349280   0.810984  -1.976955
   49  C   2 XZ  -1.009826  -1.862640  -1.338868  -0.427309   0.125928
   50  C   2 YZ  -3.276551  -1.174525   2.900431  -1.280581  -2.259574
   51  C   3  S  -0.080085  -0.044232  -0.205878  -0.035627  -0.353229
   52  C   3  S  -0.217507  -0.094065  -0.418937  -0.056418  -0.700933
   53  C   3  S   5.012328   6.778294   2.710251   3.248471   8.022497
   54  C   3  S  -1.348774  -2.069932  13.190407  -9.141851   5.228570
   55  C   3  X  -0.180450  -0.010637   0.111189   0.119062   0.120226
   56  C   3  Y   0.068717   0.074458  -0.167497  -0.091353  -0.111009
   57  C   3  Z   0.025434   0.019526   0.114667  -0.093090  -0.027246
   58  C   3  X   5.434137   4.284218  -3.926649   2.591854   1.408476
   59  C   3  Y   1.592715   0.442000   3.926937   2.743037  -0.993081
   60  C   3  Z   3.158442   5.574256  -6.920114   2.099912   4.462165
   61  C   3  X   0.131170  -0.571987   1.631560  -1.826227   1.021757
   62  C   3  Y   0.626782  -0.152364   0.292487  -0.683165   0.585961
   63  C   3  Z  -0.347126  -0.041298   1.543914  -1.558663   0.630486
   64  C   3 XX   0.332343   0.054997   0.151118  -0.164808   0.072768
   65  C   3 YY  -0.027272   0.033821   0.020305   0.137562   0.046710
   66  C   3 ZZ  -0.305071  -0.088818  -0.171423   0.027246  -0.119478
   67  C   3 XY   0.110143   0.144289  -0.279012  -0.000981  -0.255827
   68  C   3 XZ   0.028466   0.011118   0.013890   0.030255  -0.231483
   69  C   3 YZ  -0.303254  -0.089911   0.393130   0.075710   0.212141
   70  C   3 XX   0.431867   0.678603  -1.148355   0.983963  -0.406660
   71  C   3 YY  -1.224001  -1.308337   2.274075  -1.087140  -0.996980
   72  C   3 ZZ   0.792134   0.629734  -1.125720   0.103177   1.403640
   73  C   3 XY  -1.104520  -0.795168   2.421768   0.519936  -0.414772
   74  C   3 XZ   1.894220   1.360218  -2.432969   0.381646   1.198594
   75  C   3 YZ   1.518397   1.834824  -1.402301   0.647367  -0.707287
   76  H   4  S  -0.227559   0.245506   0.086982  -0.729149  -0.155061
   77  H   4  S  -2.298202   2.928507   1.876435  -7.442696  -2.374854
   78  H   4  S   0.010420   0.530346   0.502079  -0.607068  -0.922370
   79  H   4  X   0.037758  -0.012816   0.023505  -0.049890   0.013432
   80  H   4  Y   0.016330  -0.016923  -0.034848   0.047292   0.010838
   81  H   4  Z   0.001392   0.018768   0.089865  -0.041387  -0.039550
   82  H   4  X  -0.171919   0.307567   0.404057  -0.883135  -0.461439
   83  H   4  Y   0.526361  -0.387357  -0.014209   0.241135  -0.013539
   84  H   4  Z   0.305764  -0.263957  -0.152785   1.237623   0.653519
   85  H   5  S  -0.066103  -0.135561  -0.313088   0.319189   0.098498
   86  H   5  S  -2.978815  -1.054382   0.608041   2.370092  -1.170590
   87  H   5  S  -0.302177  -0.253726  -0.047366   0.253470  -0.576753
   88  H   5  X   0.035563  -0.018073   0.028263   0.003920  -0.035840
   89  H   5  Y   0.083293  -0.031418  -0.033043   0.026389   0.020494
   90  H   5  Z  -0.042541   0.013918   0.031286   0.037943   0.051107
   91  H   5  X   0.778255   0.154259  -0.649535  -0.504183   0.714651
   92  H   5  Y  -0.294155  -0.141075   0.142066   0.530777   0.135088
   93  H   5  Z   0.789331  -0.185722  -0.050095  -0.279634   0.266453
   94  H   6  S   0.243818  -0.179047   0.131394   0.199987  -0.248620
   95  H   6  S   2.476684  -2.724572  -2.866614  -0.603457  -0.477480
   96  H   6  S   0.253119  -0.367590  -0.729934   0.681482   0.075866
   97  H   6  X   0.032540   0.035763  -0.015245  -0.112171  -0.034097
   98  H   6  Y  -0.001995  -0.004216  -0.012546   0.029175   0.024081
   99  H   6  Z   0.013298  -0.036062  -0.034751   0.042948  -0.052699
  100  H   6  X   0.153876  -0.120389  -0.572666  -0.653235   0.184207
  101  H   6  Y   0.684585  -0.654811  -1.114683  -0.193367   0.188282
  102  H   6  Z  -0.204653  -0.238789  -0.388213   0.125192   0.369382
  103  H   7  S   0.080842  -0.268547  -0.570504  -0.325320   0.114273
  104  H   7  S   2.599479  -4.204073  -6.069993  -3.559614  -1.021522
  105  H   7  S   0.416168  -0.272391  -1.957358   0.336175   0.500791
  106  H   7  X  -0.112842   0.042337  -0.021117  -0.090556   0.038390
  107  H   7  Y  -0.013768  -0.048701  -0.039315   0.015784   0.078559
  108  H   7  Z  -0.015260  -0.021678   0.000460  -0.035036  -0.029027
  109  H   7  X  -0.554809   0.219993  -0.122244   0.053418   0.515543
  110  H   7  Y  -0.751531   1.008950   0.810753   0.280933   0.654736
  111  H   7  Z   1.048625   0.371007  -0.186720   0.461583   0.156116
  112  H   8  S   0.506657   0.347127  -0.381405   0.006606  -0.003503
  113  H   8  S   5.256754   1.331577  -6.221451   3.462887  -0.265970
  114  H   8  S   0.530995  -0.215807   0.486942  -1.240815   0.173260
  115  H   8  X  -0.230821  -0.128009   0.013791   0.012611  -0.176360
  116  H   8  Y  -0.000184  -0.070535   0.066044  -0.040466  -0.040475
  117  H   8  Z   0.088663   0.029144  -0.049671   0.027554   0.080111
  118  H   8  X   0.784829  -0.048038  -1.015355   1.389582   0.228793
  119  H   8  Y   0.044343  -0.785477   0.233424  -0.011812  -0.112385
  120  H   8  Z   0.568902   0.567992  -0.757468  -0.127773  -0.244219
  121  H   9  S   0.317337   0.299661  -0.689433   0.013245   0.124030
  122  H   9  S   0.627601   6.338288  -8.252758   0.739611  -1.275185
  123  H   9  S  -0.546838   0.147064   0.157879  -0.467515   0.165371
  124  H   9  X  -0.004841  -0.055810  -0.110866  -0.009424  -0.037069
  125  H   9  Y   0.104640   0.060150   0.051829   0.009503   0.158246
  126  H   9  Z   0.005213  -0.037301  -0.005599  -0.005715  -0.013610
  127  H   9  X   0.462622   0.810149  -1.107717  -0.161076   0.408054
  128  H   9  Y   0.404535  -0.686484   0.282485   0.306491   0.073313
  129  H   9  Z   0.077465   1.526480  -1.609030  -0.000707  -0.017075
  130  H  10  S  -0.017503  -0.027082   0.083625   0.025676   0.441919
  131  H  10  S   0.393194  -1.902880   1.714471   0.209747  -0.909972
  132  H  10  S   0.022790   0.543474  -0.629492   0.358811  -0.136145
  133  H  10  X  -0.091696  -0.025850  -0.176572  -0.006145  -0.321546
  134  H  10  Y  -0.032114   0.149601   0.025067   0.041717   0.106508
  135  H  10  Z  -0.017950  -0.097990  -0.028838   0.016107  -0.013222
  136  H  10  X   0.093977   0.493637  -0.246773  -0.460686   0.139910
  137  H  10  Y   0.565702  -1.491098   0.688742   0.032705  -0.340984
  138  H  10  Z   0.430456   0.221215   0.891829  -0.393926  -0.533538
  139  F  11  S   0.025239   0.007419   0.020443   0.011654   0.018113
  140  F  11  S   0.081878   0.022271   0.064018   0.045572   0.081801
  141  F  11  S   0.000406  -0.017313  -0.062193   0.095591   0.095312
  142  F  11  S  -0.148341   0.495727  -0.507402   0.243672  -0.078157
  143  F  11  X   0.000157  -0.033541  -0.020105   0.012095   0.108381
  144  F  11  Y  -0.025451   0.294982   0.133399   0.201592   0.032353
  145  F  11  Z  -0.003100  -0.051541  -0.095335  -0.052813   0.174812
  146  F  11  X  -0.102742  -0.022502  -0.049419  -0.086080  -0.407963
  147  F  11  Y   0.023608  -0.299211  -0.186081  -0.258466  -0.006621
  148  F  11  Z   0.033053   0.055984   0.080446   0.151221  -0.179279
  149  F  11  X   0.123790  -0.253653   0.221265  -0.153545   0.322444
  150  F  11  Y  -0.203969   0.725237  -0.236990   0.268320   0.070083
  151  F  11  Z  -0.202267  -0.266682  -0.289009  -0.105476   0.336105
  152  F  11 XX  -0.004966  -0.002793  -0.008440   0.001091  -0.013347
  153  F  11 YY   0.001324   0.002094   0.004039  -0.001779   0.007294
  154  F  11 ZZ   0.003643   0.000698   0.004402   0.000688   0.006054
  155  F  11 XY   0.000160   0.003235   0.001752   0.000599   0.001824
  156  F  11 XZ   0.002220   0.000585  -0.000341   0.005315   0.006530
  157  F  11 YZ  -0.003351   0.001211  -0.002817  -0.003033  -0.001740
  158  F  11 XX  -0.288891  -0.045583   0.088467   0.178234  -0.332944
  159  F  11 YY   0.372041  -0.129785  -0.149427   0.425280   0.168924
  160  F  11 ZZ  -0.083150   0.175368   0.060960  -0.603513   0.164020
  161  F  11 XY   0.222182  -0.736891   0.233573  -0.330670   0.050462
  162  F  11 XZ   0.287829   0.395037   0.382551  -0.085648  -0.267282
  163  F  11 YZ   0.159543  -0.249925   0.251882   0.196494  -0.186330

                    106        107        108        109        110
                    1.4219     1.4338     1.4578     1.4948     1.5222
                     A          A          A          A          A   
    1  C   1  S  -0.065288  -0.066289   0.152001   0.270242  -0.125835
    2  C   1  S  -0.168250  -0.126150   0.306477   0.523095  -0.240937
    3  C   1  S  -1.201764   1.353006   4.223717   0.302339   0.966020
    4  C   1  S  -0.339935  -2.310130  -3.799826   0.603508  -1.157150
    5  C   1  X  -0.036926   0.020263   0.026744  -0.033915   0.054321
    6  C   1  Y  -0.089297   0.017630   0.045519   0.022180   0.040750
    7  C   1  Z   0.135280   0.023362  -0.014063   0.017481  -0.038243
    8  C   1  X   1.107204   1.091064  -0.938561   0.325841  -0.171123
    9  C   1  Y  -2.361537   0.040241   3.627285   2.927992  -1.575281
   10  C   1  Z   2.799033  -1.094756  -6.445491  -4.661604   1.930484
   11  C   1  X  -0.247116  -0.018346  -0.183002   0.039444   0.186687
   12  C   1  Y  -0.025379  -0.537066  -0.245323  -0.114729   0.121595
   13  C   1  Z   0.103757   0.821926   0.049075  -1.013596   0.697694
   14  C   1 XX  -0.079428  -0.039825  -0.125087  -0.104676  -0.249172
   15  C   1 YY  -0.091196   0.091819  -0.088833   0.003988   0.313821
   16  C   1 ZZ   0.170623  -0.051993   0.213920   0.100688  -0.064649
   17  C   1 XY   0.103637   0.080657   0.429847   0.166461  -0.270368
   18  C   1 XZ   0.159837  -0.173572   0.054685   0.037577   0.110276
   19  C   1 YZ   0.180292  -0.013904   0.003637  -0.037019   0.172910
   20  C   1 XX   0.718561   0.038196  -0.115544  -0.134674   1.891731
   21  C   1 YY   0.304615  -0.282827  -0.072996   0.256299  -2.021976
   22  C   1 ZZ  -1.023175   0.244631   0.188540  -0.121625   0.130245
   23  C   1 XY  -0.304323   0.028307  -2.274005  -0.390867   1.103447
   24  C   1 XZ  -1.370388  -0.104939  -0.325576  -0.379186  -0.537890
   25  C   1 YZ   0.138384  -0.273644  -1.424088  -1.314191  -0.000675
   26  C   2  S  -0.085698  -0.032511   0.113311   0.354324  -0.241442
   27  C   2  S  -0.151458  -0.055970   0.223887   0.721170  -0.464416
   28  C   2  S   4.239462  -4.928962  -4.653324  -1.028858   1.037811
   29  C   2  S  -4.511185   4.798735   1.797466  -8.796808   6.952431
   30  C   2  X   0.212149   0.264800  -0.017913   0.104784   0.129395
   31  C   2  Y   0.093601  -0.056820   0.038289  -0.096718   0.019717
   32  C   2  Z  -0.135519  -0.063092   0.288312   0.072606  -0.048863
   33  C   2  X  -5.110073   0.447319  -2.379372  -2.289465  -1.559449
   34  C   2  Y  -6.112786   1.914763   0.690341   0.803167  -1.618959
   35  C   2  Z  -1.812845   3.344616  -9.502395  -5.657249   1.348790
   36  C   2  X  -0.233325   0.102196   0.185711   0.805607  -0.953784
   37  C   2  Y  -2.634632   0.397216  -0.270703   2.139109  -1.904166
   38  C   2  Z   2.327152   0.421464   1.197848   0.590421  -0.229742
   39  C   2 XX  -0.139498   0.103675   0.010191  -0.078858   0.339965
   40  C   2 YY   0.274907  -0.129628   0.242618   0.007331  -0.225506
   41  C   2 ZZ  -0.135408   0.025953  -0.252809   0.071528  -0.114460
   42  C   2 XY   0.115863  -0.284444  -0.281233   0.211180   0.212528
   43  C   2 XZ   0.079818   0.043908   0.173590   0.288987  -0.294892
   44  C   2 YZ  -0.060991  -0.017219  -0.287837  -0.164656  -0.080163
   45  C   2 XX  -0.083005   0.106989   1.115671   0.806625  -1.562703
   46  C   2 YY  -2.992584   1.515768  -1.196925   0.500556  -0.470364
   47  C   2 ZZ   3.075590  -1.622757   0.081254  -1.307181   2.033067
   48  C   2 XY  -0.684676   2.854186   1.786225   0.519939  -0.420936
   49  C   2 XZ   0.981577  -0.566817   1.820234  -0.132540   0.622005
   50  C   2 YZ  -1.528201   0.297916   4.679082   2.927405   0.758825
   51  C   3  S   0.049854  -0.099959   0.014845   0.209335  -0.116642
   52  C   3  S   0.079791  -0.229643   0.003571   0.418850  -0.236786
   53  C   3  S  -4.411442   3.444333  -9.435867  -5.658440  -0.544087
   54  C   3  S   3.726494  -1.731805  -0.481003   4.991750  -3.939969
   55  C   3  X   0.031593  -0.049296  -0.162050   0.109151   0.003393
   56  C   3  Y  -0.025201  -0.125780   0.007839  -0.173406  -0.055754
   57  C   3  Z   0.122163  -0.085448  -0.156429  -0.228392  -0.019669
   58  C   3  X  -1.825111   1.608442  -2.906591  -2.859125  -1.410178
   59  C   3  Y   1.482314   2.738088   0.096597   0.756790   2.430375
   60  C   3  Z  -7.062457   2.006857  -1.969212  -0.852087  -1.807464
   61  C   3  X   1.665890  -0.532646   0.068865   0.501827  -0.578597
   62  C   3  Y   2.983208  -0.368062  -0.006355  -0.526664   0.258157
   63  C   3  Z  -1.590692  -0.010441  -0.123302   1.656577  -1.266607
   64  C   3 XX   0.189424  -0.172774  -0.311173  -0.009211  -0.122397
   65  C   3 YY   0.166644   0.035798   0.345729  -0.149555  -0.173018
   66  C   3 ZZ  -0.356069   0.136976  -0.034556   0.158766   0.295415
   67  C   3 XY   0.296245   0.229851   0.110358  -0.059905   0.269328
   68  C   3 XZ  -0.052875  -0.139588  -0.199462   0.095429  -0.471416
   69  C   3 YZ   0.284313  -0.106177   0.109901   0.041626   0.114712
   70  C   3 XX  -2.347923   1.476589   0.612718  -0.347961  -0.565010
   71  C   3 YY   0.242639  -0.662383  -0.659984   1.266868   0.346928
   72  C   3 ZZ   2.105283  -0.814206   0.047266  -0.918907   0.218083
   73  C   3 XY  -2.410801   0.302238  -0.286357   1.637842  -0.521425
   74  C   3 XZ  -0.684300   2.269763   0.400848  -0.964019   1.724425
   75  C   3 YZ  -3.163077   2.570380   0.565535  -0.549862  -0.003082
   76  H   4  S   0.034898   0.082017  -0.069525   0.260644  -0.064477
   77  H   4  S  -2.614793   1.106657   2.202756   3.384486  -2.406198
   78  H   4  S  -0.601532  -0.203342   0.079601   0.701104  -0.544988
   79  H   4  X   0.116913  -0.094943  -0.023750  -0.014453  -0.000151
   80  H   4  Y   0.050179  -0.047560  -0.023800  -0.083075   0.033288
   81  H   4  Z   0.068473  -0.013913   0.002148  -0.004304  -0.027026
   82  H   4  X  -0.018171   0.115875   1.119129   0.848982   0.082880
   83  H   4  Y   0.229003   0.079523  -0.812681  -0.339345   1.098572
   84  H   4  Z   0.938371  -0.351383   0.109919  -0.465932   0.512851
   85  H   5  S  -0.147634  -0.127673   0.130722   0.150097  -0.354086
   86  H   5  S  -1.599698   0.617633   2.701803   2.476945  -2.034050
   87  H   5  S  -0.228636  -0.103536   0.465124   0.362917  -0.224873
   88  H   5  X   0.029088  -0.004161  -0.026787   0.003252   0.004767
   89  H   5  Y   0.092691  -0.004330   0.120720   0.040254   0.013583
   90  H   5  Z   0.040807   0.030720   0.144120   0.025885   0.030210
   91  H   5  X   0.137566  -0.353378  -0.781123  -0.799378   0.029512
   92  H   5  Y   0.057164   0.027270   0.919147   0.510354  -0.571648
   93  H   5  Z   1.077747  -0.232281  -0.027954   0.020864   0.316852
   94  H   6  S   0.183872   0.052882   0.374354   0.076514   0.100691
   95  H   6  S  -1.686564  -1.221039   3.622575   3.278575  -0.692958
   96  H   6  S  -0.130127  -0.353373  -0.011196  -0.065415   0.205539
   97  H   6  X  -0.009924   0.016999  -0.065327   0.060522   0.217698
   98  H   6  Y  -0.004620  -0.033850   0.014362   0.025989  -0.079494
   99  H   6  Z  -0.007601   0.023828   0.032658  -0.112981  -0.035301
  100  H   6  X  -0.520124  -0.385501  -0.337343   0.183637   0.847176
  101  H   6  Y  -0.358078  -0.725550   0.766543   1.055492  -0.756040
  102  H   6  Z  -0.415971   0.262754  -0.124618  -0.262310   0.019578
  103  H   7  S   0.789636  -0.377999   0.040479  -0.146449   0.261045
  104  H   7  S  12.744931  -5.434288   1.547833  -0.876826   2.548462
  105  H   7  S   1.605377  -0.318640  -0.060456  -1.128606   1.081912
  106  H   7  X   0.021677  -0.061329  -0.019173  -0.024739   0.166624
  107  H   7  Y   0.051862  -0.009868  -0.004233  -0.083411   0.018867
  108  H   7  Z   0.057875   0.057057  -0.032254   0.020592  -0.004137
  109  H   7  X  -1.423329  -0.337661  -1.087565   0.444324   0.198404
  110  H   7  Y  -2.915263   1.006373  -0.343179   0.415699  -0.949838
  111  H   7  Z  -0.369000  -0.037110  -1.606815  -0.538391  -0.875881
  112  H   8  S   0.445270   0.232774   0.161564  -0.211913   0.146390
  113  H   8  S   6.802764  -1.346237  -1.021389  -2.730479   3.167419
  114  H   8  S   2.095505  -0.266604   0.157597  -0.291913  -0.071284
  115  H   8  X   0.005472  -0.075874   0.067714  -0.000754  -0.011225
  116  H   8  Y  -0.178128  -0.029110  -0.100808   0.254070  -0.074749
  117  H   8  Z  -0.053129   0.017357  -0.010541  -0.016418   0.037098
  118  H   8  X   0.199149  -0.119521   0.050765  -0.184619   0.571424
  119  H   8  Y   0.994942  -1.231419  -0.924386   0.321965   0.549529
  120  H   8  Z  -1.223508   1.847374   0.533323  -0.432958   0.986106
  121  H   9  S  -0.852289   0.490430   0.229257  -0.072492  -0.132254
  122  H   9  S -13.179117   3.149266   2.349265   1.223640  -5.405410
  123  H   9  S  -2.226194   0.038417   0.375848   1.085908  -0.527771
  124  H   9  X  -0.071962   0.096779   0.132806   0.075292   0.194355
  125  H   9  Y   0.058599  -0.036589  -0.015736  -0.016439  -0.092693
  126  H   9  Z   0.121005  -0.099896  -0.009867   0.049620  -0.086996
  127  H   9  X   0.351273   0.488044   0.670249  -0.512141   0.580303
  128  H   9  Y   1.945415  -0.097302  -0.079290  -0.733995   1.152849
  129  H   9  Z  -2.474744   0.308738   0.835862   0.236911  -1.734324
  130  H  10  S  -0.026471  -0.212415  -0.191222   0.544259  -0.098083
  131  H  10  S   1.464547   2.520485  -1.148623  -0.119095   1.267878
  132  H  10  S   0.289546   0.812432  -0.372987   0.078787  -0.382998
  133  H  10  X   0.043150   0.053477   0.021378  -0.015116   0.052053
  134  H  10  Y   0.135150  -0.111427  -0.060801  -0.256858  -0.036561
  135  H  10  Z  -0.044151   0.005479   0.003018   0.037261   0.048999
  136  H  10  X   0.524193  -0.933139  -0.466110  -1.936548  -0.817339
  137  H  10  Y   0.145895   1.048522  -0.568181   0.610062   1.026457
  138  H  10  Z   0.255052   0.954405  -0.193750  -0.210039  -0.361347
  139  F  11  S  -0.011650   0.005330   0.013430  -0.023374   0.010434
  140  F  11  S  -0.050247   0.001507   0.045050  -0.048642   0.024478
  141  F  11  S  -0.162435  -0.107824   0.117846   0.273281  -0.014230
  142  F  11  S  -0.699113   0.365934   0.608158   1.912164   0.154984
  143  F  11  X  -0.060695  -0.011545   0.071407   0.282329   0.086006
  144  F  11  Y   0.110461  -0.032467  -0.233793   0.280154   0.050609
  145  F  11  Z   0.000117   0.460109  -0.186703  -0.201838  -0.235091
  146  F  11  X   0.202444   0.072672  -0.146285  -0.494096  -0.107809
  147  F  11  Y  -0.180259  -0.009511   0.348098  -0.499952  -0.148475
  148  F  11  Z  -0.027024  -0.689877   0.282341   0.254124   0.402761
  149  F  11  X   0.161389  -0.256699   0.013587  -0.265991   0.016600
  150  F  11  Y   0.291947  -0.057100  -0.156705   0.215638  -0.091601
  151  F  11  Z   0.269213   0.523981  -0.286836   0.172227  -0.153258
  152  F  11 XX   0.001140   0.002232   0.001577   0.004524   0.001858
  153  F  11 YY   0.000743  -0.000265   0.000657  -0.003036   0.002469
  154  F  11 ZZ  -0.001882  -0.001967  -0.002234  -0.001488  -0.004327
  155  F  11 XY  -0.004778   0.000742  -0.001437  -0.001895  -0.000480
  156  F  11 XZ  -0.000524  -0.000074  -0.000574  -0.008372   0.003829
  157  F  11 YZ   0.001778  -0.003442   0.001734   0.005658  -0.001757
  158  F  11 XX   0.018205  -0.213718  -0.111269  -0.514760  -0.130535
  159  F  11 YY  -0.103711  -0.175314  -0.048569   0.304532   0.263041
  160  F  11 ZZ   0.085505   0.389032   0.159838   0.210228  -0.132507
  161  F  11 XY  -0.206619  -0.109168   0.083976  -0.150008   0.086184
  162  F  11 XZ  -0.289074  -0.158325   0.342700  -0.130078   0.124320
  163  F  11 YZ   0.208698   0.564541  -0.195352   0.125680   0.130539

                    111        112        113        114        115
                    1.5282     1.5908     1.6171     1.6271     1.6454
                     A          A          A          A          A   
    1  C   1  S  -0.095680   0.159389   0.143400  -0.173767  -0.010448
    2  C   1  S  -0.182514   0.314984   0.284105  -0.361729  -0.024305
    3  C   1  S   1.712601   2.036139  -0.403771   5.773438   2.151146
    4  C   1  S   4.361738  -1.226769  -5.248135   2.654819  -2.686963
    5  C   1  X  -0.007934   0.039082   0.025018   0.114677   0.021548
    6  C   1  Y   0.006206   0.046711   0.028671  -0.108470  -0.050370
    7  C   1  Z  -0.082112  -0.082672  -0.025208   0.117920   0.003715
    8  C   1  X   0.687984  -0.482979  -0.896136  -2.608894   0.508376
    9  C   1  Y   0.035150   1.968218  -1.167593   2.557746   0.938507
   10  C   1  Z   2.193860  -1.913122  -3.144779  -3.837940  -2.625618
   11  C   1  X   0.195034  -0.918610   0.451020  -0.913624   0.619364
   12  C   1  Y   0.970779  -0.139761  -0.767820  -0.035871  -0.014877
   13  C   1  Z  -0.534280  -0.059840   0.613582  -0.828211   0.481858
   14  C   1 XX   0.115834  -0.283562  -0.074824  -0.365606   0.057948
   15  C   1 YY  -0.095723   0.078553  -0.285458   0.228252  -0.103767
   16  C   1 ZZ  -0.020112   0.205009   0.360282   0.137354   0.045819
   17  C   1 XY   0.363586  -0.125983   0.229367  -0.233001   0.075972
   18  C   1 XZ  -0.291000   0.260525   0.122962   0.156947  -0.252458
   19  C   1 YZ  -0.136061   0.287415   0.215908   0.001312  -0.079994
   20  C   1 XX  -0.142151   0.457561   0.472407   0.701814  -0.428941
   21  C   1 YY   0.657627   0.485005   0.467071  -0.734484  -0.209728
   22  C   1 ZZ  -0.515476  -0.942565  -0.939477   0.032670   0.638669
   23  C   1 XY  -1.317339   0.916159  -1.255995   1.283622  -0.530590
   24  C   1 XZ   0.833340  -2.774552   0.475130  -0.508109   1.563916
   25  C   1 YZ   0.750555  -1.635091  -0.864294  -1.145730   0.203765
   26  C   2  S   0.051509   0.146936   0.026564   0.151271  -0.020306
   27  C   2  S   0.085759   0.291478   0.038574   0.259427  -0.029403
   28  C   2  S   1.311911   3.709422  -1.030804  -4.591148   2.299392
   29  C   2  S  -1.863111   0.736801   8.631435  -7.703442   2.657763
   30  C   2  X  -0.120143   0.119415  -0.177694  -0.071296  -0.135704
   31  C   2  Y   0.140351  -0.008743  -0.072283   0.113185  -0.031112
   32  C   2  Z   0.051445   0.080418   0.116254   0.030861  -0.074649
   33  C   2  X   0.758492  -3.395166   2.008049   1.927419  -0.230204
   34  C   2  Y  -2.704181  -1.243654   3.178338   3.660092   1.556084
   35  C   2  Z  -0.014472  -4.151414  -0.887546  -0.893407  -2.278656
   36  C   2  X  -0.863310   0.400377  -0.299076   1.672821   0.049938
   37  C   2  Y  -0.383810   0.570770  -1.661068   2.529208  -1.095894
   38  C   2  Z  -1.677969   0.351053   0.644203   1.220477   0.860161
   39  C   2 XX   0.126647  -0.131419   0.190724  -0.132818  -0.077252
   40  C   2 YY  -0.047927   0.088977   0.000938   0.073676   0.199466
   41  C   2 ZZ  -0.078720   0.042442  -0.191662   0.059143  -0.122214
   42  C   2 XY   0.144065  -0.382279   0.160992   0.334756   0.107568
   43  C   2 XZ   0.186413  -0.123362  -0.201927   0.063518  -0.064773
   44  C   2 YZ   0.012340   0.114990  -0.249613  -0.499356  -0.226050
   45  C   2 XX  -0.152174   1.086606  -0.607648  -0.399573   0.808440
   46  C   2 YY   0.053823   1.320240  -0.062638   2.206681  -0.747593
   47  C   2 ZZ   0.098352  -2.406846   0.670286  -1.807109  -0.060847
   48  C   2 XY  -0.598161   3.001555  -0.448469  -0.038922   0.513283
   49  C   2 XZ  -0.823815  -1.548862   1.278169  -1.161507   0.935977
   50  C   2 YZ  -0.054994   1.981467   1.148899   3.516733   2.287618
   51  C   3  S   0.049888   0.335764   0.075660  -0.196553  -0.210296
   52  C   3  S   0.082876   0.706254   0.159126  -0.336631  -0.393106
   53  C   3  S  -1.570968  -4.948330  -2.293663   3.891850   1.718954
   54  C   3  S  -2.553963   0.382752  -3.302392   5.535209   1.979082
   55  C   3  X   0.006440   0.243032   0.088475   0.024538   0.059021
   56  C   3  Y  -0.043657   0.002309  -0.032734  -0.080238  -0.083967
   57  C   3  Z  -0.061091   0.105984   0.050821   0.030107   0.052750
   58  C   3  X   1.472581  -1.530216  -0.533416   0.146577  -2.430134
   59  C   3  Y   1.718308   1.938763   0.056412   1.866709   0.952634
   60  C   3  Z  -1.338892  -3.861245   1.076247   2.207763  -3.864412
   61  C   3  X   0.063080   0.255506  -0.476079   0.365344  -0.016432
   62  C   3  Y   0.569677   0.101626   0.164900   0.032061   0.146452
   63  C   3  Z  -0.877260  -0.144495  -0.544360   0.941867   0.034366
   64  C   3 XX   0.367535   0.189096   0.081685  -0.205988   0.006731
   65  C   3 YY  -0.544799  -0.356736  -0.125316   0.227727  -0.097157
   66  C   3 ZZ   0.177264   0.167640   0.043631  -0.021739   0.090426
   67  C   3 XY   0.059937   0.018113  -0.061133  -0.005533  -0.010599
   68  C   3 XZ  -0.156676  -0.153627  -0.165640   0.187366  -0.149066
   69  C   3 YZ   0.129218   0.158991  -0.170402  -0.060770  -0.299352
   70  C   3 XX  -1.784290  -1.107113  -0.595730   0.719762  -0.500452
   71  C   3 YY   2.054598   2.680856   0.055428  -0.907618   1.007439
   72  C   3 ZZ  -0.270307  -1.573743   0.540302   0.187857  -0.506988
   73  C   3 XY  -0.191036   0.941843   0.052941   1.252399   0.603567
   74  C   3 XZ   0.118714  -0.599246   0.962266  -0.197414  -0.113626
   75  C   3 YZ  -0.795492  -0.257039   0.420530   0.708896  -0.002011
   76  H   4  S  -0.150362  -0.178267   0.205292   0.125725   0.151329
   77  H   4  S  -2.432978   0.078357   4.163576  -0.597926   2.013696
   78  H   4  S  -0.142757  -0.395274   0.459130  -0.209770  -0.060611
   79  H   4  X  -0.051807   0.093825   0.292926   0.026526  -0.427375
   80  H   4  Y  -0.005990   0.161955   0.108586   0.264108  -0.191557
   81  H   4  Z  -0.006128  -0.071865   0.142162  -0.035906  -0.174432
   82  H   4  X  -0.600589   0.837413   0.995782   0.213551   0.321685
   83  H   4  Y  -0.620220   0.491062  -1.026107   0.257091  -0.552095
   84  H   4  Z   0.756207   0.105990  -0.313489   0.469841  -0.089559
   85  H   5  S  -0.176132   0.123054   0.022495   0.101380  -0.000916
   86  H   5  S  -1.802666   5.466082   0.204577   4.105621  -1.456836
   87  H   5  S  -0.119956   0.933704  -0.492809   0.720833  -0.617112
   88  H   5  X   0.043925  -0.065554  -0.027395   0.004637  -0.035683
   89  H   5  Y   0.101682   0.020472  -0.082039  -0.187638   0.430194
   90  H   5  Z  -0.114369   0.155524  -0.061456   0.117814   0.197968
   91  H   5  X   0.441088  -2.019277  -0.225305  -1.652309   0.566456
   92  H   5  Y   0.555353  -0.155021   0.895544  -0.348048  -0.444084
   93  H   5  Z  -0.277535   0.381886   0.383393  -0.211002  -0.684356
   94  H   6  S   0.082378   0.185325   0.088578   0.030510   0.041742
   95  H   6  S  -0.683720  -2.016339  -1.485203  -1.475573   1.592732
   96  H   6  S   0.456125  -0.124821  -0.183810  -0.312048   0.459861
   97  H   6  X  -0.171583   0.013382  -0.350937  -0.086838   0.328701
   98  H   6  Y   0.073007   0.051884   0.113900  -0.039011  -0.195535
   99  H   6  Z   0.156610  -0.122285   0.078639   0.253480   0.187832
  100  H   6  X  -0.645275  -0.009922  -0.229374   0.824228  -0.509479
  101  H   6  Y  -0.116004  -0.909728  -0.497175  -1.013407   0.726836
  102  H   6  Z   0.415717  -1.012769  -0.079634  -0.460753   0.583502
  103  H   7  S   0.286858  -0.159468  -0.271616  -0.644005  -0.268778
  104  H   7  S   2.205723  -3.765123  -4.369112  -5.887545  -2.529665
  105  H   7  S   0.482380  -0.504618   0.607100  -1.634269   0.384257
  106  H   7  X   0.222273  -0.376025   0.088674   0.140059  -0.122158
  107  H   7  Y  -0.096619   0.085839  -0.058661  -0.114918  -0.013864
  108  H   7  Z  -0.092452   0.087160  -0.093771  -0.213862  -0.043528
  109  H   7  X   0.068757  -0.254768   0.588278   1.063377   0.097647
  110  H   7  Y  -0.498742   0.790718   1.330837   1.403856   1.083163
  111  H   7  Z   0.456533   0.085258  -0.641105  -1.061267  -0.972249
  112  H   8  S   0.189062  -0.108072  -0.011697  -0.292161  -0.191799
  113  H   8  S   5.385207  -0.231790   2.092922  -2.035157  -3.155335
  114  H   8  S   0.496044   0.282781  -0.056834   0.106007  -0.324217
  115  H   8  X  -0.155528   0.086734  -0.109503  -0.030868   0.051492
  116  H   8  Y   0.161522   0.153388   0.118695   0.051197  -0.010930
  117  H   8  Z   0.008382   0.232719   0.089000   0.030394   0.340690
  118  H   8  X   0.306188  -0.520757   0.501944   0.316330  -0.765173
  119  H   8  Y   2.043056   1.109321   0.575433  -1.025994   0.086697
  120  H   8  Z  -0.192846   0.089166   0.505591   0.282998   0.143509
  121  H   9  S  -0.424346  -0.352007   0.239032  -0.267352  -0.599702
  122  H   9  S  -2.870983  -0.546193  -0.464801   3.354537  -4.429431
  123  H   9  S  -0.837200   0.010540  -0.169866   0.278546  -0.052535
  124  H   9  X   0.112855   0.035946  -0.060090  -0.031367  -0.112903
  125  H   9  Y  -0.137893  -0.136272   0.017962   0.058333   0.071425
  126  H   9  Z  -0.111737   0.022042   0.060442  -0.022143   0.139328
  127  H   9  X   0.196956   0.087162   0.126081   0.146843   0.131224
  128  H   9  Y  -0.356210  -0.895916   0.455849  -0.430250   0.827209
  129  H   9  Z  -0.848883  -0.228777  -0.195698   1.207215  -1.393245
  130  H  10  S   0.201792   0.214506  -0.489218   0.110363  -0.187768
  131  H  10  S  -0.912317   0.055618   3.419775  -1.838659   1.510511
  132  H  10  S  -0.098825  -0.130209   0.373501   0.338168  -0.115805
  133  H  10  X  -0.005568   0.050184  -0.024887   0.018439   0.059693
  134  H  10  Y   0.215036   0.002527  -0.260493   0.076609   0.044890
  135  H  10  Z   0.020819  -0.179644  -0.051134  -0.315375  -0.300073
  136  H  10  X   0.847638   0.032247   0.280260  -0.779414   0.138584
  137  H  10  Y  -0.494509   0.063222   1.596306  -1.000005   0.509451
  138  H  10  Z  -0.604209   0.236287   0.548591   0.050855   0.635845
  139  F  11  S  -0.012908  -0.001451  -0.042205  -0.019904  -0.011075
  140  F  11  S  -0.040968  -0.004985  -0.124199  -0.044196  -0.040991
  141  F  11  S  -0.042507   0.003731  -0.111259   0.203890  -0.072062
  142  F  11  S  -0.535626  -0.007287  -1.807801   1.327984  -0.977741
  143  F  11  X  -0.012273   0.152958  -0.326203   0.042519  -0.068989
  144  F  11  Y  -0.193954  -0.039205   0.293545  -0.257451   0.164565
  145  F  11  Z   0.203967   0.256440   0.040023   0.211807  -0.025705
  146  F  11  X   0.062426  -0.208420   0.699889  -0.114883   0.247800
  147  F  11  Y   0.288344   0.084312  -0.580090   0.428383  -0.313427
  148  F  11  Z  -0.311339  -0.387696  -0.122034  -0.395562  -0.005077
  149  F  11  X   0.136333   0.045624   0.160091  -0.320168   0.133539
  150  F  11  Y  -0.004781  -0.192359  -0.072406   0.091777   0.013047
  151  F  11  Z   0.139593   0.056945  -0.151757   0.113823  -0.350937
  152  F  11 XX  -0.001083   0.008948  -0.001435   0.002654   0.005668
  153  F  11 YY  -0.000368  -0.004187   0.001731   0.000274  -0.003385
  154  F  11 ZZ   0.001451  -0.004761  -0.000296  -0.002928  -0.002282
  155  F  11 XY  -0.007344   0.002280   0.003894  -0.007239  -0.001487
  156  F  11 XZ  -0.000873   0.007406  -0.000738  -0.000126   0.002627
  157  F  11 YZ   0.003067  -0.005985   0.003918   0.005590   0.002009
  158  F  11 XX   0.019938   0.131156   0.166858  -0.155289   0.109569
  159  F  11 YY   0.065832  -0.064324  -0.032193   0.226058  -0.068552
  160  F  11 ZZ  -0.085770  -0.066832  -0.134665  -0.070770  -0.041016
  161  F  11 XY  -0.108247  -0.070459   0.144930  -0.128563   0.110797
  162  F  11 XZ   0.142179   0.046820   0.050935   0.048774  -0.059798
  163  F  11 YZ  -0.160618  -0.169862   0.178136   0.013395   0.002880

                    116        117        118        119        120
                    1.6781     1.7014     1.7092     1.7439     1.7511
                     A          A          A          A          A   
    1  C   1  S   0.067625   0.563163  -0.023734  -0.097015   0.016948
    2  C   1  S   0.137334   1.091446  -0.041203  -0.134673   0.057476
    3  C   1  S   0.162162  -6.054108   1.257189   3.378527  -0.411873
    4  C   1  S  -0.208472  -1.585577  -1.991590   2.286889  -0.190685
    5  C   1  X  -0.034667   0.054470  -0.030937   0.003283   0.020377
    6  C   1  Y   0.010234   0.071164  -0.026824   0.145363   0.144406
    7  C   1  Z  -0.046888  -0.171721  -0.020411  -0.244253  -0.087715
    8  C   1  X   1.045507  -0.029196  -1.758541  -0.644035   0.250594
    9  C   1  Y   1.229903   1.279830   0.295650  -0.231871  -0.534563
   10  C   1  Z  -0.335436   1.700406  -1.136417  -0.781512   0.188318
   11  C   1  X   0.352601  -0.287874  -0.255654  -0.646726  -0.337918
   12  C   1  Y   0.625152   0.211932   0.289693  -0.259191  -0.572918
   13  C   1  Z   0.419663   0.085843   0.597476  -0.486352  -0.160905
   14  C   1 XX   0.148461   0.035381  -0.036940   0.032485  -0.268066
   15  C   1 YY   0.126131   0.149587   0.003533  -0.115029   0.257406
   16  C   1 ZZ  -0.274592  -0.184967   0.033407   0.082544   0.010660
   17  C   1 XY  -0.164138  -0.266330  -0.234784   0.126370   0.043867
   18  C   1 XZ  -0.288451  -0.213257   0.119368   0.011755   0.106178
   19  C   1 YZ  -0.238244  -0.017439  -0.068311   0.214568   0.123280
   20  C   1 XX  -0.602835   0.132194  -0.055622   0.088961   0.061671
   21  C   1 YY  -1.643166  -0.621571  -1.072461   0.462081   0.319657
   22  C   1 ZZ   2.246001   0.489377   1.128083  -0.551042  -0.381327
   23  C   1 XY   0.596119   0.952244   0.592003  -0.734124   1.349392
   24  C   1 XZ   1.078834   0.206696  -0.093554   0.024159  -2.013061
   25  C   1 YZ   1.339136   0.070161   0.514745  -0.793777  -0.546162
   26  C   2  S  -0.007557   0.621539   0.028582  -0.346617   0.088220
   27  C   2  S  -0.003954   1.259218  -0.017158  -0.676219   0.183224
   28  C   2  S   0.447404  -4.085635  -2.247400   6.069949  -4.725106
   29  C   2  S  -6.737797  -7.776496  -1.159632  -5.485737   3.397579
   30  C   2  X  -0.002157  -0.103285  -0.079741  -0.055130   0.065642
   31  C   2  Y  -0.023085  -0.006655   0.032199   0.033322  -0.071834
   32  C   2  Z  -0.008678   0.011830   0.268350   0.338637  -0.042441
   33  C   2  X  -2.150966  -2.853627   0.570405  -2.559736   1.820366
   34  C   2  Y  -1.183252  -4.667356   1.738204  -0.179358   2.508763
   35  C   2  Z  -2.264016  -0.657507  -2.430648  -6.546402   4.862953
   36  C   2  X   0.697353   0.892024   0.335044   0.304530   0.333752
   37  C   2  Y   0.073615   0.522330  -1.785586   1.561488   0.269749
   38  C   2  Z   1.060422   0.962357   1.144333   0.679686  -0.188075
   39  C   2 XX  -0.181016   0.385496  -0.127782   0.177196  -0.110715
   40  C   2 YY   0.340550  -0.309519   0.274631   0.021013   0.206290
   41  C   2 ZZ  -0.159534  -0.075977  -0.146849  -0.198209  -0.095575
   42  C   2 XY  -0.050458  -0.152659   0.015148   0.051819  -0.057551
   43  C   2 XZ   0.020460   0.036453   0.096848  -0.044439   0.492176
   44  C   2 YZ  -0.018903   0.063902  -0.100681   0.233641   0.228732
   45  C   2 XX   1.133400  -0.421585  -0.095110  -0.012131   0.280855
   46  C   2 YY  -2.662642   0.426640  -2.502309  -0.392220   1.726801
   47  C   2 ZZ   1.529242  -0.005056   2.597420   0.404351  -2.007656
   48  C   2 XY   0.493758  -0.272403  -1.429484  -0.658456   1.972319
   49  C   2 XZ   0.712916  -0.242232   0.508802   1.656709  -3.234162
   50  C   2 YZ   1.583185   0.094144   0.738729   0.768440  -1.247052
   51  C   3  S  -0.295561   0.470030   0.016118   0.065176  -0.321061
   52  C   3  S  -0.565996   0.845777   0.048807   0.099094  -0.695352
   53  C   3  S   2.220479  -6.755891  -2.760528  -6.766640   6.981059
   54  C   3  S   6.789330   4.125127   2.482062   2.112184  -2.018090
   55  C   3  X   0.011528   0.086073   0.000486  -0.083795  -0.261305
   56  C   3  Y  -0.116276  -0.023053   0.051740   0.000482  -0.081765
   57  C   3  Z   0.019107  -0.131549  -0.038383   0.011125  -0.185358
   58  C   3  X  -3.698258  -0.238288  -1.140676  -3.359453   6.622839
   59  C   3  Y   0.532370   1.742056  -1.969259   0.073361   3.258047
   60  C   3  Z  -4.334876  -2.077560   2.194956  -3.853382   2.911149
   61  C   3  X   0.468998   1.042980   0.831801   0.085190  -0.120860
   62  C   3  Y   0.187805   0.514019   0.817737   0.249683   0.094072
   63  C   3  Z   0.917892   1.252459   0.192461  -0.162811  -0.292166
   64  C   3 XX  -0.145778   0.055094   0.092943  -0.042543   0.037739
   65  C   3 YY   0.103774   0.132804   0.093641   0.100194  -0.258336
   66  C   3 ZZ   0.042004  -0.187898  -0.186584  -0.057651   0.220597
   67  C   3 XY   0.103621  -0.159753  -0.053460   0.044282   0.009052
   68  C   3 XZ  -0.181247  -0.053462   0.151687   0.324084  -0.145510
   69  C   3 YZ  -0.084660   0.170423   0.279056  -0.238583  -0.004344
   70  C   3 XX  -0.242717   0.045394  -1.328755  -0.246017   0.382806
   71  C   3 YY   0.395158  -0.330575  -0.333883  -0.557953   0.402498
   72  C   3 ZZ  -0.152440   0.285181   1.662639   0.803970  -0.785304
   73  C   3 XY  -0.026590   0.186473  -0.450166  -0.097020  -0.093607
   74  C   3 XZ   0.380775  -0.687023  -0.199244  -1.538646   2.159804
   75  C   3 YZ  -0.190472  -0.192609  -1.124026  -1.227774   1.450717
   76  H   4  S  -0.094986   0.032953  -0.052893  -0.142840  -0.016968
   77  H   4  S  -1.195282   0.269950  -2.718923   1.339931  -0.561992
   78  H   4  S  -0.385904  -0.158251  -0.530562  -0.368074   0.328830
   79  H   4  X   0.196964  -0.094074  -0.246504   0.033866  -0.131738
   80  H   4  Y   0.320045   0.177093   0.173842   0.127086   0.207907
   81  H   4  Z  -0.101207  -0.280588  -0.215860  -0.068847  -0.237473
   82  H   4  X  -1.357581  -0.432715  -0.329714   0.469676   0.333491
   83  H   4  Y   0.014325   0.215396   0.528627  -0.128562   0.499004
   84  H   4  Z  -0.417491  -0.216678   0.679074  -0.204061   0.121189
   85  H   5  S   0.013826  -0.019227   0.047575  -0.162675   0.113293
   86  H   5  S  -1.674264   2.793995   1.656546  -0.129752   3.655067
   87  H   5  S  -0.531012   0.508387  -0.174114   0.714884   0.204590
   88  H   5  X   0.088314  -0.081260  -0.096587  -0.066819  -0.057666
   89  H   5  Y  -0.273937   0.037085   0.198610   0.048488  -0.239521
   90  H   5  Z  -0.343165   0.028058   0.228515   0.144082   0.248696
   91  H   5  X   0.767074  -0.752241  -0.483514   0.210075  -1.388913
   92  H   5  Y  -0.433366  -0.479739  -0.579952   0.549443   0.034648
   93  H   5  Z  -0.354816  -1.045576  -0.203400   0.011668  -0.091602
   94  H   6  S   0.026095   0.371457   0.032222  -0.161550  -0.272375
   95  H   6  S   5.162846   2.553001   1.266054  -0.840266  -3.274083
   96  H   6  S   0.802600   0.147867   0.183142  -0.317073  -0.569789
   97  H   6  X  -0.199616  -0.045208   0.200647  -0.109856  -0.040461
   98  H   6  Y   0.013860   0.121029  -0.108285   0.042779   0.100941
   99  H   6  Z   0.441798  -0.036931   0.127618   0.138284   0.009500
  100  H   6  X   1.227317   0.745963   0.429248  -0.347918   0.026869
  101  H   6  Y   1.323964   0.410406   0.361285  -0.242734  -1.075076
  102  H   6  Z   0.539024   0.041566   0.304020  -0.839219  -0.659900
  103  H   7  S   0.179206   0.538609   0.395137  -0.158163  -0.470197
  104  H   7  S   5.540487   9.007334   2.723403   1.615177  -7.218204
  105  H   7  S   0.036906  -0.233229   0.849148  -0.581766  -0.407508
  106  H   7  X  -0.180044   0.289220   0.149060   0.342076   0.065965
  107  H   7  Y   0.008060  -0.122071  -0.064509  -0.130022  -0.167456
  108  H   7  Z   0.173623  -0.029325   0.043503   0.173901   0.323352
  109  H   7  X  -1.151553  -0.900361  -0.228181   0.148964   0.115306
  110  H   7  Y  -0.836003  -3.104256   0.048744  -0.197680   1.968285
  111  H   7  Z  -0.826435  -0.170312  -0.270594  -0.132282   0.955209
  112  H   8  S  -0.178493   0.447779  -0.003415   0.192690   0.400976
  113  H   8  S  -4.672506   4.348718   0.104957   0.330544   6.080042
  114  H   8  S  -0.370175   0.798550   0.542351   0.165262   0.302155
  115  H   8  X   0.013216   0.097824  -0.161244   0.163990  -0.148307
  116  H   8  Y  -0.007688  -0.004515   0.126064  -0.224374  -0.144569
  117  H   8  Z   0.075362   0.166438  -0.284339   0.033024   0.089199
  118  H   8  X  -0.995181   1.348037  -0.298462   0.073020   1.042251
  119  H   8  Y  -0.934081   0.704141   0.211058  -0.016271   1.192865
  120  H   8  Z   0.747317  -0.285998  -0.825613  -0.719438   0.778750
  121  H   9  S  -0.447441   0.086581   0.337969  -0.455381   0.086514
  122  H   9  S  -5.389172  -1.415868  -0.616928  -3.863582   0.600824
  123  H   9  S   0.165902   0.464262  -0.126585  -0.305140  -0.201062
  124  H   9  X   0.273961  -0.075641   0.145659  -0.261535  -0.199657
  125  H   9  Y   0.107324   0.325709  -0.059035  -0.273518  -0.118603
  126  H   9  Z   0.061682   0.347243  -0.246004   0.024847  -0.079102
  127  H   9  X   0.181907  -0.224107  -0.390259  -0.200439   0.463368
  128  H   9  Y   1.078178   0.036484   0.218110   1.140236  -0.103373
  129  H   9  Z  -1.493360  -0.267226   0.655890  -0.608163  -0.459487
  130  H  10  S   0.099492  -0.060390  -0.194747   0.083428  -0.018731
  131  H  10  S   0.138039   0.463614   0.598397  -1.860468   0.840924
  132  H  10  S   0.063474   0.136345  -0.045235   0.341419   0.031421
  133  H  10  X   0.054215  -0.073990  -0.057947   0.206834  -0.187257
  134  H  10  Y  -0.169542   0.112693  -0.407744   0.105087   0.156585
  135  H  10  Z  -0.008640  -0.098067   0.261833   0.002566  -0.041733
  136  H  10  X  -0.824474  -0.173996  -0.295034  -2.983456   1.918946
  137  H  10  Y   0.422210   0.074116   0.616660   0.088231  -0.269958
  138  H  10  Z  -0.033421   0.422922  -0.172495   0.553970  -0.765285
  139  F  11  S   0.005303  -0.016663   0.000865   0.057921   0.004036
  140  F  11  S   0.015026  -0.040389   0.011100   0.155471   0.010921
  141  F  11  S   0.067504   0.030230   0.091899   0.166721  -0.145382
  142  F  11  S   0.779412   0.317406  -0.665547   4.117271  -2.462410
  143  F  11  X   0.102455  -0.062031  -0.116966   0.359533  -0.311834
  144  F  11  Y   0.233133  -0.033069   0.251358   0.204714  -0.003235
  145  F  11  Z  -0.024391   0.057845   0.270834   0.180662  -0.231697
  146  F  11  X  -0.189447   0.093936   0.192815  -0.821929   0.592773
  147  F  11  Y  -0.425018   0.035066  -0.490401  -0.362540   0.030634
  148  F  11  Z   0.042094  -0.136318  -0.475743  -0.341530   0.470472
  149  F  11  X  -0.092223  -0.106440   0.075007  -1.058503   0.630677
  150  F  11  Y   0.061194  -0.031805  -0.050407   0.308349  -0.132161
  151  F  11  Z   0.085337   0.057945   0.073038   0.361054  -0.251650
  152  F  11 XX   0.002847  -0.003532  -0.000275   0.005834  -0.009938
  153  F  11 YY  -0.004298   0.002215   0.003985  -0.002836   0.004954
  154  F  11 ZZ   0.001451   0.001318  -0.003710  -0.002998   0.004985
  155  F  11 XY   0.002291  -0.002250   0.007081   0.004956  -0.001571
  156  F  11 XZ   0.001385   0.001239  -0.005401   0.003000  -0.003644
  157  F  11 YZ  -0.002449   0.005110   0.001098   0.001738  -0.001689
  158  F  11 XX  -0.046330   0.007926   0.206542  -0.200740   0.054787
  159  F  11 YY  -0.095171   0.027560  -0.040043   0.104371  -0.070451
  160  F  11 ZZ   0.141501  -0.035486  -0.166499   0.096369   0.015664
  161  F  11 XY   0.062932   0.077570   0.068271   0.220711   0.067594
  162  F  11 XZ   0.029368   0.057664   0.224005   0.182800  -0.265257
  163  F  11 YZ  -0.153008   0.123708  -0.110964   0.020935  -0.063581

                    121        122        123        124        125
                    1.7777     1.8343     1.8693     1.9037     1.9296
                     A          A          A          A          A   
    1  C   1  S  -0.083572  -0.376137   0.060178   0.006990   0.123199
    2  C   1  S  -0.201277  -0.667076   0.132963   0.022150   0.247179
    3  C   1  S   1.196113   8.992633   0.598068  -0.946908  -4.820445
    4  C   1  S   2.994704   0.026068   1.534769  -0.562841  -0.787893
    5  C   1  X   0.040442  -0.038995  -0.102342   0.049713   0.069190
    6  C   1  Y  -0.201317   0.326606   0.091013   0.047128   0.064999
    7  C   1  Z   0.193174  -0.173785   0.061506   0.116047   0.022469
    8  C   1  X   1.527741  -0.207999   0.668275   1.345314  -0.684570
    9  C   1  Y   1.828941  -1.313900  -0.012255   0.008410  -3.902107
   10  C   1  Z  -0.079443  -2.489796  -3.941902  -2.168973  -0.452468
   11  C   1  X   0.190013  -0.018980   0.357952   0.195968  -0.112806
   12  C   1  Y   1.240051  -0.031257   0.004871  -0.384049  -0.728980
   13  C   1  Z  -0.312360   0.337740  -0.804145  -0.225655  -0.288872
   14  C   1 XX  -0.121224   0.011809   0.105187  -0.232370  -0.185729
   15  C   1 YY   0.076172   0.300598  -0.179017   0.061812  -0.002917
   16  C   1 ZZ   0.045051  -0.312408   0.073830   0.170558   0.188646
   17  C   1 XY  -0.127355   0.270076   0.063965   0.226690   0.104490
   18  C   1 XZ  -0.292636   0.177958   0.164204  -0.128172   0.134597
   19  C   1 YZ  -0.191198   0.130923  -0.314802  -0.108691   0.017385
   20  C   1 XX   0.002460   0.214884  -0.042902  -0.128705   0.096820
   21  C   1 YY  -1.166514  -0.850028  -0.435534   1.248968   0.471741
   22  C   1 ZZ   1.164054   0.635144   0.478437  -1.120264  -0.568561
   23  C   1 XY   0.703000  -0.205487  -0.193221  -0.534108   0.062095
   24  C   1 XZ  -0.334910  -0.043104   0.482465   1.036925   0.709740
   25  C   1 YZ   0.667171  -0.101310  -0.419059  -0.722488   0.285965
   26  C   2  S  -0.179313  -0.268160  -0.088031   0.017102   0.027850
   27  C   2  S  -0.388583  -0.480701  -0.233051   0.011763   0.051379
   28  C   2  S   0.935400   7.890275  -1.852408  -1.975522  -4.330099
   29  C   2  S  -0.149881   2.539536  -2.406811  -3.960552  -0.044657
   30  C   2  X   0.063138  -0.083460   0.147065  -0.095615  -0.086428
   31  C   2  Y   0.163538  -0.166474   0.247899   0.231066  -0.220007
   32  C   2  Z  -0.090057   0.201655   0.131390  -0.014360  -0.241760
   33  C   2  X  -3.386982  -3.461782  -0.714065  -1.471206   4.573888
   34  C   2  Y  -3.065281   2.814719   0.515072  -1.964332   4.888739
   35  C   2  Z   0.534426  -9.707525  -3.873407  -4.123221   5.505284
   36  C   2  X  -0.713752  -0.951311  -0.179198   0.242719   0.187993
   37  C   2  Y   0.316118  -1.947335   1.652520  -0.042594   1.078096
   38  C   2  Z  -2.179494  -0.132809  -0.207326   0.583669   0.505731
   39  C   2 XX  -0.099919   0.304426   0.587306  -0.305878  -0.196538
   40  C   2 YY   0.084865   0.088274  -0.410514  -0.255427   0.110315
   41  C   2 ZZ   0.015054  -0.392700  -0.176792   0.561305   0.086222
   42  C   2 XY  -0.304949   0.291395   0.061358   0.252666   0.079388
   43  C   2 XZ   0.151147   0.193885  -0.031858  -0.263860   0.030828
   44  C   2 YZ  -0.223998   0.108537  -0.298863   0.264404   0.303009
   45  C   2 XX   1.401734  -0.097449  -0.540795   0.656504  -0.927433
   46  C   2 YY  -1.930853  -2.543210  -0.319616  -0.453524   0.165552
   47  C   2 ZZ   0.529119   2.640659   0.860411  -0.202980   0.761881
   48  C   2 XY   1.765804  -0.955938  -0.124219  -1.971001  -1.366655
   49  C   2 XZ  -0.041714   2.007854   0.730324   1.165381  -0.358769
   50  C   2 YZ   1.791129   1.796661   1.789160  -1.158724  -3.621424
   51  C   3  S   0.158377   0.072599   0.133853  -0.248474   0.028617
   52  C   3  S   0.306471   0.125377   0.279340  -0.475322   0.051945
   53  C   3  S  -5.293545  -9.488441  -5.053846   2.171259   5.528567
   54  C   3  S  -3.720606  -1.651068  -1.065266   4.298784  -0.321714
   55  C   3  X  -0.019557  -0.027641   0.023348  -0.161378   0.011569
   56  C   3  Y   0.033002   0.052217   0.082872   0.003355   0.248106
   57  C   3  Z   0.008770  -0.160921  -0.083231  -0.136558  -0.186729
   58  C   3  X  -0.745050  -5.364415  -1.093475  -3.562810   2.265233
   59  C   3  Y   0.054169  -3.472881  -2.120741  -3.262136  -3.381381
   60  C   3  Z  -1.676800  -4.685537   1.544678  -0.342927   7.242899
   61  C   3  X  -1.227683   0.268635  -0.377852   0.195991  -0.191527
   62  C   3  Y  -1.256522   1.088771  -0.773835  -0.114248  -0.521885
   63  C   3  Z   0.188231  -1.367837   0.317173   0.687613   0.384443
   64  C   3 XX   0.230676   0.059858   0.234049  -0.156559   0.030208
   65  C   3 YY  -0.356218   0.096972  -0.360056   0.068265   0.036779
   66  C   3 ZZ   0.125542  -0.156831   0.126007   0.088294  -0.066987
   67  C   3 XY   0.051859   0.036603   0.248175   0.181775  -0.043911
   68  C   3 XZ  -0.094796  -0.051497   0.061422  -0.260834  -0.353498
   69  C   3 YZ  -0.100996  -0.251051  -0.166894   0.164195   0.141081
   70  C   3 XX   0.365511  -1.749580  -0.079294   0.604644   0.266576
   71  C   3 YY   1.868970  -0.237128   0.316362  -0.732623  -1.696033
   72  C   3 ZZ  -2.234481   1.986708  -0.237068   0.127979   1.429456
   73  C   3 XY   0.956190  -1.772650  -0.427362   0.044705  -1.494968
   74  C   3 XZ   0.485408  -1.152609  -0.497164   0.355730   2.264877
   75  C   3 YZ   1.247893  -2.085304   0.510106  -0.824321   0.437661
   76  H   4  S  -0.006660  -0.028027   0.414291   0.275051   0.370932
   77  H   4  S  -3.515184   0.025642   4.406545   6.880175   4.429494
   78  H   4  S  -0.241523  -0.269396   0.502926   0.366491   0.300332
   79  H   4  X  -0.135842  -0.285797   0.086959  -0.305376  -0.029411
   80  H   4  Y   0.030149  -0.131059   0.352955  -0.112385   0.014327
   81  H   4  Z  -0.145473   0.010181   0.074627   0.074728  -0.005565
   82  H   4  X  -0.734924   0.311862   0.659444   1.353775   0.721181
   83  H   4  Y   0.536468   0.352052  -0.892333  -1.306370  -0.731854
   84  H   4  Z   0.848047  -0.137662  -1.127001  -1.310110  -0.916769
   85  H   5  S   0.099185  -0.406294  -0.121905   0.043668   0.153644
   86  H   5  S  -1.863525  -1.923371  -0.390650  -3.299042   0.522338
   87  H   5  S   0.133868  -0.009079  -0.045563   0.047936   0.342339
   88  H   5  X  -0.055784  -0.101977  -0.024305  -0.043359   0.076454
   89  H   5  Y  -0.386801  -0.380697   0.127932  -0.094339   0.088424
   90  H   5  Z   0.332685   0.148009   0.057484   0.272216  -0.058728
   91  H   5  X   0.513752   0.699833   0.176175   1.187538  -0.153427
   92  H   5  Y  -0.430616   0.302903  -0.038151   0.139880   0.146574
   93  H   5  Z   0.135727   0.242864  -0.063509   0.277073  -0.065956
   94  H   6  S   0.225126  -0.383688   0.075545  -0.093247  -0.278021
   95  H   6  S   4.435017  -1.997850   0.105544  -0.794239  -4.593227
   96  H   6  S   0.836313  -0.429784   0.204310  -0.432731  -0.436128
   97  H   6  X  -0.274985   0.019819   0.170819  -0.348972  -0.002234
   98  H   6  Y   0.017513   0.159960  -0.054648   0.248159   0.045194
   99  H   6  Z  -0.170111  -0.242732   0.313231  -0.085651   0.192643
  100  H   6  X   1.040351  -0.208228  -0.123602  -0.117824  -0.419819
  101  H   6  Y   1.222438  -1.022529  -0.116482  -0.146437  -1.412194
  102  H   6  Z   0.648902   0.335289  -0.120136  -0.109306   0.090675
  103  H   7  S   0.642572  -0.146236   0.156245   0.727455  -0.460196
  104  H   7  S   2.645495   1.608718   1.399251   4.657902  -3.056899
  105  H   7  S   0.059963   1.263496  -0.754755   0.246504  -0.605917
  106  H   7  X  -0.003470  -0.278546  -0.442785   0.154903   0.115417
  107  H   7  Y   0.113511   0.094968   0.287031   0.126923  -0.217492
  108  H   7  Z  -0.529443  -0.232617   0.334956   0.373471  -0.036176
  109  H   7  X  -1.098982   0.459790   0.379142   0.094900   0.607941
  110  H   7  Y  -0.118822   0.133699  -0.836171  -1.142409   0.819146
  111  H   7  Z  -0.463598  -0.319653  -0.802284   0.320690   1.081493
  112  H   8  S  -0.014243   0.033066  -0.118538  -0.622175   0.063781
  113  H   8  S  -2.521414  -0.285098  -1.411491  -7.122742  -0.228190
  114  H   8  S  -1.406962   0.908418  -0.565632  -0.374675  -0.326579
  115  H   8  X   0.154748  -0.141350   0.038445   0.202986  -0.124098
  116  H   8  Y  -0.046860   0.141536   0.024084  -0.075231   0.108878
  117  H   8  Z   0.004178  -0.313179  -0.397961  -0.013687  -0.250785
  118  H   8  X  -0.687115  -0.571129  -0.611024  -1.194701  -0.393359
  119  H   8  Y   0.400448  -0.370987  -0.288031  -1.509741  -0.747654
  120  H   8  Z   1.179126  -0.422053   0.053431   0.341124   0.684966
  121  H   9  S   0.275630  -0.485812   0.344903   0.178838   0.777680
  122  H   9  S   3.635207  -3.716718   5.166037  -0.144655   5.237416
  123  H   9  S   0.825482  -1.369624   0.673416   0.180887   0.605733
  124  H   9  X  -0.262377   0.281851  -0.322874   0.047825   0.199017
  125  H   9  Y  -0.071808   0.328822   0.206902   0.162103   0.320844
  126  H   9  Z  -0.041802   0.267861   0.031005   0.059471  -0.098288
  127  H   9  X   0.128475   0.284358   0.322877   0.321307   0.773789
  128  H   9  Y  -0.988263   0.738323  -1.172248   0.044243  -0.389724
  129  H   9  Z   0.243382   0.046933   1.071669   0.080651   1.537949
  130  H  10  S  -0.073514  -0.039208   0.012592   0.122673  -0.654052
  131  H  10  S  -0.057322  -0.537383  -2.290291  -0.221382   1.215373
  132  H  10  S  -0.076585  -0.038799   0.194983  -0.020166   0.127485
  133  H  10  X   0.144327   0.055959  -0.049764  -0.082183   0.214652
  134  H  10  Y   0.184617  -0.077780   0.185213  -0.172636   0.448621
  135  H  10  Z   0.121670  -0.138858  -0.218251  -0.400496  -0.167196
  136  H  10  X  -0.675720   0.331229   0.185483  -1.082298  -0.952524
  137  H  10  Y   0.395570  -0.194961  -0.734021   0.161987   0.736482
  138  H  10  Z  -0.126830   0.309241  -0.402098   0.056172   0.667183
  139  F  11  S   0.023755  -0.035034   0.035365  -0.005648   0.066884
  140  F  11  S   0.052634  -0.090007   0.094431   0.003216   0.140314
  141  F  11  S  -0.031254   0.069832  -0.034922   0.212773  -0.348927
  142  F  11  S   0.839052  -0.374079   1.091414   0.765285   1.545273
  143  F  11  X   0.134781  -0.017506  -0.016227  -0.046151   0.402841
  144  F  11  Y   0.198451   0.013640   0.002053   0.081112   0.124238
  145  F  11  Z  -0.055539   0.078139  -0.062187   0.107951  -0.058627
  146  F  11  X  -0.210171   0.087237  -0.090140  -0.038201  -0.692089
  147  F  11  Y  -0.398078  -0.020351   0.042389  -0.163094  -0.290148
  148  F  11  Z   0.108377  -0.168571   0.163438  -0.193935   0.085696
  149  F  11  X  -0.177672   0.053965  -0.221786  -0.216141  -0.400445
  150  F  11  Y   0.045274   0.041777   0.147980   0.065100   0.079563
  151  F  11  Z   0.052488  -0.014008   0.053900   0.085084   0.110185
  152  F  11 XX   0.006503   0.004619  -0.007158  -0.005554   0.024187
  153  F  11 YY  -0.001869  -0.003632   0.003212   0.006927  -0.013183
  154  F  11 ZZ  -0.004634  -0.000986   0.003946  -0.001373  -0.011004
  155  F  11 XY  -0.000484   0.001676   0.003148   0.004613  -0.004531
  156  F  11 XZ  -0.003771   0.003997   0.007688   0.011750  -0.004907
  157  F  11 YZ   0.003231  -0.001754  -0.003208  -0.006895   0.006384
  158  F  11 XX  -0.029145  -0.016297  -0.089504  -0.031830   0.334505
  159  F  11 YY  -0.028545  -0.046304   0.026309   0.096602  -0.193568
  160  F  11 ZZ   0.057690   0.062601   0.063194  -0.064772  -0.140936
  161  F  11 XY   0.247323   0.009708   0.113068  -0.016009   0.226647
  162  F  11 XZ  -0.015876   0.075619  -0.054949  -0.034115  -0.186441
  163  F  11 YZ   0.021414  -0.056773  -0.038591  -0.137900   0.108343

                    126        127        128        129        130
                    1.9441     1.9697     1.9880     2.0208     2.0705
                     A          A          A          A          A   
    1  C   1  S  -0.524728   0.599263  -0.286390  -0.138435   0.107543
    2  C   1  S  -1.011456   1.188581  -0.571075  -0.256767   0.215267
    3  C   1  S  10.875142  -6.960466   5.224738   1.809083  -2.980813
    4  C   1  S   3.020934  -3.528807   7.642363   0.736741   1.300224
    5  C   1  X   0.238626   0.054320  -0.194257   0.168093   0.241014
    6  C   1  Y   0.132265   0.067886   0.006372   0.028352  -0.244567
    7  C   1  Z  -0.052155  -0.129090   0.083829   0.083372  -0.246675
    8  C   1  X  -3.653944  -1.994078   3.630799  -4.861058  -2.363355
    9  C   1  Y  -2.069769   3.962829  -0.306366   2.442699   1.079571
   10  C   1  Z  -0.527729  -1.099521   1.732521  -0.288040   1.870324
   11  C   1  X  -0.150873  -0.137653   0.136493  -0.457174  -0.263845
   12  C   1  Y   0.286059   0.064457   0.267537   0.718064   0.258308
   13  C   1  Z  -0.152473   0.146881  -1.562978   0.128732  -0.210835
   14  C   1 XX   0.011885  -0.347277   0.183188  -0.108342  -0.150524
   15  C   1 YY   0.182765   0.155219   0.039486   0.153630  -0.133791
   16  C   1 ZZ  -0.194649   0.192058  -0.222674  -0.045289   0.284315
   17  C   1 XY   0.074266  -0.045057   0.058274   0.087996   0.016145
   18  C   1 XZ  -0.290194   0.062517   0.208811   0.077683  -0.281960
   19  C   1 YZ   0.376669  -0.455735  -0.045255  -0.132998   0.225011
   20  C   1 XX  -0.520134  -0.210263   0.683405  -0.583492  -0.351573
   21  C   1 YY  -0.213596   0.228449   0.588001   0.340401   0.373063
   22  C   1 ZZ   0.733731  -0.018185  -1.271406   0.243091  -0.021491
   23  C   1 XY  -0.476336  -0.358109   0.536437  -0.363499  -1.191727
   24  C   1 XZ   0.858651   0.202793   0.434134   0.139886   0.048664
   25  C   1 YZ   0.754800  -0.380211  -0.392428   0.057305   0.361951
   26  C   2  S   0.200994   0.192049   0.470099  -0.234221  -0.197291
   27  C   2  S   0.380429   0.223605   0.908794  -0.470072  -0.407846
   28  C   2  S  -3.257590  -9.236823  -7.975249   3.546012   1.001348
   29  C   2  S  -0.628995   0.818269 -10.480215   1.986789  -1.375090
   30  C   2  X   0.077769  -0.042046  -0.000807  -0.068659   0.061939
   31  C   2  Y  -0.117198   0.195024  -0.068467   0.162307  -0.204913
   32  C   2  Z   0.490059  -0.147328   0.008427   0.074086   0.091056
   33  C   2  X   1.197904   4.789385   2.292631  -2.055226   2.067725
   34  C   2  Y   0.545724   1.188455  -2.050494  -1.087607   2.255207
   35  C   2  Z  -1.045647   3.004471   5.855770  -5.588595   0.461784
   36  C   2  X  -0.067501   0.074270   0.531628  -0.864803  -0.378081
   37  C   2  Y  -0.010069  -0.171551   3.300696  -1.469195   0.652928
   38  C   2  Z  -0.626566   0.589610  -0.689718  -1.032908  -0.473228
   39  C   2 XX  -0.235978   0.197333  -0.215977  -0.022515  -0.118117
   40  C   2 YY   0.140039   0.158836  -0.055696   0.138048  -0.045946
   41  C   2 ZZ   0.095939  -0.356169   0.271673  -0.115533   0.164063
   42  C   2 XY  -0.086054   0.081641   0.434352  -0.039528   0.323669
   43  C   2 XZ  -0.255872  -0.134266   0.127884   0.307803  -0.249650
   44  C   2 YZ  -0.154981   0.272800  -0.200117  -0.063760   0.203810
   45  C   2 XX   0.855349  -0.814379   0.596792   0.383588  -0.284479
   46  C   2 YY  -1.014056   1.556218   2.628139  -1.219848   0.133990
   47  C   2 ZZ   0.158706  -0.741839  -3.224931   0.836260   0.150489
   48  C   2 XY   0.202016  -0.447854   0.422171  -1.514226  -1.430160
   49  C   2 XZ   1.393712  -1.356780  -2.337408   1.022374   1.006885
   50  C   2 YZ   2.962128  -0.120492   0.960286   0.521254  -2.167862
   51  C   3  S   0.321591   0.113252   0.114987   0.041654  -0.098757
   52  C   3  S   0.663197   0.196760   0.171043   0.056879  -0.172350
   53  C   3  S  -7.617294   2.748867   2.244642  -5.339569   2.120532
   54  C   3  S  -2.086099  -0.412608   1.347671  -3.446324  -0.307628
   55  C   3  X   0.080759   0.025042  -0.156055  -0.054653   0.015206
   56  C   3  Y   0.096586  -0.031500  -0.097296  -0.100998   0.113404
   57  C   3  Z   0.003881   0.174694   0.007704  -0.134246   0.035875
   58  C   3  X  -0.431492   4.117991   5.223492  -2.161546   1.169301
   59  C   3  Y   0.978458   5.628765   5.555121  -3.548156  -2.013402
   60  C   3  Z   2.464049   4.044561   2.970951  -1.930445   1.615432
   61  C   3  X  -0.357287   0.584794  -0.071073  -0.792765   0.094729
   62  C   3  Y  -0.175157   0.541714  -0.399189   0.118427   0.007158
   63  C   3  Z   0.024782   0.043641   0.870761  -0.823751  -0.153425
   64  C   3 XX  -0.087287  -0.127012  -0.255598  -0.435559  -0.220643
   65  C   3 YY  -0.138930  -0.149650  -0.030194   0.279160  -0.217562
   66  C   3 ZZ   0.226217   0.276663   0.285792   0.156399   0.438206
   67  C   3 XY  -0.017275  -0.231939  -0.112232   0.273434   0.359570
   68  C   3 XZ  -0.004682   0.043837  -0.260843   0.012041   0.048048
   69  C   3 YZ   0.224524   0.111682   0.381777   0.129531   0.225007
   70  C   3 XX   0.223819  -0.422549   1.523400   0.736058   0.289819
   71  C   3 YY   0.064563  -0.619779  -0.182811  -0.223195  -1.396539
   72  C   3 ZZ  -0.288382   1.042327  -1.340589  -0.512864   1.106719
   73  C   3 XY   1.191297   0.558714   1.756926  -0.791463  -1.459298
   74  C   3 XZ   0.379117   1.084630   1.419184  -1.160254  -0.568950
   75  C   3 YZ   0.466482   0.421934   1.847730  -0.555988  -1.123505
   76  H   4  S  -0.626143   0.153137   0.298004  -0.405380  -0.547008
   77  H   4  S  -3.373629  -0.945986   1.805114  -5.361677  -2.562042
   78  H   4  S  -0.289575   0.110886   0.416471  -0.472033  -0.243087
   79  H   4  X   0.094627  -0.013512  -0.205714   0.170807   0.135575
   80  H   4  Y   0.050014  -0.383532   0.110673  -0.167691  -0.212849
   81  H   4  Z  -0.123497   0.267748   0.055746   0.237959  -0.323441
   82  H   4  X  -0.879184  -0.147395   0.318868  -0.789635  -0.317140
   83  H   4  Y   0.309571  -0.082964  -0.404953   0.585231   0.242315
   84  H   4  Z   0.765595   0.492363  -0.264427   1.290659   0.599669
   85  H   5  S   0.203144   0.579933  -0.756981   0.554592   0.481811
   86  H   5  S   0.887994   4.984446  -5.905561   5.114128   1.409614
   87  H   5  S  -0.080518   0.382258   0.036972   0.238391   0.441226
   88  H   5  X   0.265814   0.092216  -0.165839   0.256379   0.136824
   89  H   5  Y   0.237291  -0.210355   0.046284  -0.203782   0.012518
   90  H   5  Z  -0.196144  -0.142289  -0.321296  -0.247226   0.184820
   91  H   5  X  -0.181495  -1.639884   1.771379  -1.569132  -0.280810
   92  H   5  Y   0.002084   0.232994  -0.206455   0.205406   0.425465
   93  H   5  Z  -0.425391  -0.446269   0.493857  -0.446611  -0.203190
   94  H   6  S  -0.719084   0.556975  -0.239670  -0.153804   0.197674
   95  H   6  S  -5.274691   4.304980  -1.731362   0.925461   1.952785
   96  H   6  S  -0.099566   0.222762  -0.160137   0.254411   0.135441
   97  H   6  X   0.088544   0.137381  -0.123168   0.432672  -0.156248
   98  H   6  Y   0.153634  -0.056183   0.042041  -0.023203  -0.148771
   99  H   6  Z   0.098502  -0.042305  -0.219217  -0.191905   0.130340
  100  H   6  X  -0.734467   0.429069  -0.037165  -0.044650   0.009318
  101  H   6  Y  -1.851574   1.204645  -0.470742   0.396900   0.799432
  102  H   6  Z   0.284979   0.477782  -0.373288   0.075268   0.032903
  103  H   7  S   0.100100  -0.031680  -0.053639   0.419345  -0.330327
  104  H   7  S   0.408322  -3.022423  -1.169183   2.918381  -0.171788
  105  H   7  S   0.192825  -0.219620  -1.425266   1.133197  -0.278092
  106  H   7  X  -0.043989  -0.162047  -0.399971   0.280289  -0.326895
  107  H   7  Y  -0.004867  -0.122845  -0.008451   0.045156  -0.128221
  108  H   7  Z  -0.356989  -0.130607  -0.026717   0.207443   0.003209
  109  H   7  X  -0.434529   0.493628   0.479283   0.075302   0.447063
  110  H   7  Y   0.110082   0.811867   0.004310  -0.253707  -0.025816
  111  H   7  Z  -0.956798   0.174373  -0.241114  -0.066595   0.563030
  112  H   8  S   0.141935   0.830331   0.528863  -0.096276  -0.041501
  113  H   8  S   0.811093   7.680362   5.113304  -2.541090   1.593351
  114  H   8  S  -0.064528   0.733781  -0.020444  -0.516193   0.005798
  115  H   8  X   0.159757  -0.054462   0.012961  -0.355684  -0.020327
  116  H   8  Y  -0.171210  -0.433826  -0.289092   0.543823  -0.036788
  117  H   8  Z  -0.273735  -0.321043   0.247497   0.350990  -0.179894
  118  H   8  X   0.533844   1.601873   1.745464  -0.224917   0.419146
  119  H   8  Y   0.395548   1.348286   0.833910  -0.936701  -0.471706
  120  H   8  Z   0.251479  -0.302004   0.987768  -0.525047  -1.043824
  121  H   9  S   0.360973  -0.181056   0.152873   0.121686  -0.087551
  122  H   9  S   4.737138  -1.820811   3.870123   2.200419  -0.281649
  123  H   9  S   0.158931  -0.085333   0.414073  -0.502969  -0.175335
  124  H   9  X  -0.208661   0.055446  -0.419295  -0.464650  -0.220472
  125  H   9  Y  -0.022910  -0.220696  -0.023645   0.214848   0.513678
  126  H   9  Z  -0.178354  -0.037305   0.041505   0.182158   0.351817
  127  H   9  X   0.104944  -0.188907   0.236431   0.293893   0.190930
  128  H   9  Y  -1.056433   0.424946  -0.741706  -0.492540   0.079050
  129  H   9  Z   1.306266  -0.566234   0.524662   0.554415   0.103713
  130  H  10  S   0.201652   0.030331  -0.317688  -0.258939   0.015490
  131  H  10  S   1.208171   0.699533  -0.347748  -3.718926  -0.990527
  132  H  10  S   0.084788   0.014938   0.461030   0.270374   0.084048
  133  H  10  X   0.034615  -0.111471  -0.012693   0.034198  -0.171786
  134  H  10  Y  -0.022676   0.058563   0.040229  -0.042020   0.024921
  135  H  10  Z  -0.446370  -0.282765   0.221694  -0.104750   0.494833
  136  H  10  X  -1.353608  -1.722497  -1.674940   0.254940   0.854056
  137  H  10  Y   0.383087   0.484271  -0.033517  -1.012572  -0.535917
  138  H  10  Z   0.391048   0.162307   0.062678  -0.385090  -0.253476
  139  F  11  S  -0.060569   0.031757   0.044349  -0.052193   0.103474
  140  F  11  S  -0.140805   0.095133   0.112919  -0.115133   0.252617
  141  F  11  S   0.345814   0.158096   0.013063   0.289523  -0.349016
  142  F  11  S   0.183178   0.866867   2.152055   0.741416   0.111608
  143  F  11  X  -0.152797  -0.069468   0.122657   0.052616  -0.013842
  144  F  11  Y   0.100034   0.128850   0.077397   0.062117  -0.082318
  145  F  11  Z  -0.037632   0.154111   0.151510   0.137784   0.071699
  146  F  11  X   0.322377  -0.001389  -0.355254  -0.187524  -0.094996
  147  F  11  Y  -0.229009  -0.299256  -0.177175  -0.081303   0.223154
  148  F  11  Z   0.018929  -0.317606  -0.365370  -0.291768  -0.118118
  149  F  11  X  -0.144558  -0.313347  -0.521010  -0.322873   0.080823
  150  F  11  Y  -0.076774  -0.052794   0.066406   0.130526   0.093895
  151  F  11  Z  -0.120223   0.078488   0.228204   0.079320   0.135027
  152  F  11 XX  -0.005124  -0.007748  -0.000678   0.004555  -0.013187
  153  F  11 YY  -0.001141   0.007207  -0.004509  -0.004826   0.009476
  154  F  11 ZZ   0.006265   0.000541   0.005187   0.000271   0.003710
  155  F  11 XY   0.005102   0.003071   0.000770   0.007988  -0.003189
  156  F  11 XZ   0.000484   0.008999  -0.001089   0.003941  -0.002928
  157  F  11 YZ  -0.001675  -0.001880   0.001182  -0.005878  -0.001610
  158  F  11 XX  -0.274544  -0.014921   0.110588   0.116987   0.085914
  159  F  11 YY   0.104964   0.087833  -0.052071  -0.051694   0.011078
  160  F  11 ZZ   0.169580  -0.072912  -0.058517  -0.065293  -0.096992
  161  F  11 XY   0.131478   0.141781   0.103182   0.104380  -0.092547
  162  F  11 XZ  -0.142746   0.033810   0.251162   0.105416   0.159020
  163  F  11 YZ  -0.056538  -0.056388  -0.064030  -0.150284   0.013078

                    131        132        133        134        135
                    2.0846     2.1211     2.1303     2.1890     2.2093
                     A          A          A          A          A   
    1  C   1  S   0.180723   0.155284  -0.080485  -0.460797   0.420224
    2  C   1  S   0.331569   0.300678  -0.131800  -0.756531   0.730261
    3  C   1  S  -6.036287  -2.080919   1.732086   9.944374 -10.799538
    4  C   1  S  -0.934549  -0.459185   1.882083   0.591455  -1.800784
    5  C   1  X   0.069018  -0.275894   0.408901  -0.038176   0.152277
    6  C   1  Y   0.248130   0.293753   0.187255   0.050673   0.069891
    7  C   1  Z   0.216222   0.143751   0.120191   0.060856  -0.014200
    8  C   1  X  -4.096169   3.520160  -1.550005  -1.248666   0.888722
    9  C   1  Y  -7.423860  -2.709111  -2.946916   0.932277  -7.622971
   10  C   1  Z  -2.169677  -2.356053  -1.435599  -2.448263   8.908241
   11  C   1  X  -0.130757   0.137642  -0.264573   0.058578   0.250366
   12  C   1  Y  -0.592259  -0.198999  -0.223685   0.590352  -0.502685
   13  C   1  Z  -0.251337  -0.024138  -0.578251   0.004045   0.749175
   14  C   1 XX  -0.017994  -0.064676  -0.202615  -0.631918  -0.203446
   15  C   1 YY   0.124134   0.196426   0.127424  -0.180542   0.166083
   16  C   1 ZZ  -0.106139  -0.131750   0.075191   0.812460   0.037363
   17  C   1 XY   0.052302  -0.181999   0.090352   0.065369  -0.120014
   18  C   1 XZ  -0.044798   0.133614  -0.224627   0.232082  -0.009564
   19  C   1 YZ  -0.163699  -0.114924  -0.257624  -0.711656   0.038344
   20  C   1 XX  -0.800864   0.342807  -0.698791   0.113222   1.020419
   21  C   1 YY   0.531662  -1.229698   0.241277  -0.127306   0.389419
   22  C   1 ZZ   0.269202   0.886891   0.457514   0.014084  -1.409838
   23  C   1 XY   1.027836   0.409290   0.337649  -0.447681   0.140872
   24  C   1 XZ   0.841579   0.737320   0.318825   0.034405   0.032507
   25  C   1 YZ   1.025462   0.441433   0.822502   0.443011   2.688258
   26  C   2  S   0.000069  -0.326312   0.009802  -0.208605   0.121155
   27  C   2  S   0.014279  -0.683700   0.026415  -0.471412   0.214327
   28  C   2  S   0.720308   4.229444   1.258843   4.157963  -4.587014
   29  C   2  S  -0.453153  -4.310198  -8.337188  10.085210   4.440562
   30  C   2  X  -0.154531   0.258014   0.005074  -0.092424   0.222337
   31  C   2  Y  -0.089479  -0.020948   0.079053   0.074803   0.060371
   32  C   2  Z  -0.268028   0.128612  -0.189666  -0.278843   0.071234
   33  C   2  X   1.933169  -1.630724  -2.784150  -1.261716   8.080295
   34  C   2  Y   0.810034   0.032426  -1.928007   4.168709  -2.039020
   35  C   2  Z   3.632120  -0.129060  -0.437337  -6.328745  17.520607
   36  C   2  X   0.252257   0.937070   0.456649  -1.375112  -0.284076
   37  C   2  Y  -0.343047   0.714811   1.276387  -2.026007  -1.739011
   38  C   2  Z   0.196946   0.918356   1.338193  -1.700313   0.868794
   39  C   2 XX  -0.035356  -0.301811   0.333559   0.156655  -0.041503
   40  C   2 YY  -0.142327   0.455906  -0.167210   0.109784   0.070735
   41  C   2 ZZ   0.177682  -0.154095  -0.166349  -0.266439  -0.029232
   42  C   2 XY  -0.028196  -0.435329   0.201963  -0.098541  -0.006325
   43  C   2 XZ   0.271370  -0.503279  -0.132938  -0.109202  -0.452480
   44  C   2 YZ   0.302042   0.274895  -0.067025   0.387219  -0.351980
   45  C   2 XX  -0.576927   0.629633   0.830163   0.150370  -1.431722
   46  C   2 YY  -1.578120  -1.663952  -1.318112  -0.696090  -0.066398
   47  C   2 ZZ   2.155047   1.034319   0.487948   0.545719   1.498120
   48  C   2 XY  -1.405211   0.890541   0.052314  -0.315313  -1.379988
   49  C   2 XZ   0.070040   1.266023   1.307502   1.479739  -1.668530
   50  C   2 YZ  -1.899123   0.842896   0.715673   0.402051  -4.441748
   51  C   3  S  -0.190865   0.153479   0.101688   0.205134  -0.534372
   52  C   3  S  -0.403470   0.344915   0.159188   0.403498  -0.998931
   53  C   3  S   5.644816  -4.956141  -6.809859  -5.173211  15.308636
   54  C   3  S   1.556589   3.566890   4.455955  -7.266055  -1.977358
   55  C   3  X  -0.080064   0.226546  -0.096597   0.086976   0.171610
   56  C   3  Y  -0.160740   0.015105  -0.063642   0.070992  -0.225227
   57  C   3  Z   0.069682   0.339175   0.110944   0.067527   0.377834
   58  C   3  X  -1.548149   0.911891   2.579615  -3.736822   7.680632
   59  C   3  Y  -0.966823  -0.126553   1.191934  -2.885948   2.425128
   60  C   3  Z   1.023978  -2.430863  -4.666303  -1.971003   9.521928
   61  C   3  X   0.072353   0.628874   1.037789  -1.050799   0.318684
   62  C   3  Y   0.182512   0.110550   0.323246  -0.125483   0.806220
   63  C   3  Z   0.087217   0.902349   0.445735  -1.753180  -0.341021
   64  C   3 XX   0.027675  -0.374302   0.145753   0.128400  -0.327330
   65  C   3 YY  -0.110834  -0.096634   0.145741  -0.145335   0.331685
   66  C   3 ZZ   0.083159   0.470936  -0.291494   0.016935  -0.004355
   67  C   3 XY  -0.055103   0.267160  -0.347614   0.006946   0.208768
   68  C   3 XZ  -0.135789   0.287314  -0.007742  -0.032756   0.501994
   69  C   3 YZ  -0.016576   0.274894  -0.151327  -0.037025   0.103557
   70  C   3 XX  -0.414413   0.351594   0.376780  -0.515502  -0.277068
   71  C   3 YY  -0.412591   0.664645   0.185722  -0.338968  -1.413435
   72  C   3 ZZ   0.827004  -1.016239  -0.562502   0.854470   1.690504
   73  C   3 XY  -0.464551  -0.515838  -0.207266  -0.654684  -0.805805
   74  C   3 XZ   0.307872  -1.079375  -0.366254  -0.829389   1.977710
   75  C   3 YZ  -0.561089  -0.357087   0.152166  -1.293905   0.208103
   76  H   4  S   0.608644   0.580117   0.066539  -0.341256   0.128299
   77  H   4  S   4.349189   6.338090   1.548249  -2.314965  -2.097357
   78  H   4  S   0.462842   0.192603  -0.086041  -0.212561  -0.197865
   79  H   4  X   0.314579  -0.277190   0.002834  -0.398264  -0.175639
   80  H   4  Y   0.328901   0.050203   0.176966   0.504917  -0.038824
   81  H   4  Z   0.318149   0.276108  -0.161818  -0.294100  -0.294392
   82  H   4  X   0.306250   0.874978  -0.102747   0.034669  -0.238726
   83  H   4  Y  -0.730050  -0.570956  -0.366699  -0.247622  -0.140252
   84  H   4  Z  -1.182094  -2.004337  -0.543609   0.826761   0.404591
   85  H   5  S   0.757979  -0.240890   0.305111  -0.080969   0.104731
   86  H   5  S   6.246500  -4.829088   1.641621  -1.457662  -3.469466
   87  H   5  S  -0.043065  -0.116920   0.304399  -0.119190  -0.459316
   88  H   5  X   0.046699  -0.233750   0.430995   0.325961   0.123082
   89  H   5  Y   0.320551   0.213018   0.094985   0.171938   0.318007
   90  H   5  Z   0.310040  -0.019871   0.160798  -0.532674  -0.143477
   91  H   5  X  -1.825491   1.618887  -0.401202   0.153156   0.695102
   92  H   5  Y  -0.166428  -0.387315  -0.149799  -0.259587  -0.142137
   93  H   5  Z  -1.014288   0.377174  -0.285921   0.736062   0.383516
   94  H   6  S  -0.981553  -0.097312  -0.520726  -0.125818  -0.088011
   95  H   6  S  -9.677073   1.044850  -4.535276  -2.493324  -4.550867
   96  H   6  S  -0.301893  -0.099540  -0.311375   0.338068  -0.385683
   97  H   6  X   0.271137  -0.228994  -0.038893  -0.073099  -0.320070
   98  H   6  Y   0.209699   0.184287   0.311091  -0.097303   0.418882
   99  H   6  Z   0.129107   0.310070  -0.052374  -0.462421  -0.251402
  100  H   6  X  -1.045576   0.516992  -0.379518  -0.281136  -0.385285
  101  H   6  Y  -2.774123   0.086398  -1.508155  -0.850045  -1.060572
  102  H   6  Z   0.125698   0.277717   0.204511   0.849279   0.500246
  103  H   7  S   0.226998  -0.133106   0.250453  -0.338614   0.167976
  104  H   7  S   1.784247   1.525405   4.570128  -2.972112   1.389625
  105  H   7  S   0.280290  -0.608276  -0.413587   0.962759   0.788269
  106  H   7  X  -0.014777   0.274114  -0.175924   0.170390  -0.201037
  107  H   7  Y   0.070773  -0.159528   0.141527  -0.132273   0.237465
  108  H   7  Z  -0.364899  -0.361373   0.034622   0.034999   0.122081
  109  H   7  X  -0.049384  -0.794306  -0.403655   0.270386  -0.276442
  110  H   7  Y  -0.176442   0.055860  -0.954505   0.713396  -0.391295
  111  H   7  Z   0.343295  -0.527693  -0.709486   0.269881   0.202892
  112  H   8  S  -0.059534   0.248663   0.541812  -0.149186   0.027717
  113  H   8  S  -2.785823   2.537302   7.131800  -2.093211   5.758565
  114  H   8  S  -0.104580   0.367643   0.578067  -0.440014   0.770967
  115  H   8  X   0.182114  -0.257788  -0.187919   0.214091  -0.597412
  116  H   8  Y  -0.255477   0.310211  -0.018507  -0.105797   0.343263
  117  H   8  Z   0.067191   0.049072   0.081748  -0.072819  -0.123800
  118  H   8  X  -0.887960   0.858960   1.980211  -0.555370   0.693522
  119  H   8  Y  -0.717877   0.430202   1.368106  -0.479323   0.239325
  120  H   8  Z   0.058308  -0.549228   0.465058  -0.509511  -0.559948
  121  H   9  S  -0.074478  -0.099581  -0.201471  -0.021762   0.045783
  122  H   9  S  -2.238907  -0.462833  -2.789120  -0.860534   0.529196
  123  H   9  S  -0.160268   0.432077   0.015792  -0.533472  -0.429865
  124  H   9  X   0.183170  -0.283863  -0.127966   0.095311   0.133024
  125  H   9  Y   0.047767   0.107126  -0.200511   0.136581  -0.387263
  126  H   9  Z   0.301961   0.204098  -0.060904   0.223268   0.131916
  127  H   9  X   0.006463  -0.106680  -0.137967   0.014638  -0.063681
  128  H   9  Y   0.496420  -0.414664   0.640553   0.296756   0.170729
  129  H   9  Z  -0.606715  -0.430900  -0.674978   0.207610  -0.065644
  130  H  10  S   0.304167   0.090103  -0.636340   0.276731   0.050094
  131  H  10  S   2.440664  -2.383648  -2.645724   1.087270   1.970781
  132  H  10  S  -0.083887   0.026670   0.118535  -0.466091   0.098743
  133  H  10  X   0.231730  -0.264766  -0.382681   0.129655   0.299674
  134  H  10  Y   0.098441  -0.200894  -0.493687  -0.004816   0.452737
  135  H  10  Z   0.404936   0.047255   0.047370   0.104281   0.165018
  136  H  10  X  -0.775093   1.703545   1.553509  -0.125127  -0.239014
  137  H  10  Y   0.460265  -0.758651  -0.677804   0.200011   0.397527
  138  H  10  Z   0.579337  -0.421166  -0.185825   0.323823   0.041450
  139  F  11  S  -0.095730   0.111644   0.205687  -0.060583  -0.123870
  140  F  11  S  -0.231082   0.268057   0.484541  -0.145695  -0.297844
  141  F  11  S   0.401486  -0.520552  -0.959700   0.231706   0.440835
  142  F  11  S  -1.056217   0.429106   1.735526  -1.217178  -1.376544
  143  F  11  X  -0.117615   0.010153   0.273259  -0.099276  -0.048391
  144  F  11  Y   0.055030  -0.122257  -0.148739  -0.007192   0.096734
  145  F  11  Z   0.125939  -0.141759  -0.075589  -0.010031   0.003294
  146  F  11  X   0.412463  -0.188375  -0.817196   0.323248   0.300196
  147  F  11  Y  -0.140366   0.325538   0.365302   0.013347  -0.211325
  148  F  11  Z  -0.280762   0.371762   0.171241  -0.004097   0.003719
  149  F  11  X   0.272927  -0.120811  -0.426212   0.272498   0.352794
  150  F  11  Y  -0.085953   0.142597   0.283384  -0.124331  -0.093682
  151  F  11  Z  -0.235413   0.180996   0.322912  -0.253942  -0.199902
  152  F  11 XX   0.011060  -0.020294  -0.009324  -0.001583   0.021098
  153  F  11 YY   0.000341   0.009924  -0.001577  -0.006494  -0.008204
  154  F  11 ZZ  -0.011400   0.010370   0.010901   0.008077  -0.012894
  155  F  11 XY   0.000419  -0.000380  -0.004881   0.002052   0.004824
  156  F  11 XZ   0.002503  -0.000665  -0.008926   0.002659  -0.004235
  157  F  11 YZ  -0.001561   0.000228   0.002679   0.002321  -0.009001
  158  F  11 XX  -0.227070   0.088194   0.562655  -0.219039  -0.155707
  159  F  11 YY   0.156953  -0.110341  -0.335683   0.052297   0.106932
  160  F  11 ZZ   0.070117   0.022147  -0.226972   0.166742   0.048775
  161  F  11 XY   0.069567  -0.171960  -0.318589  -0.005685   0.200337
  162  F  11 XZ   0.249802  -0.157964  -0.141374   0.057126   0.020365
  163  F  11 YZ  -0.020294   0.050779   0.053334   0.037702  -0.037170

                    136        137        138        139        140
                    2.2606     2.2879     2.3884     2.4345     2.4652
                     A          A          A          A          A   
    1  C   1  S   0.019036   0.677822  -0.176311  -0.271706   0.075459
    2  C   1  S   0.022133   1.167338  -0.298155  -0.490217   0.159167
    3  C   1  S  -1.005719 -17.485583   6.982640   1.738422  -1.013338
    4  C   1  S   0.816201  -0.722756   1.765170   2.102754  -1.054106
    5  C   1  X  -0.230355   0.162075   0.126919   0.249122  -0.074555
    6  C   1  Y  -0.128028   0.244329  -0.053764   0.069677  -0.188836
    7  C   1  Z  -0.297200   0.304337  -0.069504   0.067240  -0.154111
    8  C   1  X  -2.444562   0.446503  -0.547825  -0.599101  -0.779004
    9  C   1  Y  -4.045802  -5.350739   0.077510   0.634782  -0.344929
   10  C   1  Z   2.990452  12.296160  -3.166669  -3.748656   0.301402
   11  C   1  X  -0.306316   0.195774  -0.185018  -0.063806  -0.189718
   12  C   1  Y  -0.874566  -0.401168   0.145711   0.199140  -0.211062
   13  C   1  Z  -0.287909   0.761331  -0.406819  -0.690932   0.231435
   14  C   1 XX  -0.002298   0.163624   0.052225  -0.301474  -0.473801
   15  C   1 YY  -0.097926   0.099409   0.247709  -0.052219   0.626369
   16  C   1 ZZ   0.100224  -0.263033  -0.299934   0.353693  -0.152568
   17  C   1 XY   0.215649   0.133231  -0.465994   0.114613  -0.634722
   18  C   1 XZ   0.105443   0.087116   0.043962   0.622295   0.389910
   19  C   1 YZ   0.017764   0.373812  -0.253248   0.352983   0.147735
   20  C   1 XX   1.058749   0.697956  -0.151440  -1.086310  -0.111406
   21  C   1 YY  -0.169119   1.036754   0.618677  -0.790811   0.186320
   22  C   1 ZZ  -0.889630  -1.734710  -0.467237   1.877120  -0.074914
   23  C   1 XY  -0.159871   0.826454  -0.086225  -0.121076  -1.231897
   24  C   1 XZ   0.259056   0.613388  -0.145586   1.496605   0.615225
   25  C   1 YZ   0.824790   1.867165  -0.916557   0.296347   0.337502
   26  C   2  S   0.494215  -0.133314  -0.173040   0.308201  -0.093522
   27  C   2  S   0.921147  -0.231851  -0.372915   0.578844  -0.109031
   28  C   2  S -11.347141   2.730550   4.162387  -3.856693   2.279468
   29  C   2  S  -8.148929   0.047003  -4.435044  -5.321154   0.064705
   30  C   2  X   0.215839  -0.198299  -0.114259   0.176248  -0.030048
   31  C   2  Y   0.305135  -0.302654  -0.378028   0.256338   0.224452
   32  C   2  Z   0.395135  -0.084150   0.034880   0.069695  -0.026906
   33  C   2  X   7.104135   7.793311  -3.718520  -0.260667   0.388056
   34  C   2  Y   1.470016  -4.913054  -1.226091   2.239546  -0.077184
   35  C   2  Z   8.519046  19.207659  -7.514143  -2.857620  -2.148459
   36  C   2  X   1.333497   0.042178   0.412930   0.284248   0.143102
   37  C   2  Y   1.689459   0.188176   0.774343   1.111606  -0.404387
   38  C   2  Z   2.242675   0.482779   0.030799  -0.292615   0.472218
   39  C   2 XX  -0.149681  -0.098570   0.149862   0.189482   0.193984
   40  C   2 YY   0.172181   0.149083  -0.119559   0.000865   0.094371
   41  C   2 ZZ  -0.022500  -0.050513  -0.030303  -0.190347  -0.288355
   42  C   2 XY  -0.196046  -0.207194  -0.109761   0.059013  -0.022477
   43  C   2 XZ  -0.048832  -0.171090   0.350737   0.089617   0.652115
   44  C   2 YZ  -0.121774  -0.601620  -0.141666   0.190408   0.005521
   45  C   2 XX  -1.679799  -2.257796   0.610724   0.499179   0.001080
   46  C   2 YY  -0.301884   2.905277  -0.126509  -2.702296  -0.889420
   47  C   2 ZZ   1.981683  -0.647481  -0.484215   2.203116   0.888339
   48  C   2 XY  -2.138576  -1.541066   1.068556  -1.310048  -1.118278
   49  C   2 XZ  -0.696431  -3.048805   0.756301   1.111127   1.361177
   50  C   2 YZ  -1.037324  -5.233215   2.746130   0.011371  -0.437401
   51  C   3  S  -0.925251  -0.431186   0.109692   0.119251  -0.267505
   52  C   3  S  -1.733185  -0.746017   0.209586   0.226484  -0.521538
   53  C   3  S  15.292226  20.544250  -5.930067  -1.263698  -0.228492
   54  C   3  S   7.535355   1.320400   2.815673   1.996795   1.378612
   55  C   3  X  -0.133956   0.308458   0.161889   0.122983  -0.302994
   56  C   3  Y  -0.155179   0.117543   0.091405  -0.050070  -0.007814
   57  C   3  Z   0.249887   0.381991  -0.292755   0.016746  -0.248293
   58  C   3  X   4.220113   4.820628  -6.720406  -2.661648  -0.572173
   59  C   3  Y   0.939951   0.750055  -0.282688  -2.205226  -2.734026
   60  C   3  Z   8.803265   8.295821  -4.321688  -0.295826  -0.441200
   61  C   3  X   1.025884   0.059715  -0.344891   0.084626   0.250580
   62  C   3  Y   0.127333  -0.320726  -0.332245  -0.409440   0.204393
   63  C   3  Z   1.475581   0.700519   0.400273   0.726771  -0.053920
   64  C   3 XX   0.230933   0.626019  -0.049712   0.152542   0.321002
   65  C   3 YY  -0.567279  -0.363185   0.090093  -0.083664  -0.222798
   66  C   3 ZZ   0.336346  -0.262833  -0.040381  -0.068878  -0.098204
   67  C   3 XY   0.254747   0.313911   0.271289   0.024342  -0.082330
   68  C   3 XZ   0.298778  -0.116129   0.173682   0.573608  -0.403202
   69  C   3 YZ   0.021626  -0.094920  -0.190548   0.201262  -0.331119
   70  C   3 XX  -1.200137   0.602060  -0.705514  -0.520587   0.212183
   71  C   3 YY  -1.219946  -0.557321   1.282017   0.328663  -0.714801
   72  C   3 ZZ   2.420083  -0.044739  -0.576503   0.191924   0.502618
   73  C   3 XY  -0.710429   1.024081   0.896035  -0.190352  -0.654370
   74  C   3 XZ   1.819262   0.341669  -0.664096  -0.245171  -0.428239
   75  C   3 YZ  -0.113925   1.275168  -0.149885  -0.342895  -0.449381
   76  H   4  S  -0.010936   0.149800   0.035042   0.248439  -0.143953
   77  H   4  S  -2.333672  -2.777950   2.524487   0.792017   0.590212
   78  H   4  S   0.145232  -0.190665  -0.052274   0.240880  -0.063400
   79  H   4  X   0.242758  -0.325887   0.297153  -0.463836  -0.072509
   80  H   4  Y   0.177428  -0.094303  -0.120706  -0.404598  -0.602350
   81  H   4  Z  -0.167908  -0.008435   0.224293  -0.178738   0.148822
   82  H   4  X  -0.176379  -0.778243   0.413803  -0.342911   0.329628
   83  H   4  Y   0.160277   0.251875  -0.359694  -0.052044  -0.229027
   84  H   4  Z   0.987215   0.310820  -0.532020  -0.216696  -0.192491
   85  H   5  S   0.128414   0.150476  -0.242252   0.023094   0.318457
   86  H   5  S   0.235935  -0.795479   1.482754  -0.775325  -1.517080
   87  H   5  S   0.018361  -0.250098   0.119172   0.240619   0.064036
   88  H   5  X  -0.261206   0.139951   0.165910   0.331182   0.047472
   89  H   5  Y   0.036408  -0.268024   0.517455  -0.281859   0.626267
   90  H   5  Z  -0.254594  -0.360724   0.088337  -0.360268  -0.309947
   91  H   5  X  -0.162439   0.113033  -0.442725   0.644687   0.738195
   92  H   5  Y   0.304741   0.056120   0.035370  -0.068791   0.299896
   93  H   5  Z   0.195836  -0.724412  -0.106883  -0.196495   0.224639
   94  H   6  S  -0.304426   0.085281  -0.116188  -0.317099  -0.249521
   95  H   6  S  -3.797730  -1.451913  -4.056091   3.095384   1.428790
   96  H   6  S  -0.754948  -0.221406   0.106588  -0.056459  -0.179812
   97  H   6  X   0.188312   0.297801  -0.350164   0.026678  -0.727348
   98  H   6  Y  -0.234862   0.444419   0.119076  -0.015393  -0.038499
   99  H   6  Z  -0.335396  -0.033284  -0.387497   0.763601   0.170287
  100  H   6  X  -0.181467  -0.162509  -0.571633   0.308514   0.049454
  101  H   6  Y  -1.133075   0.040836  -1.476696   1.087113   0.606297
  102  H   6  Z   0.080888  -0.525077  -0.241841   0.368114   0.068019
  103  H   7  S   0.107963   0.009345   0.365486   0.247847  -0.205878
  104  H   7  S   2.258707  -1.374617   0.698126   3.548166   1.941848
  105  H   7  S  -0.913293  -0.019600  -0.181734  -0.502856   0.216107
  106  H   7  X   0.349986   0.052069  -0.217344   0.042834   0.115970
  107  H   7  Y   0.309871  -0.411652  -0.520145   0.511277   0.376575
  108  H   7  Z  -0.275324   0.193927   0.001204  -0.138353   0.021783
  109  H   7  X   0.084136   0.714892  -0.088930  -0.168795  -0.021030
  110  H   7  Y  -0.772501   0.204991   0.146431  -0.586156  -0.535832
  111  H   7  Z  -0.490850   0.770396  -0.620374  -0.025908   0.160269
  112  H   8  S  -0.371576  -0.788683  -0.416827  -0.031832  -0.211779
  113  H   8  S   1.875219  -3.452803  -5.340405  -2.601483  -2.037487
  114  H   8  S   0.050900  -0.224004  -0.732677  -0.320721   0.122153
  115  H   8  X  -0.054133   0.531363   0.324207   0.247826   0.058835
  116  H   8  Y  -0.300874  -0.193498   0.207663  -0.008402  -0.253430
  117  H   8  Z  -0.227440  -0.246886   0.188586   0.581321  -0.284854
  118  H   8  X  -0.272937  -1.023422  -0.803053  -0.747444  -0.531364
  119  H   8  Y   0.111999  -0.628791  -0.613624  -0.064161  -0.537742
  120  H   8  Z  -0.391246  -0.203044   0.614293  -0.318010  -0.148572
  121  H   9  S  -0.038449   0.281519  -0.136892   0.339493  -0.133154
  122  H   9  S  -0.862859   3.848263  -1.358117  -1.047342   0.283164
  123  H   9  S   0.529324   0.330779   0.278475   0.510341  -0.201566
  124  H   9  X   0.197210  -0.318704   0.306450   0.388268  -0.288828
  125  H   9  Y   0.056267  -0.103863  -0.033212  -0.038964   0.233253
  126  H   9  Z   0.416817   0.024833  -0.178440   0.089294  -0.007425
  127  H   9  X   0.232074  -0.541124   0.098314  -0.192892   0.087223
  128  H   9  Y   0.465648  -0.660008   0.113775   0.334592   0.078889
  129  H   9  Z  -0.352661   0.542200  -0.270774  -0.483684   0.397300
  130  H  10  S  -0.729590   0.054076  -0.265595   0.025620  -0.027596
  131  H  10  S   0.741427   0.791718   2.624097   1.681105  -2.388665
  132  H  10  S   0.387285   0.276858   0.123547   0.038821  -0.047467
  133  H  10  X  -0.211165  -0.007935  -0.728302  -0.301660   0.333914
  134  H  10  Y  -0.121561   0.002093   0.340290   0.193169  -0.325451
  135  H  10  Z  -0.256690   0.249102  -0.124397   0.234862  -0.037464
  136  H  10  X  -0.293522  -0.058234  -0.307113  -0.090210   0.012148
  137  H  10  Y   0.420777   0.012081   0.879752   0.570906  -0.677999
  138  H  10  Z   0.304065   0.176149   0.726843   0.234085  -0.268815
  139  F  11  S   0.169503   0.064380   0.233845   0.127551  -0.099906
  140  F  11  S   0.391483   0.148176   0.555335   0.297296  -0.234023
  141  F  11  S  -0.703506  -0.221045  -0.895777  -0.489039   0.426158
  142  F  11  S   1.201785   0.010883   0.425435   0.008037   0.462365
  143  F  11  X   0.132764   0.009446  -0.064923  -0.049971   0.065774
  144  F  11  Y   0.016290  -0.053851   0.111792   0.104874  -0.051643
  145  F  11  Z   0.020867   0.087225   0.060696   0.008050   0.008064
  146  F  11  X  -0.405275  -0.035389  -0.125860   0.032101  -0.085462
  147  F  11  Y  -0.084374   0.131410  -0.344083  -0.294864   0.172299
  148  F  11  Z  -0.100070  -0.211497  -0.201221  -0.045430  -0.005242
  149  F  11  X  -0.332708   0.053688  -0.089942   0.067375  -0.139829
  150  F  11  Y   0.104515   0.076059   0.046399   0.006000   0.048609
  151  F  11  Z   0.203398   0.072049   0.100736   0.043908   0.043738
  152  F  11 XX  -0.003705  -0.001243  -0.043152  -0.018017   0.019779
  153  F  11 YY   0.000226   0.009282   0.019769   0.000829  -0.013775
  154  F  11 ZZ   0.003478  -0.008039   0.023382   0.017188  -0.006003
  155  F  11 XY  -0.003850  -0.010555   0.000803   0.006878  -0.001965
  156  F  11 XZ  -0.005458  -0.000570   0.007023  -0.003000   0.004187
  157  F  11 YZ   0.004331   0.003004   0.009253   0.000023  -0.007309
  158  F  11 XX   0.373729   0.053722   0.343883   0.118604  -0.107436
  159  F  11 YY  -0.182369   0.074205  -0.179502  -0.109833   0.040724
  160  F  11 ZZ  -0.191360  -0.127928  -0.164382  -0.008771   0.066712
  161  F  11 XY  -0.032336  -0.122674   0.221689   0.160898  -0.139084
  162  F  11 XZ  -0.093270   0.100058   0.036008   0.041976   0.028883
  163  F  11 YZ   0.006591   0.037059   0.015809  -0.014516  -0.049416

                    141        142        143        144        145
                    2.5099     2.5737     2.6053     2.6971     2.7400
                     A          A          A          A          A   
    1  C   1  S  -0.866887  -0.406200  -0.683869   0.052153   0.048818
    2  C   1  S  -1.563951  -0.749433  -1.551716   0.124622   0.071401
    3  C   1  S  17.989910   3.194095  -0.867442   2.155565  -1.998543
    4  C   1  S   1.915363  -2.070228  -6.829949  -2.667881   1.653380
    5  C   1  X  -0.047588   0.231175   0.026126   0.847366   0.817139
    6  C   1  Y   0.010213   0.360350   0.466127  -0.300855  -0.067424
    7  C   1  Z   0.117436   0.396398  -0.573474  -0.428580   0.086165
    8  C   1  X  -1.804724  -0.141588  -0.017051   3.271629   1.155119
    9  C   1  Y   8.613769   3.252352   2.741688   1.473987  -3.031982
   10  C   1  Z -12.543834  -2.603361  -3.510750  -1.955583   1.431020
   11  C   1  X  -0.326588   0.277944   0.037587   0.933320   0.482521
   12  C   1  Y   0.844347   0.275518  -0.360427  -0.479329   0.077924
   13  C   1  Z  -0.944743   0.532514   0.901892   0.341676  -0.356668
   14  C   1 XX  -0.047090   0.319881  -0.327345   0.702985   0.955872
   15  C   1 YY  -0.086238  -0.356642  -0.234074  -0.280638  -0.439543
   16  C   1 ZZ   0.133329   0.036762   0.561419  -0.422347  -0.516329
   17  C   1 XY  -0.255081  -0.515711  -0.212546   0.171600  -0.096716
   18  C   1 XZ  -0.006677  -0.179135   0.076631   0.993529   0.622319
   19  C   1 YZ   0.098778  -0.038085  -0.720929  -0.615168  -0.243058
   20  C   1 XX  -1.560543  -0.555407  -0.272039  -0.063320  -0.262987
   21  C   1 YY  -0.162178   0.714636   0.153299  -0.003557  -0.065708
   22  C   1 ZZ   1.722721  -0.159230   0.118739   0.066877   0.328695
   23  C   1 XY  -0.862173  -0.434227  -0.037754  -0.049937  -0.000250
   24  C   1 XZ  -0.069125   0.141933   0.067009  -1.050080   0.119556
   25  C   1 YZ  -2.813312  -1.105985  -0.391192  -0.366327   1.067411
   26  C   2  S   0.448179   0.154431  -0.041318  -0.161430  -0.034235
   27  C   2  S   0.825681   0.149019  -0.109118  -0.398595   0.098232
   28  C   2  S  -2.284887 -14.266913  -0.853704  -4.200184  10.885445
   29  C   2  S  -2.260432   6.807618   4.223480   4.047183  -1.511334
   30  C   2  X  -0.235502   0.256670  -0.048745  -0.030103   0.092441
   31  C   2  Y  -0.310183   0.016627   0.147555  -0.258131   0.439764
   32  C   2  Z  -0.121653   0.378715  -0.275398   0.193095  -0.159905
   33  C   2  X  -6.397800   5.509154  -0.700918  -0.215781  -1.816568
   34  C   2  Y   7.056365   6.458633   1.468138   0.080625   0.498313
   35  C   2  Z -22.848950   2.252648  -2.922141   0.171667  -2.712570
   36  C   2  X  -0.186814  -0.641985   0.247882  -0.124772   0.085620
   37  C   2  Y   0.775259  -1.047657  -0.742545  -0.883708   0.114089
   38  C   2  Z  -1.272144  -0.354918   1.074740   0.358774  -0.216989
   39  C   2 XX   0.030167   0.073063   0.111680   0.278362  -0.745359
   40  C   2 YY  -0.221495   0.226961   0.022924  -0.313738   0.760972
   41  C   2 ZZ   0.191328  -0.300023  -0.134604   0.035377  -0.015612
   42  C   2 XY  -0.211561  -0.303283   0.068574  -0.210220   0.115907
   43  C   2 XZ   0.177428  -0.452442   0.056066   0.076742   0.061336
   44  C   2 YZ  -0.051386  -0.567262   0.291375   0.315008  -0.152969
   45  C   2 XX   1.621262  -0.403751   0.178079   0.474943  -0.210242
   46  C   2 YY  -1.739649   1.242475   0.152463   1.309590  -2.540966
   47  C   2 ZZ   0.118386  -0.838724  -0.330542  -1.784533   2.751208
   48  C   2 XY  -0.128672  -0.588996   0.144143   1.762660  -1.466574
   49  C   2 XZ   2.454321  -0.838374   0.215548  -1.006366   1.461468
   50  C   2 YZ   4.219659  -1.611161   0.096605   1.722412  -1.438036
   51  C   3  S   0.327977  -0.077749   0.016707  -0.440992   0.582521
   52  C   3  S   0.444657  -0.062276   0.036435  -0.863636   1.099847
   53  C   3  S -18.198256   9.470923  -0.358357   1.814774  -7.895133
   54  C   3  S  -1.054666  -4.730060   0.874519  -1.042249   0.681287
   55  C   3  X   0.129213  -0.159876   0.005396  -0.215656   0.110940
   56  C   3  Y  -0.436636   0.032175   0.046659  -0.240011   0.102666
   57  C   3  Z   0.623244   0.169118  -0.071235   0.112365   0.000967
   58  C   3  X  -8.388854   6.257779  -1.055811   2.959891  -4.485539
   59  C   3  Y  -5.314068  -0.134937  -0.539343   1.434814  -2.690566
   60  C   3  Z  -6.336438   7.662447  -1.104653   1.603394  -3.663736
   61  C   3  X  -0.833750  -0.080823   0.163617   0.058518   0.102502
   62  C   3  Y  -0.779380   0.004079   0.014697  -0.167280   0.308246
   63  C   3  Z  -0.011761  -0.429039   0.184333   0.353798  -0.353212
   64  C   3 XX   0.232725   0.405181  -0.029827   0.353137  -0.347004
   65  C   3 YY   0.061265  -0.790616   0.083490  -0.010269  -0.065799
   66  C   3 ZZ  -0.293990   0.385434  -0.053663  -0.342869   0.412803
   67  C   3 XY  -0.244170  -0.120216   0.018306   0.202871  -0.207748
   68  C   3 XZ  -0.563028   0.902636  -0.111306   0.124074  -0.425182
   69  C   3 YZ   0.222394   0.291177  -0.083155   0.598305  -0.515009
   70  C   3 XX  -1.999322   0.435255   0.132161   0.807883  -1.607457
   71  C   3 YY   0.757438  -1.847499  -0.076911   0.138897   0.133663
   72  C   3 ZZ   1.241884   1.412244  -0.055250  -0.946779   1.473795
   73  C   3 XY  -1.070676  -1.258312   0.070532   0.780006  -1.244805
   74  C   3 XZ  -2.072214   1.759223  -0.140914   0.414480  -0.917092
   75  C   3 YZ  -2.804917   0.798967   0.051015   1.108080  -2.173227
   76  H   4  S  -0.579125  -0.569392   0.783673   1.271299   0.674460
   77  H   4  S   2.138580   0.807587   2.679800   1.117139   0.328351
   78  H   4  S   0.123065  -0.232729  -0.014154   0.593967   0.404327
   79  H   4  X  -0.053369  -0.030214   0.506468   0.510765   0.325633
   80  H   4  Y  -0.176548  -0.068663  -0.424592  -0.366719  -0.200352
   81  H   4  Z   0.321935   0.509490  -0.678621  -0.755590  -0.340326
   82  H   4  X   0.433804   0.195184   0.187322  -0.053357  -0.501553
   83  H   4  Y  -0.244599  -0.529742  -0.452970  -0.032767  -0.064961
   84  H   4  Z  -0.164718   0.032257  -0.015668  -0.167951  -0.481056
   85  H   5  S  -0.153464  -0.398629   0.746163  -1.344523  -1.157752
   86  H   5  S   3.230175   0.052526   1.981337  -1.005993  -1.720762
   87  H   5  S   0.503523  -0.199795   0.090296  -0.765847  -0.467779
   88  H   5  X   0.002307   0.251690  -0.849445   0.873364   0.887512
   89  H   5  Y  -0.019752   0.026509   0.112763  -0.064453  -0.024647
   90  H   5  Z   0.210312   0.331476  -0.276457   0.272904   0.341096
   91  H   5  X  -0.553495  -0.032427  -0.120980  -0.218596   0.281218
   92  H   5  Y   0.093811  -0.076840  -0.286570   0.096922  -0.071850
   93  H   5  Z   0.102701   0.151160   0.265667   0.696452   0.153042
   94  H   6  S   0.181988   0.686661   1.067669   0.201568   0.279513
   95  H   6  S   3.040226   0.717563   2.551237   1.404454  -1.387561
   96  H   6  S   0.534975   0.290495   0.242443  -0.170853   0.158927
   97  H   6  X  -0.042863   0.092519   0.375301  -0.009757   0.120450
   98  H   6  Y  -0.039177   0.612257   1.082696  -0.076780   0.301277
   99  H   6  Z   0.277389  -0.023217   0.119417   0.019762  -0.085968
  100  H   6  X   0.073600  -0.222121   0.124163  -0.352632  -0.504442
  101  H   6  Y   0.372232  -0.028516   0.113899   0.514072  -0.191760
  102  H   6  Z   0.032332  -0.125147   0.295333   0.153406   0.290761
  103  H   7  S   0.389154   0.015839  -0.105505   0.407805  -0.883692
  104  H   7  S  -0.079086  -6.332091  -1.637425  -3.259910   2.860199
  105  H   7  S  -0.253458   0.261903   0.085990   0.243888  -0.138638
  106  H   7  X   0.057927   0.044602   0.016371  -0.304466   0.644395
  107  H   7  Y  -0.362805  -0.314870   0.039780  -0.539700   0.853618
  108  H   7  Z   0.313528   0.476200  -0.016120  -0.323886   0.273385
  109  H   7  X   0.187532   0.576874   0.201888  -0.095001  -0.211055
  110  H   7  Y   0.214672   1.582677   0.384215   0.815487  -0.483375
  111  H   7  Z  -0.258407   0.355892   0.341842  -0.197647   0.193582
  112  H   8  S   0.005311   0.227113  -0.055049  -0.243873   0.129864
  113  H   8  S  -2.372957   3.151329  -1.508337   0.066253   1.651864
  114  H   8  S  -1.224194   0.292785   0.021868   0.088648   0.282828
  115  H   8  X  -0.026061  -0.087702   0.061852   0.015753  -0.122683
  116  H   8  Y   0.148000  -0.612615   0.021479  -0.026880  -0.057790
  117  H   8  Z  -0.562603   0.480410  -0.009605   0.281044  -0.547465
  118  H   8  X  -0.786602  -0.091351  -0.250068   0.048128   0.245057
  119  H   8  Y   0.391333  -0.143632  -0.314025   0.080255   0.659357
  120  H   8  Z  -1.220064  -0.408848   0.195855   0.212515  -0.441798
  121  H   9  S   0.703476   0.362073  -0.042281   0.702555  -0.659043
  122  H   9  S  -1.739798   2.966159  -0.629227   3.236126  -4.703031
  123  H   9  S   0.533288   0.020156   0.241986   0.399948  -0.288116
  124  H   9  X   0.026175   0.417229  -0.052770  -0.129742   0.041716
  125  H   9  Y  -0.703288   0.508373   0.036076  -0.333855   0.267562
  126  H   9  Z   1.133744   0.150009  -0.082368   0.383151  -0.098188
  127  H   9  X   0.439932   0.109136  -0.032902  -0.073907   0.163866
  128  H   9  Y   0.544525  -0.016489   0.211787  -0.583586   0.779208
  129  H   9  Z   0.177945   0.556281  -0.124714   0.498267  -0.549794
  130  H  10  S   0.134755  -0.259956   0.066575   0.122067   0.220056
  131  H  10  S  -0.628936  -0.677478   0.025392  -2.433933   2.091833
  132  H  10  S   0.036335  -0.112185  -0.083764  -0.213826  -0.182303
  133  H  10  X  -0.154295   0.397969   0.000905   0.332968  -0.231887
  134  H  10  Y   0.090951  -0.069012  -0.024058  -0.241922   0.184697
  135  H  10  Z   0.006930   0.010729   0.039087  -0.238679   0.198485
  136  H  10  X   0.140870  -0.188691   0.007284   0.272043   0.093946
  137  H  10  Y  -0.130619  -0.051705   0.018480  -0.669475   0.560195
  138  H  10  Z  -0.234496  -0.165986   0.091266  -0.807294   0.506946
  139  F  11  S   0.040079  -0.067477   0.020625  -0.080260   0.065309
  140  F  11  S   0.091251  -0.166283   0.045689  -0.184044   0.151849
  141  F  11  S  -0.196224   0.255432  -0.078050   0.401100  -0.264030
  142  F  11  S   0.483086  -0.139324  -0.032759  -0.212202  -0.727909
  143  F  11  X   0.030876   0.049671  -0.009521  -0.007461  -0.054156
  144  F  11  Y   0.017231  -0.010945  -0.004236  -0.054439   0.050059
  145  F  11  Z  -0.006134  -0.035908  -0.000054  -0.042266   0.057816
  146  F  11  X  -0.109731   0.044524   0.029349   0.098794   0.098629
  147  F  11  Y  -0.068094   0.035660   0.010865   0.177000  -0.154446
  148  F  11  Z  -0.004710   0.086722  -0.003862   0.177327  -0.152019
  149  F  11  X  -0.115797  -0.073717   0.007796   0.006777   0.244460
  150  F  11  Y   0.055949  -0.091757  -0.063147   0.039945  -0.057532
  151  F  11  Z   0.099336  -0.081383   0.045951  -0.099722  -0.092879
  152  F  11 XX  -0.003147   0.028913  -0.002565   0.012379  -0.009322
  153  F  11 YY  -0.003495  -0.018128  -0.002307   0.007132   0.008668
  154  F  11 ZZ   0.006642  -0.010785   0.004872  -0.019512   0.000654
  155  F  11 XY  -0.004537   0.002411   0.000929  -0.004713   0.002591
  156  F  11 XZ  -0.004313  -0.011789   0.000109   0.007541   0.011620
  157  F  11 YZ  -0.005950  -0.001955   0.001339  -0.003922   0.001370
  158  F  11 XX   0.078229  -0.121900  -0.023436  -0.189830   0.076485
  159  F  11 YY  -0.073593   0.039692  -0.006185   0.121443  -0.031376
  160  F  11 ZZ  -0.004635   0.082208   0.029621   0.068387  -0.045109
  161  F  11 XY   0.032392  -0.025730  -0.005295  -0.118565   0.085702
  162  F  11 XZ  -0.006711  -0.054461   0.009157  -0.079935   0.092858
  163  F  11 YZ  -0.054865   0.011705   0.008750  -0.007952  -0.008966

                    146        147        148        149        150
                    2.7818     2.7982     3.0907     3.2226     3.4119
                     A          A          A          A          A   
    1  C   1  S   0.537170  -0.273362   0.359921   0.291648  -0.000021
    2  C   1  S   0.835693  -0.567999   0.610570   0.502988   0.040889
    3  C   1  S -11.613778  -1.558504  -5.142008  -4.911193  -0.542892
    4  C   1  S  -1.630257  -0.089624  -2.177299  -0.189301   1.408782
    5  C   1  X  -0.028002  -0.182690  -0.091045  -0.096118  -0.055365
    6  C   1  Y  -0.124287  -0.871055  -0.009084   0.033764   0.065143
    7  C   1  Z   0.230436  -0.386835  -0.001498   0.037606  -0.138149
    8  C   1  X   1.444172  -0.594729   0.473270  -0.245903  -0.290336
    9  C   1  Y  -6.207154  -2.834775  -1.994231  -3.700881   0.465026
   10  C   1  Z  10.765367  -2.159394   4.290245   4.864108  -0.670034
   11  C   1  X  -0.053471  -0.118080   0.049301   0.072256  -0.035938
   12  C   1  Y  -0.234669  -0.857135   0.222795  -0.157060   0.211560
   13  C   1  Z   1.165283  -0.599126   1.096523   0.469654  -0.474619
   14  C   1 XX   0.138618  -0.536718   0.012300  -0.014585  -0.141376
   15  C   1 YY  -0.177735   1.312638   0.275824   0.096610   0.159172
   16  C   1 ZZ   0.039117  -0.775920  -0.288124  -0.082025  -0.017796
   17  C   1 XY   0.011014   0.971189   0.003761  -0.048195   0.045875
   18  C   1 XZ   0.159541   0.251990  -0.397892  -0.275617  -0.134042
   19  C   1 YZ   0.604848  -0.275188  -0.087452   0.117103  -0.204877
   20  C   1 XX   1.161834  -0.217560   0.708247   0.832691  -0.104572
   21  C   1 YY  -0.063455  -0.444689  -0.590033  -0.164163  -0.085713
   22  C   1 ZZ  -1.098379   0.662249  -0.118215  -0.668528   0.190286
   23  C   1 XY   0.403330  -0.169424  -0.417086  -0.100384  -0.043020
   24  C   1 XZ  -0.524541   0.186334  -0.127526   0.135972   0.188064
   25  C   1 YZ   2.114690   0.116931   1.020784   1.057842  -0.123832
   26  C   2  S  -1.361179  -0.034057  -1.112123  -0.588153   0.405110
   27  C   2  S  -2.458698  -0.116660  -1.909139  -0.999473   0.727168
   28  C   2  S  24.613953  -1.299197  24.238526  14.427489  -5.748567
   29  C   2  S   2.926259  -2.646096   6.634932   0.005996  -0.905949
   30  C   2  X  -0.131403   0.057537   0.249461   0.028784  -0.007101
   31  C   2  Y  -0.316579  -0.045482   0.470563   0.204272   0.016457
   32  C   2  Z  -0.002806  -0.023591   0.218542   0.087961  -0.068122
   33  C   2  X  -5.877489  -0.504353  -6.775628  -3.407515   2.757214
   34  C   2  Y -11.257614   0.459188  -5.366215  -4.134091   2.801445
   35  C   2  Z   2.591659   0.047398  -5.756740  -0.637022   1.476891
   36  C   2  X  -0.666350   0.322537  -0.973788  -0.410217   0.120336
   37  C   2  Y  -2.169176   0.270418  -1.684003  -0.683942   0.818210
   38  C   2  Z   0.407997   0.612126  -0.623638   0.307482  -0.800011
   39  C   2 XX  -0.343232  -0.015356  -0.301930  -0.126244   0.184514
   40  C   2 YY  -0.814164   0.207380   0.777304   0.308219   0.405106
   41  C   2 ZZ   1.157395  -0.192024  -0.475374  -0.181975  -0.589620
   42  C   2 XY  -0.414065  -0.322081   0.810364   0.465320   0.206814
   43  C   2 XZ   0.534447  -0.512390   0.081995   0.219654  -0.219105
   44  C   2 YZ  -0.532667  -0.537216   0.012566  -0.118551   0.370674
   45  C   2 XX  -0.663254  -0.115608  -0.133423  -0.581671  -0.623569
   46  C   2 YY  -1.268968  -0.866005  -1.710431  -1.625417   0.189107
   47  C   2 ZZ   1.932222   0.981613   1.843854   2.207088   0.434462
   48  C   2 XY   0.642643  -0.457519   0.477977  -0.549867  -0.628661
   49  C   2 XZ   1.281248   0.495795   2.594475   1.479320  -0.649002
   50  C   2 YZ  -1.264465  -1.475255   0.649102  -0.943154  -1.443011
   51  C   3  S   0.694376   0.434811   0.336678   0.288116   0.983560
   52  C   3  S   1.213065   0.855460   0.465919   0.468518   1.924731
   53  C   3  S -12.458070  -1.752252 -16.894465  -7.835200   5.891172
   54  C   3  S  -1.359713   1.356291  -3.798824   0.581860  -0.328713
   55  C   3  X  -0.583601   0.223346   0.244990  -0.195000  -1.149237
   56  C   3  Y  -0.494978   0.091242  -0.042844  -0.260122  -1.077787
   57  C   3  Z  -0.146089   0.285461   0.213709   0.108617   0.318191
   58  C   3  X  -4.220801   0.308175  -8.203783  -3.241722  -0.488435
   59  C   3  Y   0.516367  -1.140142  -2.701639  -3.179806  -1.624182
   60  C   3  Z  -8.512561  -0.576380  -8.009106  -4.776975   3.843916
   61  C   3  X   0.116334   0.509144  -0.495244   0.319039  -0.742680
   62  C   3  Y   0.715926   0.177436  -0.067916   0.038656  -0.858636
   63  C   3  Z  -0.814591   0.227789  -0.714166  -0.171743   0.378043
   64  C   3 XX  -0.126782   0.111780   0.658418   0.431112   0.618532
   65  C   3 YY  -0.054340  -0.309863  -0.146689   0.081991   0.298165
   66  C   3 ZZ   0.181122   0.198083  -0.511728  -0.513103  -0.916696
   67  C   3 XY  -0.356991  -0.228758  -0.029718  -0.004545   1.472412
   68  C   3 XZ  -0.176028   0.332024   0.176956  -0.117114  -0.218369
   69  C   3 YZ  -0.286919   0.012921   1.152560   0.549372   0.017771
   70  C   3 XX  -0.588097   0.101910  -0.613991  -1.057391  -0.568083
   71  C   3 YY   1.042638  -0.272691   1.310380   0.929798  -0.636911
   72  C   3 ZZ  -0.454541   0.170781  -0.696389   0.127592   1.204994
   73  C   3 XY  -0.728404  -0.898338  -0.158120  -1.211707  -0.813032
   74  C   3 XZ  -1.503898  -0.224393  -2.522029  -0.864517   0.696178
   75  C   3 YZ  -0.879268  -0.271086  -1.722514  -0.984868  -0.136355
   76  H   4  S   0.090406   1.231614  -0.035119  -0.162630   0.029212
   77  H   4  S  -3.264143   2.582791  -1.699185  -1.307984  -0.105295
   78  H   4  S  -0.684818   0.656485  -0.669955  -0.226518   0.264552
   79  H   4  X  -0.187714   0.456253   0.099276   0.000127   0.027895
   80  H   4  Y   0.118951  -0.479565   0.089023   0.118365  -0.020654
   81  H   4  Z  -0.336406  -0.592431  -0.033671   0.061738   0.047862
   82  H   4  X  -0.542796   0.416212  -0.133631  -0.072654  -0.047481
   83  H   4  Y   0.758127   0.230068   0.398205   0.212172  -0.010891
   84  H   4  Z   0.198402  -0.601000  -0.033426   0.144331   0.118306
   85  H   5  S   0.118070   0.664815   0.255043   0.181800   0.113210
   86  H   5  S  -2.292452   0.647032  -1.402872  -1.212064   0.357475
   87  H   5  S  -0.152270   0.160619   0.051357  -0.158020   0.129075
   88  H   5  X  -0.056885  -0.483138  -0.222330  -0.149473  -0.084367
   89  H   5  Y   0.053873  -0.068325   0.143679   0.109634  -0.014967
   90  H   5  Z  -0.419213  -0.027605   0.003707  -0.075249   0.060945
   91  H   5  X   0.554993   0.030585   0.351891   0.309710  -0.090539
   92  H   5  Y  -0.015024   0.469782   0.081371   0.061615   0.016575
   93  H   5  Z  -0.127070   0.051034  -0.148585  -0.234174  -0.062775
   94  H   6  S   0.231415  -1.586759   0.141937   0.085066  -0.076091
   95  H   6  S  -1.502939  -1.870431   1.683764  -1.744691   0.389126
   96  H   6  S  -0.197715  -0.848583   0.260873  -0.206429   0.152617
   97  H   6  X   0.086086  -0.353721  -0.074719  -0.010577  -0.016214
   98  H   6  Y   0.146237  -0.925674   0.000647   0.039240  -0.070219
   99  H   6  Z   0.121205  -0.131919  -0.199580  -0.187220  -0.043397
  100  H   6  X  -0.110292  -0.183282   0.050454  -0.126720   0.041596
  101  H   6  Y  -0.059099  -0.408990   0.547839  -0.443064   0.119510
  102  H   6  Z  -0.300578   0.414735   0.033188  -0.025487   0.137657
  103  H   7  S   0.747850   0.185135  -1.332203  -0.521374  -0.398588
  104  H   7  S   8.669284   3.227509   3.744722   5.228801  -0.651809
  105  H   7  S   1.448050  -0.008084   0.893529   0.557045  -0.363157
  106  H   7  X  -0.154888   0.130586   0.216748   0.096018   0.045134
  107  H   7  Y  -0.481160  -0.240523   0.865992   0.450880   0.180824
  108  H   7  Z  -0.042365   0.519051   0.076400   0.036759  -0.052997
  109  H   7  X  -1.092117  -0.335644  -0.405028  -0.261281   0.122469
  110  H   7  Y  -1.983092  -0.848111  -0.891624  -1.226092  -0.028065
  111  H   7  Z  -0.303760   0.363389  -0.312761  -0.160040   0.523604
  112  H   8  S   0.169221   0.366164   0.464861  -0.293409  -3.159903
  113  H   8  S   2.464503   1.567619  -3.879234   0.806379  -1.475491
  114  H   8  S   0.570801   0.471570  -0.115387   0.106645  -1.132245
  115  H   8  X  -0.498018   0.017126   0.632708  -0.215042  -1.415686
  116  H   8  Y  -0.441951  -0.156975   0.064239  -0.097891  -1.248370
  117  H   8  Z  -0.087318   0.100630   0.426602   0.299865   0.272212
  118  H   8  X   0.756164   0.283703  -0.848205  -0.032899  -0.396970
  119  H   8  Y   0.722299   0.109286  -0.225131   0.768347  -0.236064
  120  H   8  Z  -0.123116  -0.148211  -0.880289  -0.244500  -0.389382
  121  H   9  S  -0.291176   0.080619   1.237756   0.743880   0.296129
  122  H   9  S  -5.364493  -0.758378  -2.468557  -3.164136   1.086674
  123  H   9  S  -0.665114   0.065212  -0.138274  -0.120604   0.726433
  124  H   9  X   0.286426   0.181415   0.199102   0.144269  -0.138147
  125  H   9  Y   0.099672   0.193374  -0.553934  -0.242822  -0.164865
  126  H   9  Z   0.184219   0.043452   0.874493   0.445343  -0.049395
  127  H   9  X  -0.035483  -0.063422  -0.296674   0.141887   0.637866
  128  H   9  Y   0.727281   0.157996   0.063618   0.634537   0.234066
  129  H   9  Z  -1.235930  -0.252953  -0.525476  -0.656721   0.428390
  130  H  10  S  -0.108746   0.153376  -0.324914   0.883392  -0.141120
  131  H  10  S  -0.422080   0.018014  -0.659624   3.037989   1.010421
  132  H  10  S  -0.024442  -0.094787  -0.207024   0.103213   0.011122
  133  H  10  X  -0.335473   0.105064  -0.719339   1.233258  -0.346485
  134  H  10  Y   0.003432   0.066589   0.019052  -0.022324   0.173343
  135  H  10  Z  -0.175326   0.141530  -0.104716  -0.196248   0.123703
  136  H  10  X   0.317483   0.420386  -1.011806   2.958243  -0.260182
  137  H  10  Y   0.214232  -0.045914   0.211306   0.421343   0.494993
  138  H  10  Z   0.194613   0.082260   0.187375   0.259561   0.180228
  139  F  11  S  -0.063049   0.014727  -0.344316   0.763959  -0.097278
  140  F  11  S  -0.125752   0.028658  -0.714303   1.586342  -0.198393
  141  F  11  S   0.179338  -0.074100   1.383824  -3.217946   0.322847
  142  F  11  S   0.304677  -0.284943   0.895586  -2.738205   0.058244
  143  F  11  X   0.043299  -0.025768   0.148214  -0.348753   0.055221
  144  F  11  Y  -0.005139  -0.016088   0.004883  -0.002188   0.012784
  145  F  11  Z   0.003711  -0.003212  -0.006308   0.001075  -0.006293
  146  F  11  X  -0.317328   0.127746  -0.910036   1.976560  -0.320850
  147  F  11  Y   0.018805   0.056272  -0.014037  -0.000230  -0.070772
  148  F  11  Z   0.022734   0.046523   0.060135  -0.053913   0.014729
  149  F  11  X  -0.125465   0.096536  -0.284867   0.876766   0.001339
  150  F  11  Y   0.092332   0.033573  -0.010750   0.052791  -0.076522
  151  F  11  Z   0.077008  -0.074397   0.008680   0.035706  -0.045433
  152  F  11 XX  -0.020988   0.008637  -0.042632   0.054908  -0.005965
  153  F  11 YY   0.016815   0.004838   0.026459  -0.036351   0.012500
  154  F  11 ZZ   0.004173  -0.013475   0.016173  -0.018557  -0.006536
  155  F  11 XY  -0.004573  -0.001619   0.002412  -0.005375  -0.001962
  156  F  11 XZ   0.017277   0.010461   0.016020  -0.012950  -0.010266
  157  F  11 YZ   0.002620   0.003624   0.003302   0.018100   0.016864
  158  F  11 XX   0.194454  -0.079502   0.438002  -0.859273   0.215674
  159  F  11 YY  -0.072092   0.046281  -0.210664   0.423010  -0.104220
  160  F  11 ZZ  -0.122362   0.033221  -0.227338   0.436264  -0.111454
  161  F  11 XY  -0.007944  -0.009073   0.024830  -0.017108   0.045717
  162  F  11 XZ  -0.012110   0.023460  -0.032990   0.025891  -0.008152
  163  F  11 YZ   0.015079   0.031850   0.008817   0.022680   0.018311

                    151        152        153        154        155
                    4.5703     4.5935     4.6574     4.6762     4.7244
                     A          A          A          A          A   
    1  C   1  S   0.084952  -0.050342  -0.065185   0.001223  -0.001617
    2  C   1  S   0.147638  -0.085014  -0.110305   0.003498  -0.002827
    3  C   1  S  -2.124289   1.421700   1.351125  -0.269066   0.979239
    4  C   1  S   0.374277   0.161877  -0.923833   0.108385   0.088403
    5  C   1  X   0.029866   0.002102  -0.025032   0.017844   0.006134
    6  C   1  Y  -0.029084   0.013087   0.031146  -0.000227  -0.003686
    7  C   1  Z  -0.007119  -0.000841   0.004973   0.001843  -0.012804
    8  C   1  X  -0.480164   0.017423   0.403555  -0.533710  -0.307555
    9  C   1  Y  -0.450523   1.025184   0.176647  -0.331474   0.435766
   10  C   1  Z   1.554301  -0.851601  -1.029756   0.100406  -0.591040
   11  C   1  X   0.029822  -0.027711  -0.001788  -0.120793   0.019222
   12  C   1  Y   0.071020   0.217951  -0.013514   0.050686   0.095850
   13  C   1  Z   0.032614  -0.016585   0.292588  -0.086978  -0.055238
   14  C   1 XX   0.032654  -0.002888  -0.023688  -0.000038   0.002133
   15  C   1 YY   0.013934  -0.015738  -0.029318   0.002205   0.009705
   16  C   1 ZZ  -0.046588   0.018627   0.053007  -0.002167  -0.011839
   17  C   1 XY   0.025687  -0.029433  -0.025387  -0.004819  -0.001246
   18  C   1 XZ   0.029309   0.006472  -0.043420   0.015626   0.023092
   19  C   1 YZ   0.006842  -0.004051  -0.000948   0.006550  -0.010623
   20  C   1 XX   0.077062  -0.179009  -0.031464  -0.094281   0.014048
   21  C   1 YY   0.185726   0.070509  -0.237942   0.123651  -0.121900
   22  C   1 ZZ  -0.262787   0.108500   0.269406  -0.029369   0.107852
   23  C   1 XY  -0.001109  -0.007429   0.049000   0.052299  -0.052021
   24  C   1 XZ  -0.161498   0.028784  -0.053486   0.114365   0.197435
   25  C   1 YZ   0.185427  -0.154309  -0.087777   0.101698  -0.092023
   26  C   2  S  -0.005355   0.041814   0.053267   0.062758  -0.056541
   27  C   2  S  -0.013900   0.067510   0.093981   0.109556  -0.104866
   28  C   2  S  -0.727298  -1.568041  -1.242004  -1.211412   1.695715
   29  C   2  S   1.355585   0.186843   0.918485   0.295990  -0.783539
   30  C   2  X  -0.014980  -0.034115   0.063990  -0.039999  -0.048293
   31  C   2  Y  -0.000858   0.028175  -0.017882   0.019984   0.029846
   32  C   2  Z  -0.007863   0.050366   0.006814   0.007790   0.040212
   33  C   2  X   1.456479   0.331593  -0.495954   0.981231  -0.868822
   34  C   2  Y  -0.301807   0.360295   0.965123   0.489068  -0.478434
   35  C   2  Z   2.719473  -1.181548  -0.541139   0.687336  -2.304025
   36  C   2  X  -0.330065  -0.008262   0.119351   0.107733   0.156904
   37  C   2  Y  -0.268304   0.010448  -0.168052  -0.072693   0.011140
   38  C   2  Z  -0.308274  -0.271006   0.098186  -0.212369  -0.043779
   39  C   2 XX  -0.009617  -0.012722   0.016542  -0.025734  -0.021961
   40  C   2 YY  -0.025463   0.007527   0.039317   0.035123   0.002793
   41  C   2 ZZ   0.035079   0.005195  -0.055859  -0.009389   0.019168
   42  C   2 XY   0.014939  -0.020525  -0.020707   0.009990   0.040246
   43  C   2 XZ  -0.042788   0.017166  -0.023187   0.016720   0.046357
   44  C   2 YZ  -0.026972   0.017323   0.031791  -0.012239   0.002931
   45  C   2 XX  -0.394769   0.357476   0.207566  -0.068634   0.120100
   46  C   2 YY   0.666345  -0.155493  -0.435518  -0.186107  -0.352823
   47  C   2 ZZ  -0.271576  -0.201983   0.227953   0.254742   0.232723
   48  C   2 XY  -0.361780  -0.086921   0.369629  -0.363126  -0.100002
   49  C   2 XZ  -0.444403  -0.252037   0.226396  -0.238610   0.348691
   50  C   2 YZ  -0.666564   0.444011   0.209100  -0.423276   0.858663
   51  C   3  S  -0.029485  -0.071585   0.027841  -0.011619   0.087429
   52  C   3  S  -0.047393  -0.132331   0.051277  -0.019121   0.145574
   53  C   3  S   2.357413  -0.044992  -0.824309   1.325502  -2.583913
   54  C   3  S  -1.547849  -0.810771   0.179803  -0.318914   1.102752
   55  C   3  X  -0.007323  -0.008716  -0.005172  -0.000239   0.035915
   56  C   3  Y  -0.022346   0.024199  -0.007969   0.003536   0.007617
   57  C   3  Z   0.009029  -0.007253  -0.015930   0.007934  -0.036790
   58  C   3  X   1.394026   0.687895  -0.191260   0.197389  -2.610482
   59  C   3  Y   0.797456  -0.258824   0.089336  -0.055935   0.129230
   60  C   3  Z   1.626071   0.400755  -0.035499   0.897316  -1.205908
   61  C   3  X  -0.144228  -0.162972   0.083161  -0.143386   0.088364
   62  C   3  Y   0.000890  -0.098356  -0.065218  -0.037744  -0.063316
   63  C   3  Z  -0.235414   0.019947   0.180877  -0.041132   0.135034
   64  C   3 XX   0.017449  -0.037662  -0.004809  -0.008753  -0.100033
   65  C   3 YY  -0.014460  -0.002189   0.005051  -0.004236   0.040476
   66  C   3 ZZ  -0.002989   0.039851  -0.000242   0.012989   0.059557
   67  C   3 XY   0.040628  -0.025105   0.015608  -0.000395  -0.007381
   68  C   3 XZ   0.005987  -0.005216   0.046103  -0.008075  -0.010165
   69  C   3 YZ   0.023692   0.013549   0.012062  -0.018871  -0.001003
   70  C   3 XX   0.058826   0.113424  -0.097216  -0.297014  -0.218632
   71  C   3 YY  -0.223704   0.034794   0.188183  -0.052478   0.233212
   72  C   3 ZZ   0.164878  -0.148218  -0.090967   0.349492  -0.014580
   73  C   3 XY   0.110737  -0.094967  -0.034922  -0.147384   0.438763
   74  C   3 XZ   0.350689   0.077893   0.372029   0.295084  -0.333740
   75  C   3 YZ   0.106375   0.020351  -0.027577  -0.059468  -0.288092
   76  H   4  S   0.006221  -0.051804  -0.033947  -0.004105   0.020515
   77  H   4  S  -1.042977  -0.094843   0.441854  -0.272124  -0.011698
   78  H   4  S  -0.065799  -0.058556  -0.099105   0.017546   0.029682
   79  H   4  X   0.022425  -0.019118  -0.019209  -0.001372   0.006125
   80  H   4  Y  -0.012387  -0.013787   0.025362  -0.013517  -0.004841
   81  H   4  Z  -0.023083   0.024670   0.023554   0.012268  -0.000994
   82  H   4  X  -0.104871  -0.026651   0.060674  -0.079091  -0.011686
   83  H   4  Y   0.087578  -0.088408   0.002572  -0.024498   0.008703
   84  H   4  Z   0.178077   0.079323  -0.104435   0.118568   0.065128
   85  H   5  S   0.030939  -0.003227  -0.017780   0.030683  -0.017375
   86  H   5  S   0.702413  -0.069932  -0.569327   0.624754   0.192381
   87  H   5  S  -0.052656   0.000839  -0.066497   0.128442  -0.001927
   88  H   5  X   0.010445   0.019130  -0.011284   0.011371   0.002577
   89  H   5  Y  -0.011484  -0.011400  -0.001146  -0.002221   0.005183
   90  H   5  Z   0.030793   0.001307   0.002766   0.004638  -0.018460
   91  H   5  X  -0.310740   0.079851   0.205735  -0.185349  -0.030848
   92  H   5  Y   0.075015  -0.047936  -0.067586  -0.024265  -0.006722
   93  H   5  Z  -0.138675   0.077036   0.206852  -0.098596  -0.131982
   94  H   6  S   0.020120  -0.014802   0.005335  -0.032698  -0.000003
   95  H   6  S  -0.597341   0.923795   0.357294  -0.762929   0.426261
   96  H   6  S   0.030015   0.207781   0.023843   0.010455   0.097167
   97  H   6  X   0.010632  -0.001944  -0.005104   0.012532   0.003356
   98  H   6  Y  -0.008148   0.019263   0.015208   0.006802  -0.011327
   99  H   6  Z  -0.011410   0.024628   0.013354  -0.009732  -0.004008
  100  H   6  X  -0.069951   0.143121   0.111268  -0.099559   0.063932
  101  H   6  Y  -0.093927   0.264869  -0.001561  -0.202780   0.111828
  102  H   6  Z  -0.079663  -0.049722   0.102951   0.063608   0.049755
  103  H   7  S   0.009613   0.080785  -0.012653   0.032811   0.024477
  104  H   7  S  -0.836601  -0.134341  -0.329203  -0.136215   0.715882
  105  H   7  S   0.203228  -0.040701  -0.010812   0.036285  -0.027339
  106  H   7  X   0.005844  -0.028729   0.009768   0.004997  -0.004477
  107  H   7  Y  -0.038432   0.013612   0.018518   0.037268   0.040749
  108  H   7  Z  -0.004801   0.022183  -0.013140   0.026821   0.000559
  109  H   7  X   0.257856  -0.060944  -0.152014   0.000268   0.003780
  110  H   7  Y   0.171215   0.116496   0.115051   0.106148  -0.126901
  111  H   7  Z   0.086238  -0.011618  -0.045083   0.142722  -0.206590
  112  H   8  S  -0.067651   0.061515  -0.007072  -0.018240   0.040348
  113  H   8  S   1.544350   0.401008   0.239803   0.300940  -2.109442
  114  H   8  S  -0.013184  -0.127290  -0.002120  -0.118237  -0.024334
  115  H   8  X  -0.022940   0.001798  -0.031899  -0.042840   0.081074
  116  H   8  Y  -0.029257   0.046079   0.012059   0.002141   0.027119
  117  H   8  Z  -0.009398  -0.016877   0.024639  -0.003356  -0.008990
  118  H   8  X   0.360119   0.043184   0.023361  -0.088427  -0.292779
  119  H   8  Y   0.243667   0.055476   0.180056   0.112744  -0.219673
  120  H   8  Z  -0.098721  -0.041961   0.099815  -0.003276   0.010127
  121  H   9  S   0.024236  -0.013722   0.087616  -0.003967  -0.029398
  122  H   9  S   0.136982   1.075506  -0.711229  -0.386836  -0.899758
  123  H   9  S  -0.071664   0.139899   0.185251   0.037762   0.114105
  124  H   9  X  -0.004981  -0.019089   0.032973   0.024895   0.015976
  125  H   9  Y  -0.018706  -0.011191  -0.017198   0.012801  -0.009502
  126  H   9  Z  -0.011376   0.005661  -0.024828  -0.010280  -0.003916
  127  H   9  X  -0.029367   0.128029   0.007675   0.016839  -0.087214
  128  H   9  Y   0.064318  -0.232921   0.143679   0.155207   0.075505
  129  H   9  Z  -0.024192   0.208054  -0.268921  -0.076098  -0.125275
  130  H  10  S   0.016293   0.073724  -0.024644  -0.323144   0.249455
  131  H  10  S   0.154968  -1.367634   1.073875   0.037285   1.285482
  132  H  10  S  -0.026229   0.005210  -0.023822  -0.138060  -0.338654
  133  H  10  X  -0.007167   0.002042   0.013045   0.001838  -0.030000
  134  H  10  Y   0.011049  -0.014244   0.059797   0.057935   0.088840
  135  H  10  Z  -0.011789  -0.028566  -0.057779   0.022651   0.024462
  136  H  10  X  -0.166259   0.289151  -0.131150  -0.554513  -1.005082
  137  H  10  Y   0.159242  -0.602867   0.687933   0.469718   0.567320
  138  H  10  Z  -0.299543  -0.607508  -0.063328   0.253043   0.362612
  139  F  11  S  -0.019302  -0.020899   0.023238  -0.024342  -0.025655
  140  F  11  S  -0.038612  -0.041775   0.045876  -0.048584  -0.048388
  141  F  11  S   0.116860   0.133680  -0.133972   0.106118   0.273820
  142  F  11  S  -0.114666  -0.012241  -0.222550   0.551140  -0.252276
  143  F  11  X  -0.002842  -0.001001  -0.010320   0.047233  -0.052125
  144  F  11  Y   0.004958  -0.008326   0.028022   0.034109   0.042364
  145  F  11  Z  -0.004457  -0.007796  -0.025589   0.020473   0.031443
  146  F  11  X  -0.006545  -0.024430   0.076678  -0.183292   0.134813
  147  F  11  Y  -0.024325   0.056359  -0.119657  -0.128074  -0.159316
  148  F  11  Z   0.037228   0.052199   0.075378  -0.074371  -0.113468
  149  F  11  X   0.046650   0.033316   0.060508  -0.337496   0.246628
  150  F  11  Y  -0.020635   0.010200  -0.199871  -0.194610  -0.246898
  151  F  11  Z  -0.013367   0.057011   0.189046  -0.123859  -0.209233
  152  F  11 XX   0.034630   0.068281   0.147397  -0.963666   0.721910
  153  F  11 YY  -0.991078   0.092027   0.207180   0.439690  -0.439169
  154  F  11 ZZ   0.956449  -0.160309  -0.354577   0.523976  -0.282742
  155  F  11 XY  -0.111149   0.065118  -0.714402  -0.644988  -0.724995
  156  F  11 XZ   0.346161   0.311324   0.867405  -0.298999  -0.630061
  157  F  11 YZ   0.055980   1.133175  -0.245666   0.180006   0.179827
  158  F  11 XX  -0.017845  -0.040833  -0.111438   0.674691  -0.527246
  159  F  11 YY   0.558615  -0.051902  -0.122322  -0.308307   0.318309
  160  F  11 ZZ  -0.540770   0.092735   0.233760  -0.366384   0.208937
  161  F  11 XY   0.069236  -0.051184   0.480665   0.445848   0.530767
  162  F  11 XZ  -0.209536  -0.197978  -0.568659   0.207297   0.454778
  163  F  11 YZ  -0.031576  -0.663022   0.155014  -0.118990  -0.126084

 WARNING! THIS VERSION OF FIREFLY IS PROBABLY OUTDATED!
 PLEASE CHECK FIREFLY HOMEPAGE FOR INFORMATION ON UPDATES!

 ...... END OF DFT CALCULATION ......

                         TIMING STATISTICS ON RANK 0:
 CPU        TIME:   STEP =     12.06 ,  TOTAL =       12.6 SECONDS (    0.2 MIN)
 WALL CLOCK TIME:   STEP =     30.85 ,  TOTAL =       32.3 SECONDS (    0.5 MIN)
 CPU UTILIZATION:   STEP =     39.10%,  TOTAL =      38.91%


                       ----------------------------------
                       properties for the R-B3LYP density
                       ----------------------------------

          -----------------
          ENERGY COMPONENTS
          -----------------

         WAVEFUNCTION NORMALIZATION =       1.0000000000

                ONE ELECTRON ENERGY =    -534.7205611076
                TWO ELECTRON ENERGY =     196.6663176604
           NUCLEAR REPULSION ENERGY =     119.7619743708
                                      ------------------
                       TOTAL ENERGY =    -218.2922690765

 ELECTRON-ELECTRON POTENTIAL ENERGY =     196.6663176604
  NUCLEUS-ELECTRON POTENTIAL ENERGY =    -751.8853631837
   NUCLEUS-NUCLEUS POTENTIAL ENERGY =     119.7619743708
                                      ------------------
             TOTAL POTENTIAL ENERGY =    -435.4570711525
               TOTAL KINETIC ENERGY =     217.1648020760
                 VIRIAL RATIO (V/T) =       2.0051917575

          ---------------------------------------
          MULLIKEN AND LOWDIN POPULATION ANALYSES
          ---------------------------------------

     MULLIKEN ATOMIC POPULATION IN EACH MOLECULAR ORBITAL

                      1          2          3          4          5

                  2.000000   2.000000   2.000000   2.000000   2.000000

    1             0.000190   0.011975   1.973883   0.001930  -0.006914
    2            -0.001076   1.964305   0.012393   0.017557   0.029576
    3             0.000524   0.017297   0.002613   1.970426  -0.002495
    4             0.000004   0.000763   0.003139   0.000049  -0.001297
    5             0.000019   0.001038   0.003851   0.000095   0.000513
    6            -0.000021  -0.000018   0.003204   0.000161   0.004502
    7            -0.000017   0.001546   0.000513   0.000737  -0.002801
    8             0.000007   0.001191   0.000305   0.004680  -0.004262
    9             0.000007   0.000862   0.000046   0.003340   0.007172
   10             0.001806   0.001056   0.000055   0.000994  -0.045184
   11             1.998557  -0.000014   0.000000   0.000031   2.021189

                      6          7          8          9         10

                  2.000000   2.000000   2.000000   2.000000   2.000000

    1             0.281630   0.502840   0.102573   0.259254   0.149579
    2             0.789963   0.022377   0.478406   0.496185   0.361099
    3             0.262787   0.308893  -0.088268   0.178893   0.371867
    4             0.025544   0.252268   0.067076   0.101272   0.018157
    5             0.021315   0.226070   0.074571   0.084768   0.019044
    6             0.118662   0.174886   0.100774   0.032463   0.162069
    7             0.237236  -0.012451   0.586031   0.234221   0.102332
    8             0.266550   0.400329   0.639529  -0.043431   0.474830
    9             0.021365   0.127501   0.040893   0.640738   0.073027
   10            -0.041263  -0.008734  -0.003189   0.007621   0.126978
   11             0.016212   0.006020   0.001602   0.008016   0.141018

                     11         12         13         14         15

                  2.000000   2.000000   2.000000   2.000000   2.000000

    1             0.486689   0.297555   0.472735   0.363915   0.015800
    2             0.340155   0.058041   0.212083   0.224413   0.066204
    3             0.201752   0.085592   0.256753   0.064515   0.031916
    4             0.360156   0.349988   0.045898  -0.018734   0.019733
    5             0.304113   0.075711   0.386916   0.001771   0.008340
    6             0.033537   0.192448   0.310328   0.296947  -0.000133
    7             0.003635   0.010184   0.027806   0.453773   0.001083
    8             0.064454  -0.003610  -0.031485   0.163102   0.001933
    9            -0.009948   0.006258   0.276391   0.252818   0.001392
   10             0.048614   0.245123   0.007805   0.029261   0.028743
   11             0.166843   0.682711   0.034771   0.168219   1.824988

                     16         17

                  2.000000   2.000000

    1             0.002789   0.035047
    2             0.000561   0.445841
    3             0.002908   0.809610
    4             0.001542   0.045012
    5             0.002326   0.024090
    6            -0.000827  -0.000284
    7             0.000002   0.021494
    8             0.000225   0.009846
    9             0.000555   0.028602
   10             0.026817   0.007700
   11             1.963103   0.573042

               ----- POPULATIONS IN EACH AO -----
                             MULLIKEN      LOWDIN
              1  C   1  S     2.02174     1.81102
              2  C   1  S     0.66106     0.42453
              3  C   1  S     0.04881     0.17807
              4  C   1  S     0.10556     0.04877
              5  C   1  X     0.75402     0.62222
              6  C   1  Y     0.73609     0.61096
              7  C   1  Z     0.71811     0.59508
              8  C   1  X    -0.07904     0.29088
              9  C   1  Y    -0.12812     0.28505
             10  C   1  Z     0.22896     0.26004
             11  C   1  X    -0.01654     0.02812
             12  C   1  Y    -0.02348     0.02795
             13  C   1  Z    -0.01211     0.03384
             14  C   1 XX     0.00655     0.10963
             15  C   1 YY     0.00792     0.11382
             16  C   1 ZZ     0.00668     0.11034
             17  C   1 XY     0.00633     0.01555
             18  C   1 XZ     0.00951     0.02366
             19  C   1 YZ     0.01111     0.02639
             20  C   1 XX    -0.01759     0.03549
             21  C   1 YY    -0.02416     0.06661
             22  C   1 ZZ    -0.01045     0.06675
             23  C   1 XY    -0.01798     0.03496
             24  C   1 XZ    -0.01478     0.06757
             25  C   1 YZ    -0.02672     0.06520
             26  C   2  S     2.02224     1.81542
             27  C   2  S     0.68721     0.44945
             28  C   2  S     0.48047     0.17715
             29  C   2  S    -0.09291     0.04785
             30  C   2  X     0.59668     0.49764
             31  C   2  Y     0.71426     0.58574
             32  C   2  Z     0.70235     0.57704
             33  C   2  X     0.12159     0.22796
             34  C   2  Y     0.01171     0.26804
             35  C   2  Z    -0.00399     0.22377
             36  C   2  X     0.01616     0.03460
             37  C   2  Y     0.04004     0.03562
             38  C   2  Z     0.02772     0.04703
             39  C   2 XX     0.00731     0.08710
             40  C   2 YY     0.01110     0.13082
             41  C   2 ZZ     0.01472     0.13616
             42  C   2 XY     0.00960     0.02064
             43  C   2 XZ     0.01403     0.02903
             44  C   2 YZ     0.01876     0.03591
             45  C   2 XX     0.01090     0.05563
             46  C   2 YY    -0.01484     0.08526
             47  C   2 ZZ    -0.00396     0.13808
             48  C   2 XY     0.05097     0.08950
             49  C   2 XZ     0.03886     0.13681
             50  C   2 YZ     0.03711     0.13162
             51  C   3  S     2.02356     1.78777
             52  C   3  S     0.65828     0.45038
             53  C   3  S     0.17675     0.18060
             54  C   3  S    -0.35847     0.04592
             55  C   3  X     0.71586     0.59418
             56  C   3  Y     0.73557     0.60941
             57  C   3  Z     0.73848     0.60783
             58  C   3  X    -0.01435     0.26338
             59  C   3  Y    -0.02661     0.26628
             60  C   3  Z    -0.06844     0.26595
             61  C   3  X     0.01141     0.03358
             62  C   3  Y    -0.04059     0.03003
             63  C   3  Z    -0.00879     0.03475
             64  C   3 XX     0.00666     0.11574
             65  C   3 YY     0.00265     0.09764
             66  C   3 ZZ     0.01010     0.12459
             67  C   3 XY     0.00986     0.02893
             68  C   3 XZ     0.00760     0.02222
             69  C   3 YZ     0.00925     0.02771
             70  C   3 XX    -0.00886     0.05650
             71  C   3 YY    -0.00354     0.02737
             72  C   3 ZZ    -0.01090     0.07791
             73  C   3 XY    -0.03182     0.06846
             74  C   3 XZ    -0.01285     0.05767
             75  C   3 YZ    -0.04525     0.06841
             76  H   4  S     0.79129     0.52452
             77  H   4  S     0.48311     0.14907
             78  H   4  S     0.01386     0.01973
             79  H   4  X     0.00999     0.02206
             80  H   4  Y     0.00879     0.01926
             81  H   4  Z     0.01211     0.02757
             82  H   4  X    -0.01510     0.07091
             83  H   4  Y    -0.01240     0.06739
             84  H   4  Z    -0.02109     0.06782
             85  H   5  S     0.78723     0.52753
             86  H   5  S     0.45073     0.14723
             87  H   5  S     0.00945     0.02016
             88  H   5  X     0.01704     0.03624
             89  H   5  Y     0.00678     0.01583
             90  H   5  Z     0.00668     0.01650
             91  H   5  X    -0.01587     0.08719
             92  H   5  Y    -0.01062     0.06161
             93  H   5  Z    -0.01687     0.05787
             94  H   6  S     0.79300     0.52871
             95  H   6  S     0.59642     0.15054
             96  H   6  S     0.03842     0.02091
             97  H   6  X     0.00804     0.01768
             98  H   6  Y     0.01575     0.03374
             99  H   6  Z     0.00596     0.01385
            100  H   6  X    -0.00643     0.06593
            101  H   6  Y    -0.02145     0.08000
            102  H   6  Z    -0.00102     0.05401
            103  H   7  S     0.79673     0.52571
            104  H   7  S     0.85305     0.15349
            105  H   7  S     0.04310     0.02071
            106  H   7  X     0.00655     0.01513
            107  H   7  Y     0.01468     0.03746
            108  H   7  Z     0.00394     0.01296
            109  H   7  X    -0.00695     0.05393
            110  H   7  Y    -0.00701     0.06564
            111  H   7  Z    -0.03875     0.03958
            112  H   8  S     0.89177     0.56003
            113  H   8  S     1.08072     0.14236
            114  H   8  S     0.03959     0.02047
            115  H   8  X     0.01356     0.04539
            116  H   8  Y     0.01351     0.04331
            117  H   8  Z     0.00836     0.03233
            118  H   8  X    -0.02006     0.07513
            119  H   8  Y    -0.03986     0.09443
            120  H   8  Z    -0.04339     0.07641
            121  H   9  S     0.78148     0.51324
            122  H   9  S     0.73924     0.16053
            123  H   9  S    -0.00967     0.02035
            124  H   9  X     0.00509     0.01332
            125  H   9  Y     0.01055     0.02293
            126  H   9  Z     0.01271     0.02766
            127  H   9  X    -0.02026     0.05176
            128  H   9  Y    -0.01945     0.06466
            129  H   9  Z    -0.02867     0.06148
            130  H  10  S     0.49845     0.32157
            131  H  10  S    -0.10959     0.11696
            132  H  10  S    -0.01063     0.02212
            133  H  10  X     0.03623     0.09581
            134  H  10  Y     0.00959     0.01601
            135  H  10  Z     0.00899     0.01462
            136  H  10  X    -0.02681     0.13781
            137  H  10  Y     0.01798     0.08612
            138  H  10  Z     0.00998     0.07754
            139  F  11  S     2.00695     1.87902
            140  F  11  S     0.89905     0.67214
            141  F  11  S     1.03350     0.43917
            142  F  11  S     0.11174     0.08790
            143  F  11  X     0.97393     0.91232
            144  F  11  Y     1.15972     1.11540
            145  F  11  Z     1.15629     1.11214
            146  F  11  X     0.59721     0.59907
            147  F  11  Y     0.70205     0.68851
            148  F  11  Z     0.70279     0.68445
            149  F  11  X     0.06032     0.10691
            150  F  11  Y     0.10033     0.10905
            151  F  11  Z     0.09902     0.10650
            152  F  11 XX     0.00061     0.19714
            153  F  11 YY     0.00015     0.19466
            154  F  11 ZZ     0.00015     0.19452
            155  F  11 XY     0.00011     0.00013
            156  F  11 XZ     0.00011     0.00014
            157  F  11 YZ     0.00000     0.00000
            158  F  11 XX     0.00068     0.07567
            159  F  11 YY     0.00016     0.06052
            160  F  11 ZZ     0.00015     0.06099
            161  F  11 XY     0.00062     0.00034
            162  F  11 XZ     0.00067     0.00054
            163  F  11 YZ    -0.00002     0.00033

          ----- MULLIKEN ATOMIC OVERLAP POPULATIONS -----
          (OFF-DIAGONAL ELEMENTS NEED TO BE MULTIPLIED BY 2)

             1           2           3           4           5

    1    4.3391079
    2    0.3988210   5.1685190
    3   -0.3134176   0.1257567   6.0840892
    4    0.0875454   0.0492508   0.1819379   1.6950468
    5    0.1444655   0.2438910  -0.0655508  -0.2243375   1.4999101
    6    0.4379703  -0.2112027  -0.2186584  -0.3743393  -0.2993343
    7   -0.0501105  -0.3261804  -0.3636014  -0.1257062  -0.0664389
    8   -0.1070534   0.1578383  -1.3248715  -0.0476870   0.0171435
    9    0.0334124  -0.0545336   0.3528312   0.0250681  -0.0098159
   10   -0.0167540  -0.0089990   0.1131711   0.0069449  -0.0009317
   11   -0.0025194  -0.0250797  -0.0961028  -0.0031528  -0.0044499

             6           7           8           9          10

    6    2.0400694
    7    0.1052811   2.5210844
    8   -0.0487771   0.2355036   4.2215327
    9    0.0053594  -0.2559884  -1.1049903   2.4475403
   10   -0.0172882  -0.0220224  -0.0876860   0.0303585   0.3126237
   11    0.0096173   0.0135025   0.0332398   0.0017772   0.1247872

            11

   11    9.5546891

          TOTAL MULLIKEN AND LOWDIN ATOMIC POPULATIONS
       ATOM         MULL.POP.    CHARGE          LOW.POP.     CHARGE
    1 C             4.951468    1.048532         5.952512    0.047488
    2 C             5.518081    0.481919         6.063877   -0.063877
    3 C             4.475584    1.524416         5.943206    0.056794
    4 H             1.270571   -0.270571         0.968343    0.031657
    5 H             1.234551   -0.234551         0.970147    0.029853
    6 H             1.428697   -0.428697         0.965379    0.034621
    7 H             1.665323   -0.665323         0.924607    0.075393
    8 H             1.944193   -0.944193         1.089875   -0.089875
    9 H             1.471019   -0.471019         0.935939    0.064061
   10 H             0.434204    0.565796         0.888564    0.111436
   11 F             9.606309   -0.606309         9.297550   -0.297550

          -------------------------------
          BOND ORDER AND VALENCE ANALYSIS     BOND ORDER THRESHOLD=0.050
          -------------------------------

                   BOND                       BOND                       BOND
  ATOM PAIR DIST  ORDER      ATOM PAIR DIST  ORDER      ATOM PAIR DIST  ORDER
    1   2  1.501  1.176        1   4  1.053  0.780        1   5  1.059  0.781
    1   6  1.067  0.871        1   8  2.721 -0.056        2   3  1.385  1.676
    2   4  2.108  0.091        2   5  2.128  0.106        2   6  2.157  0.124
    2   7  1.068  0.498        2   8  2.000  0.249        2   9  2.136  0.074
    2  11  2.591  0.122        3   6  2.700 -0.135        3   7  2.115 -0.072
    3   8  0.897 -0.206        3   9  1.086  0.740        3  10  1.651  0.139
    4   5  1.697 -0.073        4   6  1.714 -0.103        5   6  1.712 -0.062
    7   9  2.442 -0.055        8   9  1.701 -0.432       10  11  1.249  0.484

                       TOTAL       BONDED        FREE
      ATOM            VALENCE     VALENCE     VALENCE
    1 C                 3.495       3.495       0.000
    2 C                 4.164       4.164       0.000
    3 C                 2.119       2.119       0.000
    4 H                 0.676       0.676       0.000
    5 H                 0.746       0.746       0.000
    6 H                 0.672       0.672       0.000
    7 H                 0.361       0.361       0.000
    8 H                -0.458      -0.458       0.000
    9 H                 0.356       0.356       0.000
   10 H                 0.619       0.619       0.000
   11 F                 0.621       0.621       0.000

          ---------------------
          ELECTROSTATIC MOMENTS
          ---------------------

 POINT   1           X           Y           Z (BOHR)    CHARGE
                 3.402665    7.201430   -3.919876        0.00 (A.U.)
         DX          DY          DZ         /D/  (DEBYE)
    -3.473619    1.240827    2.412382    4.407411
 ...... END OF PROPERTY EVALUATION ......

                         TIMING STATISTICS ON RANK 0:
 CPU        TIME:   STEP =      0.05 ,  TOTAL =       12.6 SECONDS (    0.2 MIN)
 WALL CLOCK TIME:   STEP =      0.23 ,  TOTAL =       32.5 SECONDS (    0.5 MIN)
 CPU UTILIZATION:   STEP =     22.08%,  TOTAL =      38.79%
 ......END OF NBO ANALYSIS......

                         TIMING STATISTICS ON RANK 0:
 CPU        TIME:   STEP =      0.00 ,  TOTAL =       12.6 SECONDS (    0.2 MIN)
 WALL CLOCK TIME:   STEP =      0.01 ,  TOTAL =       32.5 SECONDS (    0.5 MIN)
 CPU UTILIZATION:   STEP =      0.00%,  TOTAL =      38.78%

                         OVERALL  TIMING  STATISTICS:
 GLOBAL CPU TIME ELAPSED      =        83.4 SECONDS (     1.4 MIN)
 RANK 0 WALL CLOCK TIME       =        32.5 SECONDS (     0.5 MIN)
 JOB CPU UTILIZATION:   TOTAL =    256.51%, PER RANK AVERAGE =     25.65%

      912929 WORDS OF    DYNAMIC MEMORY USED
     5585795 BYTES OF    HEAP MEMORY    USED,      133350 BYTES REMAIN IN USE

 WARNING! THIS VERSION OF FIREFLY IS PROBABLY OUTDATED!
 PLEASE CHECK FIREFLY HOMEPAGE FOR INFORMATION ON UPDATES!

 EXECUTION OF FIREFLY TERMINATED NORMALLY  0:11:30  9-JUL-2026    
