11
mark_scan_10; coordinates in Angstrom
C   0.2668979011 -0.1692284034  1.2630545783
C   0.4487501976  0.3129764861 -0.1645445936
C  -0.6940100540 -0.0346127225 -1.1010468855
H  -0.6092655567  0.3167711806  1.7156881601
H   1.1496456364  0.0764122611  1.8668893906
H   0.1142425471 -1.2570749713  1.2866747038
H   0.6421342000  1.3965126183 -0.1814034880
H  -0.4704746328  0.3018159036 -2.1213385907
H  -1.6176152253  0.4597009946 -0.7673217826
H  -0.8644816401 -1.1200434324 -1.1162727704
F   1.6341766267 -0.2832299147 -0.6803787220
