11
mark_scan_00; coordinates in Angstrom
C   0.0158003243 -0.1884222608  1.3859268677
C  -0.1625746788  0.6272153902  0.1392747980
C  -0.8884839026  0.2682876645 -0.9309553417
H  -0.3611114929  0.3627658397  2.2612334297
H   1.0813028101 -0.3907116576  1.5729574889
H  -0.5153350764 -1.1470618838  1.3225820033
H   0.3454062373  1.5971275327  0.1226768332
H  -1.4287548204 -0.6804571502 -0.9623264072
H  -0.9903240545  0.9245384487 -1.7959377862
H   1.0690686234 -0.4760682766 -1.3844055834
F   1.8350060308 -0.8972136469 -1.7310263025
