11
scan_09; coordinates in Angstrom
C  -0.0863580574 -0.1118880665  1.3341475028
C   0.4062514396  0.3883620298 -0.0208980384
C  -0.3429224442 -0.1914669034 -1.1861883702
H   0.4137597496  0.4009504693  2.1663643997
H   0.0936696831 -1.1902086088  1.4556985879
H  -1.1656286874  0.0607364724  1.4586772042
H   0.3924478569  1.4862740503 -0.0700171635
H  -0.4173905960 -1.2879104865 -1.1609488750
H  -1.3345764625  0.2627439515 -1.3172842416
H   1.4806199879  0.0688455901 -0.3160845967
F   0.5601275305  0.1135615017 -2.3434664093
