              Grand Master is running on host yaroslavhonor
              rank #     1 is running on host yaroslavhonor
              rank #     2 is running on host yaroslavhonor
              rank #     3 is running on host yaroslavhonor
              rank #     4 is running on host yaroslavhonor
              rank #     5 is running on host yaroslavhonor
              rank #     6 is running on host yaroslavhonor
              rank #     7 is running on host yaroslavhonor

          ******************************************************
          *      Firefly version 8.2.0, build number 10203     *
          *   Compiled on    Monday,    19-09-2016, 15:30:23   *
          *Code development and Intel/AMD specific optimization*
          *  Copyright (c) 1994, 2016 by  Alex A. Granovsky,   *
          *          Firefly Project, Moscow, Russia.          *
          *   Some parts of this program include code due to   *
          * work of Jim Kress, Peter Burger, and Robert Ponec. *
          ******************************************************
          *             Firefly Project homepage:              *
          * http://classic.chem.msu.su/gran/firefly/index.html *
          *                      e-mail:                       *
          *               gran@classic.chem.msu.su             *
          *This program is not a free software and is provided *
          *exclusively to its registered users under the terms *
          *       of Firefly package license agreement         *
          * Unauthorized use of Firefly is strongly prohibited *
          *   This program may not be redistributed without    *
          * the specific, written permission of its developers.*
          ******************************************************

          ******************************************************
          *  PARTIALLY BASED ON  US GAMESS VERSION 6 JUN 1999, *
          *   US GAMESS VERSIONS  6 SEP 2001 AND 12 DEC 2003   *
          *             FROM IOWA STATE UNIVERSITY             *
          * M.W.SCHMIDT, K.K.BALDRIDGE, J.A.BOATZ, S.T.ELBERT, *
          *   M.S.GORDON, J.H.JENSEN, S.KOSEKI, N.MATSUNAGA,   *
          *          K.A.NGUYEN, S.J.SU, T.L.WINDUS,           *
          *       TOGETHER WITH M.DUPUIS, J.A.MONTGOMERY       *
          *         J.COMPUT.CHEM.  14, 1347-1363(1993)        *
          ******************************************************


 Core i7    / Linux  Firefly version running under Linux.
 Running on Intel CPU:  Brand ID  0, Family  6, Model 170, Stepping  4
 CPU Brand String    :  Intel(R) Core(TM) Ultra 5 125H                  
 CPU Features        :  x87 FPU, CMOV, MMX, SSE, SSE2, SSE3, SSSE3, SSE4.1, SSE4.2, AVX, AVX2, FMA3, HTT, MWAIT, EM64T
 Data cache size     :  L1 32 KB, L2 2048 KB, L3 18432 KB
 max    # of   cores/package :  64
 max    # of threads/package : 128
 max     cache sharing level :  64
 actual # of   cores/package :  18
 actual # of threads/package :  18
 actual # of threads/core    :   1
 Operating System successfully passed SSE support test.
 Operating System supports AVX/FMA.


 PARALLEL VERSION (MPICH) RUNNING USING    8 PROCESSES (RANKS)


 WARNING! THIS VERSION OF FIREFLY IS PROBABLY OUTDATED!
 PLEASE CHECK FIREFLY HOMEPAGE FOR INFORMATION ON UPDATES!

 EXECUTION OF FIREFLY BEGUN  8:28:12  7-MAY-2026    

            ECHO OF THE FIRST FEW INPUT CARDS -
 INPUT CARD> $CONTRL CITYP=ALDET D5=.T. EXETYP=RUN FSTINT=.T. GENCON=.F. ICHARG=0 ICUT=13   
 INPUT CARD>      INTTYP=HONDO ITOL=30 MAXIT=100 MULT=1 NUMDER=.T. RUNTYP=SURFACE SCFTYP=RHF
 INPUT CARD> $END                                                                           
 INPUT CARD> $MOORTH NOSTF=.T. NOZERO=.T. SYMDEN=.T. SYMS=.T. SYMVEC=.T. SYMVX=.T.          
 INPUT CARD>      TOLE=0.0D0 TOLZ=0.0D0 $END                                                
 INPUT CARD> $GUESS GUESS=HUCKEL $END                                                       
 INPUT CARD> $BASIS EXTFIL=.T. GBASIS=acc-pVDZ $END                                         
 INPUT CARD> $SYSTEM KDIAG=0 MASMEM=200000000 MWORDS=200 MXBCST=-1 NOJAC=1 TIMLIM=60000 $END
 INPUT CARD> $SURF DISP1=0.10 NDISP1=5 IGRP1(1)=2 IVEC1(1)=1,2 NSURF=3 $END                 
 INPUT CARD> $SCF DAMP=.T. DIIS=.T. DIRSCF=.T. FDIFF=.F. SHIFT=.T. SOSCF=.F. $END           
 INPUT CARD> $CIDET NACT=29 NCORE=3 NELS=6 NSTATE=3 GROUP=c2v CVGTOL=1e-4 $END              
 INPUT CARD> $DATA                                                                          
 INPUT CARD> LiF selected minimum scan R=1.30-1.70 Ang                                      
 INPUT CARD> Cnv 2                                                                          
 INPUT CARD>                                                                                
 INPUT CARD>Li    3.0     0.0000000000     0.0000000000     0.0000000000                    
 INPUT CARD>F     9.0     0.0000000000     0.0000000000     1.3000000000                    
 INPUT CARD>$END                                                                            
  200000000 WORDS OF MEMORY AVAILABLE

 This job is executing on     1 unique host(s)
 Minimum number of processes per host is:    8
 Maximum number of processes per host is:    8

 On master's host, detected   18 CPU core(s) in aggregate

 Using processor-specific dynamic link DGEMM library code.


 Creating thread pool to serve up to            128 threads.


 Loading P2P interface library... loaded successfully (version 2.4).
 Initializing global P2P interface... topology done.


     $BASIS REQUESTS READING THE "ACC-PVDZ" BASIS SET FROM AN EXTERNAL FILE


     RUN TITLE
     ---------
  LiF selected minimum scan R=1.30-1.70 Ang                                      

 THE POINT GROUP OF THE MOLECULE IS CNV     
 THE ORDER OF THE PRINCIPAL AXIS IS     2
 *** WARNING! ATOM   2 SHELL   10 TYPE S HAS NORMALIZATION   0.99954745
 *** WARNING! ATOM   2 SHELL   11 TYPE S HAS NORMALIZATION   1.94662964
 *** WARNING! ATOM   2 SHELL   13 TYPE P HAS NORMALIZATION   1.44467270

 ATOM      ATOMIC                      COORDINATES (BOHR)
           CHARGE         X                   Y                   Z
 LI          3.0     0.0000000000        0.0000000000        0.0000000000
 F           9.0     0.0000000000        0.0000000000        2.4566439631

          INTERNUCLEAR DISTANCES (ANGS.)
          ------------------------------

                    LI             F         

  1  LI              0.0000000      1.3000000 *  
  2  F               1.3000000 *    0.0000000    

  * ... LESS THAN  3.000


     ATOMIC BASIS SET
     ----------------
 THE CONTRACTED PRIMITIVE FUNCTIONS HAVE BEEN UNNORMALIZED
 THE CONTRACTED BASIS FUNCTIONS ARE NOW NORMALIZED TO UNITY

 SHELL TYPE PRIM    EXPONENT          CONTRACTION COEFFICIENTS

 LI        

   1   S    1    1469.000000    0.129540 (  0.000766) 
   1   S    2     220.500000    0.240287 (  0.005892) 
   1   S    3      50.260000    0.399171 (  0.029671) 
   1   S    4      14.240000    0.570408 (  0.109180) 
   1   S    5       4.581000    0.631093 (  0.282789) 
   1   S    6       1.580000    0.455113 (  0.453123) 
   1   S    7       0.564000    0.127452 (  0.274774) 
   1   S    8       0.073450    0.000981 (  0.009751) 
   1   S    9       0.028050   -0.000155 ( -0.003180) 

   2   S   10    1469.000000   -0.020294 ( -0.000120) 
   2   S   11     220.500000   -0.037642 ( -0.000923) 
   2   S   12      50.260000   -0.063082 ( -0.004689) 
   2   S   13      14.240000   -0.092379 ( -0.017682) 
   2   S   14       4.581000   -0.109133 ( -0.048902) 
   2   S   15       1.580000   -0.096431 ( -0.096009) 
   2   S   16       0.564000   -0.063259 ( -0.136380) 
   2   S   17       0.073450    0.057829 (  0.575102) 
   2   S   18       0.028050    0.025287 (  0.517661) 

   3   S   19       0.028050    0.048849 (  1.000000) 

   4   P   20       1.534000    0.055444 (  0.022784) 
   4   P   21       0.274900    0.039469 (  0.139107) 
   4   P   22       0.073620    0.027351 (  0.500375) 
   4   P   23       0.024030    0.006857 (  0.508474) 

   5   P   24       0.024030    0.013486 (  1.000000) 

   6   D   25       0.114400    0.037039 (  1.000000) 

   7   S   26       0.008600    0.020127 (  1.000000) 

   8   P   27       0.005800    0.002282 (  1.000000) 

   9   D   28       0.073300    0.016996 (  1.000000) 

 F         

  10   S   29   14710.000000    0.686054 (  0.000721) 
  10   S   30    2207.000000    1.273776 (  0.005553) 
  10   S   31     502.800000    2.138157 (  0.028267) 
  10   S   32     142.600000    3.129135 (  0.106444) 
  10   S   33      46.470000    3.636582 (  0.286814) 
  10   S   34      16.700000    2.640279 (  0.448641) 
  10   S   35       6.356000    0.755015 (  0.264761) 
  10   S   36       1.316000    0.013421 (  0.015333) 

  11   S   37   14710.000000   -0.305764 ( -0.000165) 
  11   S   38    2207.000000   -0.584323 ( -0.001308) 
  11   S   39     502.800000   -0.956795 ( -0.006495) 
  11   S   40     142.600000   -1.528086 ( -0.026691) 
  11   S   41      46.470000   -1.819623 ( -0.073690) 
  11   S   42      16.700000   -1.957301 ( -0.170776) 
  11   S   43       6.356000   -0.623829 ( -0.112327) 
  11   S   44       1.316000    0.959401 (  0.562814) 

  12   S   45       0.389700    0.351526 (  1.000000) 

  13   P   46      22.670000    4.571487 (  0.044878) 
  13   P   47       4.977000    3.608377 (  0.235718) 
  13   P   48       1.347000    1.519595 (  0.508521) 

  14   P   49       0.347100    0.379759 (  1.000000) 

  15   D   50       1.640000    3.911886 (  1.000000) 

  16   S   51       0.098630    0.125434 (  1.000000) 

  17   P   52       0.085020    0.065440 (  1.000000) 

  18   D   53       0.464000    0.429354 (  1.000000) 

 TOTAL NUMBER OF SHELLS              =   18
 TOTAL NUMBER OF BASIS FUNCTIONS     =   50
 NUMBER OF ELECTRONS                 =   12
 CHARGE OF MOLECULE                  =    0
 STATE MULTIPLICITY                  =    1
 NUMBER OF OCCUPIED ORBITALS (ALPHA) =    6
 NUMBER OF OCCUPIED ORBITALS (BETA ) =    6
 TOTAL NUMBER OF ATOMS               =    2
 THE NUCLEAR REPULSION ENERGY IS       10.9906036062
 TOTAL NUMBER OF CONTAMINANTS DROPPED=    4


 THIS MOLECULE IS RECOGNIZED AS BEING LINEAR.

     $CONTRL OPTIONS
     ---------------
     SCFTYP=RHF          RUNTYP=SURFACE      EXETYP=RUN     
     MPLEVL=       0     LOCAL =NONE         UNITS =ANGS    
     MULT  =       1     ICHARG=       0     MAXIT =     100
     NPRINT=       7     IREST =       0     COORD =UNIQUE  
     ECP   =NONE         NORMF =       0     NORMP =       0
     ITOL  =      30     ICUT  =      13     NZVAR =       0
     NOSYM =       0     INTTYP=HONDO        GEOM  =INPUT   
     PLTORB=       F     MOLPLT=       F     RPAC  =       F
     AIMPAC=       0     FRIEND=             CITYP =ALDET   
     DFTTYP=NONE    

     $SYSTEM OPTIONS
     ---------------
     KDIAG =       0     MEMORY=200000000     TIMLIM=  3600000.0 SEC.
     COREFL=       F     PTIME =        F     XDR   =       F
     BALTYP=NXTVAL       CBASE = 09001000     FBASE = AB2E10C0

          ----------------
          PROPERTIES INPUT
          ----------------

     MOMENTS            FIELD           POTENTIAL          DENSITY
 IEMOM =       1   IEFLD =       0   IEPOT =       0   IEDEN =       0
 WHERE =COMASS     WHERE =NUCLEI     WHERE =NUCLEI     WHERE =NUCLEI  
 OUTPUT=BOTH       OUTPUT=BOTH       OUTPUT=BOTH       OUTPUT=BOTH    
 IEMINT=       0   IEFINT=       0                     IEDINT=       0
                                                       MORB  =       0

          EXTRAPOLATION IN EFFECT
          DAMPING IN EFFECT
          LEVEL SHIFTING IN EFFECT
          DIIS IN EFFECT

          ----------------------
          INTEGRAL INPUT OPTIONS
          ----------------------
 NOPK  =       1 NORDER=       0 SCHWRZ=       T

 ATTENTION! AO INTEGRALS WILL BE PACKED.
 THRESHOLD FOR PACKING PKTHR =  0.10000000D-05

     -------------------------------
     INTEGRAL TRANSFORMATION OPTIONS
     -------------------------------
     NWORD  =       0     CUTTRF = 1.0E-09
     MPTRAN =       0     DIRTRF =       T
     AOINTS =DUP          IREST  =       0

     ------------------------------------------
     THE POINT GROUP IS CNV, NAXIS= 2, ORDER= 4
     ------------------------------------------

     DIMENSIONS OF THE SYMMETRY SUBSPACES ARE
 A1  =  26      A2  =   4      B1  =  10      B2  =  10

 ..... DONE SETTING UP THE RUN .....

                         TIMING STATISTICS ON RANK 0:
 CPU        TIME:   STEP =      0.16 ,  TOTAL =        0.3 SECONDS (    0.0 MIN)
 WALL CLOCK TIME:   STEP =      0.20 ,  TOTAL =        0.2 SECONDS (    0.0 MIN)
 CPU UTILIZATION:   STEP =     78.73%,  TOTAL =     147.63%

     ---------------------------
     POTENTIAL SURFACE MAP INPUT
     ---------------------------
 COORD 1 LYING ALONG ATOM PAIR    1    2
 HAS ORIGIN= 0.000, DISPLACEMENT= 0.100  AND   5 STEPS.
 GROUP 1 CONTAINS    1 ATOMS:
     2
 ...... END OF ONE-ELECTRON INTEGRALS ......

                         TIMING STATISTICS ON RANK 0:
 CPU        TIME:   STEP =      0.00 ,  TOTAL =        0.3 SECONDS (    0.0 MIN)
 WALL CLOCK TIME:   STEP =      0.00 ,  TOTAL =        0.2 SECONDS (    0.0 MIN)
 CPU UTILIZATION:   STEP =      0.00%,  TOTAL =     145.15%

          -------------
          GUESS OPTIONS
          -------------
          GUESS =HUCKEL            NORB  =       0          NORDER=       0
          MIX   =       F          PRTMO =       F          SYMDEN=       F
          TOLZ  = 0.0E+00          TOLE  = 0.0E+00

 INITIAL GUESS ORBITALS GENERATED BY HUCKEL   ROUTINE.
 HUCKEL GUESS REQUIRES     19614 WORDS.

 LOG10 OF CONDITION NUMBER OF OVERLAP MATRIX IS:  3.33875898E+00

 SYMMETRIES FOR INITIAL GUESS ORBITALS FOLLOW.   BOTH SET(S).
     6 ORBITALS ARE OCCUPIED (    2 CORE ORBITALS).
     3=A1       4=A1       5=B1       6=B2       7=A1       8=A1       9=B1  
    10=B2      11=A1      12=A1      13=B1      14=B2      15=A2      16=A1  
 ...... END OF INITIAL ORBITAL SELECTION ......

                         TIMING STATISTICS ON RANK 0:
 CPU        TIME:   STEP =      0.02 ,  TOTAL =        0.3 SECONDS (    0.0 MIN)
 WALL CLOCK TIME:   STEP =      0.03 ,  TOTAL =        0.2 SECONDS (    0.0 MIN)
 CPU UTILIZATION:   STEP =     63.85%,  TOTAL =     134.45%
 ...... END OF TWO-ELECTRON INTEGRALS .....

                         TIMING STATISTICS ON RANK 0:
 CPU        TIME:   STEP =      0.01 ,  TOTAL =        0.3 SECONDS (    0.0 MIN)
 WALL CLOCK TIME:   STEP =      0.00 ,  TOTAL =        0.2 SECONDS (    0.0 MIN)
 CPU UTILIZATION:   STEP =    246.73%,  TOTAL =     136.33%

 DIRECT SCF CALCULATION, SCHWRZ=T   FDIFF=F

                                                                                                              NONZERO    BLOCKS
 ITER EX DEM  TOTAL ENERGY      E CHANGE  DENSITY CHANGE    DIIS ERROR      VIR. SHIFT       DAMPING        INTEGRALS   SKIPPED
   1  0  0  -105.569956590  -105.569956590   0.447429975   0.619740128     0.000000000     1.000000000         863013      1132
          * * *   INITIATING DIIS PROCEDURE   * * *
   2  1  0  -106.666084043    -1.096127453   1.247223817   0.365999804     0.000000000     1.000000000         863013      1132
   3  2  0  -106.795306650    -0.129222608   0.491626254   0.263552127     0.000000000     1.000000000         863013      1132
   4  3  0  -106.919240296    -0.123933645   0.030792443   0.005601344     0.000000000     1.000000000         863013      1132
   5  4  0  -106.919376546    -0.000136250   0.006520889   0.001478124     0.000000000     1.000000000         863013      1132
   6  5  0  -106.919387054    -0.000010508   0.002227089   0.000244217     0.000000000     1.000000000         863013      1132
   7  6  0  -106.919387664    -0.000000611   0.000570437   0.000064977     0.000000000     1.000000000         863013      1132
   8  7  0  -106.919387709    -0.000000045   0.000028673   0.000010785     0.000000000     1.000000000         863013      1132
   9  8  0  -106.919387709     0.000000000   0.000005748   0.000000674     0.000000000     1.000000000         863013      1132
  10  9  0  -106.919387709     0.000000000   0.000001432   0.000000080     0.000000000     1.000000000         863013      1132

          -----------------
          DENSITY CONVERGED
          -----------------
     TIME TO FORM FOCK OPERATORS =       0.18 SECONDS (       0.02 SEC/ITER)
     FOCK TIME ON FIRST ITERATION=       0.01, LAST ITERATION=       0.01
     TIME TO SOLVE SCF EQUATIONS =       0.05 SECONDS (       0.01 SEC/ITER)

 FINAL ENERGY IS     -106.9193877095 AFTER  10 ITERATIONS
 ...... END OF RHF CALCULATION ......

                         TIMING STATISTICS ON RANK 0:
 CPU        TIME:   STEP =      0.24 ,  TOTAL =        0.6 SECONDS (    0.0 MIN)
 WALL CLOCK TIME:   STEP =      0.28 ,  TOTAL =        0.5 SECONDS (    0.0 MIN)
 CPU UTILIZATION:   STEP =     86.41%,  TOTAL =     109.66%
 ...... END OF TWO-ELECTRON INTEGRALS .....

 CPU        TIME:   STEP =      0.01 ,  TOTAL =        0.6 SECONDS (    0.0 MIN)
 WALL CLOCK TIME:   STEP =      0.00 ,  TOTAL =        0.5 SECONDS (    0.0 MIN)
 CPU UTILIZATION:   STEP =    267.52%,  TOTAL =     110.78%

 DETERMINANT CI OPTIONS   NRNFG   NPFLG
 INTEGRAL TRANSFORMATION    1      -5
 DIAGONALIZE HAMILTONIAN    1      -5
 FORM 1E- DENSITY MATRIX    1      -5
 FORM 2E- DENSITY MATRIX    0      -5

 ---- SURFACE MAPPING GEOMETRY ----
 COORD 1=   0.00000  COORD 2=   0.00000
 HAS ENERGY VALUES       -106.9409286932        -106.6605783896        -106.6585876096 
 LI            0.0000000000          0.0000000000          0.0000000000
 F             0.0000000000          0.0000000000          1.3000000000
 ----------------------------------
 ...... END OF ONE-ELECTRON INTEGRALS ......

                         TIMING STATISTICS ON RANK 0:
 CPU        TIME:   STEP =     83.13 ,  TOTAL =       83.7 SECONDS (    1.4 MIN)
 WALL CLOCK TIME:   STEP =     85.94 ,  TOTAL =       86.5 SECONDS (    1.4 MIN)
 CPU UTILIZATION:   STEP =     96.74%,  TOTAL =      96.82%

 LOG10 OF CONDITION NUMBER OF OVERLAP MATRIX IS:  3.35022521E+00
 ...... END OF TWO-ELECTRON INTEGRALS .....

                         TIMING STATISTICS ON RANK 0:
 CPU        TIME:   STEP =      0.02 ,  TOTAL =       83.7 SECONDS (    1.4 MIN)
 WALL CLOCK TIME:   STEP =      0.03 ,  TOTAL =       86.5 SECONDS (    1.4 MIN)
 CPU UTILIZATION:   STEP =     63.09%,  TOTAL =      96.81%

 DIRECT SCF CALCULATION, SCHWRZ=T   FDIFF=F

                                                                                                              NONZERO    BLOCKS
 ITER EX DEM  TOTAL ENERGY      E CHANGE  DENSITY CHANGE    DIIS ERROR      VIR. SHIFT       DAMPING        INTEGRALS   SKIPPED
          * * *   INITIATING DIIS PROCEDURE   * * *
   1  0  0  -106.942876148  -106.942876148   0.447467389   0.026618888     0.000000000     1.000000000         863013      1132
   2  1  0  -106.944484837    -0.001608689   0.039112618   0.004036183     0.000000000     1.000000000         863013      1132
   3  2  0  -106.944582599    -0.000097762   0.005554444   0.001718233     0.000000000     1.000000000         863013      1132
   4  3  0  -106.944596713    -0.000014114   0.001982619   0.000809175     0.000000000     1.000000000         863013      1132
   5  4  0  -106.944599237    -0.000002525   0.000799568   0.000131141     0.000000000     1.000000000         863013      1132
   6  5  0  -106.944599384    -0.000000147   0.000055086   0.000018270     0.000000000     1.000000000         863013      1132
   7  6  0  -106.944599386    -0.000000002   0.000014854   0.000002365     0.000000000     1.000000000         863013      1132
   8  7  0  -106.944599386     0.000000000   0.000001593   0.000000200     0.000000000     1.000000000         863013      1132

          -----------------
          DENSITY CONVERGED
          -----------------
     TIME TO FORM FOCK OPERATORS =       0.23 SECONDS (       0.03 SEC/ITER)
     FOCK TIME ON FIRST ITERATION=       0.02, LAST ITERATION=       0.04
     TIME TO SOLVE SCF EQUATIONS =       0.21 SECONDS (       0.03 SEC/ITER)

 FINAL ENERGY IS     -106.9445993862 AFTER   8 ITERATIONS
 ...... END OF RHF CALCULATION ......

                         TIMING STATISTICS ON RANK 0:
 CPU        TIME:   STEP =      0.46 ,  TOTAL =       84.2 SECONDS (    1.4 MIN)
 WALL CLOCK TIME:   STEP =      0.61 ,  TOTAL =       87.1 SECONDS (    1.5 MIN)
 CPU UTILIZATION:   STEP =     75.34%,  TOTAL =      96.66%
 ...... END OF TWO-ELECTRON INTEGRALS .....

 CPU        TIME:   STEP =      0.02 ,  TOTAL =       84.2 SECONDS (    1.4 MIN)
 WALL CLOCK TIME:   STEP =      0.01 ,  TOTAL =       87.1 SECONDS (    1.5 MIN)
 CPU UTILIZATION:   STEP =    207.81%,  TOTAL =      96.67%

 DETERMINANT CI OPTIONS   NRNFG   NPFLG
 INTEGRAL TRANSFORMATION    1      -5
 DIAGONALIZE HAMILTONIAN    1      -5
 FORM 1E- DENSITY MATRIX    1      -5
 FORM 2E- DENSITY MATRIX    0      -5

 ---- SURFACE MAPPING GEOMETRY ----
 COORD 1=   0.10000  COORD 2=   0.00000
 HAS ENERGY VALUES       -106.9680011527        -106.6956197262        -106.6935819820 
 LI            0.0000000000          0.0000000000          0.0000000000
 F             0.0000000000          0.0000000000          1.4000000000
 ----------------------------------
 ...... END OF ONE-ELECTRON INTEGRALS ......

                         TIMING STATISTICS ON RANK 0:
 CPU        TIME:   STEP =     83.61 ,  TOTAL =      167.8 SECONDS (    2.8 MIN)
 WALL CLOCK TIME:   STEP =     86.38 ,  TOTAL =      173.5 SECONDS (    2.9 MIN)
 CPU UTILIZATION:   STEP =     96.79%,  TOTAL =      96.73%

 LOG10 OF CONDITION NUMBER OF OVERLAP MATRIX IS:  3.36026491E+00
 ...... END OF TWO-ELECTRON INTEGRALS .....

                         TIMING STATISTICS ON RANK 0:
 CPU        TIME:   STEP =      0.07 ,  TOTAL =      167.9 SECONDS (    2.8 MIN)
 WALL CLOCK TIME:   STEP =      0.07 ,  TOTAL =      173.6 SECONDS (    2.9 MIN)
 CPU UTILIZATION:   STEP =     95.82%,  TOTAL =      96.73%

 DIRECT SCF CALCULATION, SCHWRZ=T   FDIFF=F

                                                                                                              NONZERO    BLOCKS
 ITER EX DEM  TOTAL ENERGY      E CHANGE  DENSITY CHANGE    DIIS ERROR      VIR. SHIFT       DAMPING        INTEGRALS   SKIPPED
          * * *   INITIATING DIIS PROCEDURE   * * *
   1  0  0  -106.954154804  -106.954154804   0.255059446   0.022804424     0.000000000     1.000000000         863013      1132
   2  1  0  -106.955162428    -0.001007623   0.022028111   0.003605519     0.000000000     1.000000000         863013      1132
   3  2  0  -106.955226093    -0.000063665   0.003078993   0.001099117     0.000000000     1.000000000         863013      1132
   4  3  0  -106.955233991    -0.000007898   0.001450325   0.000648683     0.000000000     1.000000000         863013      1132
   5  4  0  -106.955235556    -0.000001565   0.000657068   0.000110722     0.000000000     1.000000000         863013      1132
   6  5  0  -106.955235663    -0.000000107   0.000035906   0.000014379     0.000000000     1.000000000         863013      1132
   7  6  0  -106.955235665    -0.000000001   0.000007042   0.000001901     0.000000000     1.000000000         863013      1132
   8  7  0  -106.955235665     0.000000000   0.000001537   0.000000200     0.000000000     1.000000000         863013      1132

          -----------------
          DENSITY CONVERGED
          -----------------
     TIME TO FORM FOCK OPERATORS =       0.29 SECONDS (       0.04 SEC/ITER)
     FOCK TIME ON FIRST ITERATION=       0.04, LAST ITERATION=       0.03
     TIME TO SOLVE SCF EQUATIONS =       0.23 SECONDS (       0.03 SEC/ITER)

 FINAL ENERGY IS     -106.9552356646 AFTER   8 ITERATIONS
 ...... END OF RHF CALCULATION ......

                         TIMING STATISTICS ON RANK 0:
 CPU        TIME:   STEP =      0.55 ,  TOTAL =      168.4 SECONDS (    2.8 MIN)
 WALL CLOCK TIME:   STEP =      0.65 ,  TOTAL =      174.2 SECONDS (    2.9 MIN)
 CPU UTILIZATION:   STEP =     84.09%,  TOTAL =      96.68%
 ...... END OF TWO-ELECTRON INTEGRALS .....

 CPU        TIME:   STEP =      0.00 ,  TOTAL =      168.4 SECONDS (    2.8 MIN)
 WALL CLOCK TIME:   STEP =      0.01 ,  TOTAL =      174.2 SECONDS (    2.9 MIN)
 CPU UTILIZATION:   STEP =      0.00%,  TOTAL =      96.68%

 DETERMINANT CI OPTIONS   NRNFG   NPFLG
 INTEGRAL TRANSFORMATION    1      -5
 DIAGONALIZE HAMILTONIAN    1      -5
 FORM 1E- DENSITY MATRIX    1      -5
 FORM 2E- DENSITY MATRIX    0      -5

 ---- SURFACE MAPPING GEOMETRY ----
 COORD 1=   0.20000  COORD 2=   0.00000
 HAS ENERGY VALUES       -106.9803875004        -106.7184393727        -106.7161387383 
 LI            0.0000000000          0.0000000000          0.0000000000
 F             0.0000000000          0.0000000000          1.5000000000
 ----------------------------------
 ...... END OF ONE-ELECTRON INTEGRALS ......

                         TIMING STATISTICS ON RANK 0:
 CPU        TIME:   STEP =     88.21 ,  TOTAL =      256.6 SECONDS (    4.3 MIN)
 WALL CLOCK TIME:   STEP =     91.01 ,  TOTAL =      265.2 SECONDS (    4.4 MIN)
 CPU UTILIZATION:   STEP =     96.92%,  TOTAL =      96.76%

 LOG10 OF CONDITION NUMBER OF OVERLAP MATRIX IS:  3.35910553E+00
 ...... END OF TWO-ELECTRON INTEGRALS .....

                         TIMING STATISTICS ON RANK 0:
 CPU        TIME:   STEP =      0.06 ,  TOTAL =      256.7 SECONDS (    4.3 MIN)
 WALL CLOCK TIME:   STEP =      0.07 ,  TOTAL =      265.3 SECONDS (    4.4 MIN)
 CPU UTILIZATION:   STEP =     81.67%,  TOTAL =      96.76%

 DIRECT SCF CALCULATION, SCHWRZ=T   FDIFF=F

                                                                                                              NONZERO    BLOCKS
 ITER EX DEM  TOTAL ENERGY      E CHANGE  DENSITY CHANGE    DIIS ERROR      VIR. SHIFT       DAMPING        INTEGRALS   SKIPPED
          * * *   INITIATING DIIS PROCEDURE   * * *
   1  0  0  -106.956275059  -106.956275059   0.139559018   0.017561115     0.000000000     1.000000000         863013      1132
   2  1  0  -106.956921095    -0.000646036   0.012300748   0.003089910     0.000000000     1.000000000         863013      1132
   3  2  0  -106.956964495    -0.000043400   0.002277488   0.000877973     0.000000000     1.000000000         863013      1132
   4  3  0  -106.956969415    -0.000004921   0.000984554   0.000567580     0.000000000     1.000000000         863013      1132
   5  4  0  -106.956970219    -0.000000804   0.000502450   0.000097830     0.000000000     1.000000000         863013      1132
   6  5  0  -106.956970300    -0.000000081   0.000032738   0.000016053     0.000000000     1.000000000         863013      1132
   7  6  0  -106.956970301    -0.000000001   0.000008550   0.000002614     0.000000000     1.000000000         863013      1132
   8  7  0  -106.956970301     0.000000000   0.000002511   0.000000388     0.000000000     1.000000000         863013      1132

          -----------------
          DENSITY CONVERGED
          -----------------
     TIME TO FORM FOCK OPERATORS =       0.24 SECONDS (       0.03 SEC/ITER)
     FOCK TIME ON FIRST ITERATION=       0.03, LAST ITERATION=       0.04
     TIME TO SOLVE SCF EQUATIONS =       0.28 SECONDS (       0.04 SEC/ITER)

 FINAL ENERGY IS     -106.9569703012 AFTER   8 ITERATIONS
 ...... END OF RHF CALCULATION ......

                         TIMING STATISTICS ON RANK 0:
 CPU        TIME:   STEP =      0.58 ,  TOTAL =      257.3 SECONDS (    4.3 MIN)
 WALL CLOCK TIME:   STEP =      0.63 ,  TOTAL =      265.9 SECONDS (    4.4 MIN)
 CPU UTILIZATION:   STEP =     92.15%,  TOTAL =      96.75%
 ...... END OF TWO-ELECTRON INTEGRALS .....

 CPU        TIME:   STEP =      0.00 ,  TOTAL =      257.3 SECONDS (    4.3 MIN)
 WALL CLOCK TIME:   STEP =      0.01 ,  TOTAL =      266.0 SECONDS (    4.4 MIN)
 CPU UTILIZATION:   STEP =      0.00%,  TOTAL =      96.74%

 DETERMINANT CI OPTIONS   NRNFG   NPFLG
 INTEGRAL TRANSFORMATION    1      -5
 DIAGONALIZE HAMILTONIAN    1      -5
 FORM 1E- DENSITY MATRIX    1      -5
 FORM 2E- DENSITY MATRIX    0      -5

 ---- SURFACE MAPPING GEOMETRY ----
 COORD 1=   0.30000  COORD 2=   0.00000
 HAS ENERGY VALUES       -106.9836286761        -106.7335946406        -106.7309054063 
 LI            0.0000000000          0.0000000000          0.0000000000
 F             0.0000000000          0.0000000000          1.6000000000
 ----------------------------------
 ...... END OF ONE-ELECTRON INTEGRALS ......

                         TIMING STATISTICS ON RANK 0:
 CPU        TIME:   STEP =     89.51 ,  TOTAL =      346.8 SECONDS (    5.8 MIN)
 WALL CLOCK TIME:   STEP =     92.31 ,  TOTAL =      358.3 SECONDS (    6.0 MIN)
 CPU UTILIZATION:   STEP =     96.97%,  TOTAL =      96.80%

 LOG10 OF CONDITION NUMBER OF OVERLAP MATRIX IS:  3.33549887E+00
 ...... END OF TWO-ELECTRON INTEGRALS .....

                         TIMING STATISTICS ON RANK 0:
 CPU        TIME:   STEP =      0.05 ,  TOTAL =      346.8 SECONDS (    5.8 MIN)
 WALL CLOCK TIME:   STEP =      0.07 ,  TOTAL =      358.3 SECONDS (    6.0 MIN)
 CPU UTILIZATION:   STEP =     70.28%,  TOTAL =      96.80%

 DIRECT SCF CALCULATION, SCHWRZ=T   FDIFF=F

                                                                                                              NONZERO    BLOCKS
 ITER EX DEM  TOTAL ENERGY      E CHANGE  DENSITY CHANGE    DIIS ERROR      VIR. SHIFT       DAMPING        INTEGRALS   SKIPPED
          * * *   INITIATING DIIS PROCEDURE   * * *
   1  0  0  -106.952890232  -106.952890232   0.071921022   0.011690662     0.000000000     1.000000000         863013      1132
   2  1  0  -106.953320844    -0.000430612   0.007262837   0.002567999     0.000000000     1.000000000         863013      1132
   3  2  0  -106.953351709    -0.000030865   0.001942699   0.000769584     0.000000000     1.000000000         863013      1132
   4  3  0  -106.953355321    -0.000003612   0.000669503   0.000349342     0.000000000     1.000000000         863013      1132
   5  4  0  -106.953355605    -0.000000285   0.000281705   0.000089927     0.000000000     1.000000000         863013      1132
   6  5  0  -106.953355656    -0.000000051   0.000047937   0.000016486     0.000000000     1.000000000         863013      1132
   7  6  0  -106.953355657    -0.000000001   0.000010999   0.000003041     0.000000000     1.000000000         863013      1132
   8  7  0  -106.953355657     0.000000000   0.000002250   0.000000447     0.000000000     1.000000000         863013      1132

          -----------------
          DENSITY CONVERGED
          -----------------
     TIME TO FORM FOCK OPERATORS =       0.17 SECONDS (       0.02 SEC/ITER)
     FOCK TIME ON FIRST ITERATION=       0.02, LAST ITERATION=       0.01
     TIME TO SOLVE SCF EQUATIONS =       0.14 SECONDS (       0.02 SEC/ITER)

 FINAL ENERGY IS     -106.9533556571 AFTER   8 ITERATIONS
 ...... END OF RHF CALCULATION ......

                         TIMING STATISTICS ON RANK 0:
 CPU        TIME:   STEP =      0.35 ,  TOTAL =      347.2 SECONDS (    5.8 MIN)
 WALL CLOCK TIME:   STEP =      0.50 ,  TOTAL =      358.8 SECONDS (    6.0 MIN)
 CPU UTILIZATION:   STEP =     70.05%,  TOTAL =      96.76%
 ...... END OF TWO-ELECTRON INTEGRALS .....

 CPU        TIME:   STEP =      0.00 ,  TOTAL =      347.2 SECONDS (    5.8 MIN)
 WALL CLOCK TIME:   STEP =      0.00 ,  TOTAL =      358.8 SECONDS (    6.0 MIN)
 CPU UTILIZATION:   STEP =      0.00%,  TOTAL =      96.76%

 DETERMINANT CI OPTIONS   NRNFG   NPFLG
 INTEGRAL TRANSFORMATION    1      -5
 DIAGONALIZE HAMILTONIAN    1      -5
 FORM 1E- DENSITY MATRIX    1      -5
 FORM 2E- DENSITY MATRIX    0      -5

 ---- SURFACE MAPPING GEOMETRY ----
 COORD 1=   0.40000  COORD 2=   0.00000
 HAS ENERGY VALUES       -106.9810322763        -106.7437010317        -106.7405481196 
 LI            0.0000000000          0.0000000000          0.0000000000
 F             0.0000000000          0.0000000000          1.7000000000
 ----------------------------------


                    INTERSTATE MINIMUM ENERGY SEPARATION DATA

 STATES   1   2: MIN SEPARATION IS   0.2373312446 (ICOORD1=    5, ICOORD2=    1)
 STATES   1   3: MIN SEPARATION IS   0.2404841567 (ICOORD1=    5, ICOORD2=    1)
 STATES   2   3: MIN SEPARATION IS   0.0019907800 (ICOORD1=    1, ICOORD2=    1)


 OVERALL RESULTS OF THE POTENTIAL SURFACE SCAN


          RESULTS FOR STATE NUMBER   1

 ------------------------------------
   ICOORD1,     |
    COORD1      |       ENERGY
 ---------------+--------------------
  1 (   0.00000)|     -106.9409286932  
  2 (   0.10000)|     -106.9680011527  
  3 (   0.20000)|     -106.9803875004  
  4 (   0.30000)|     -106.9836286761  
  5 (   0.40000)|     -106.9810322763  

          RESULTS FOR STATE NUMBER   2

 ------------------------------------
   ICOORD1,     |
    COORD1      |       ENERGY
 ---------------+--------------------
  1 (   0.00000)|     -106.6605783896  
  2 (   0.10000)|     -106.6956197262  
  3 (   0.20000)|     -106.7184393727  
  4 (   0.30000)|     -106.7335946406  
  5 (   0.40000)|     -106.7437010317  

          RESULTS FOR STATE NUMBER   3

 ------------------------------------
   ICOORD1,     |
    COORD1      |       ENERGY
 ---------------+--------------------
  1 (   0.00000)|     -106.6585876096  
  2 (   0.10000)|     -106.6935819820  
  3 (   0.20000)|     -106.7161387383  
  4 (   0.30000)|     -106.7309054063  
  5 (   0.40000)|     -106.7405481196  


 ENERGY DELTA MAP(S) (W.R. TO THE LOWEST FOUND)


          RESULTS FOR STATE NUMBER   1

 ------------------------------------
   ICOORD1,     |         ENERGY
    COORD1      |         DELTA
 ---------------+--------------------
  1 (   0.00000)|        0.0426999830  
  2 (   0.10000)|        0.0156275234  
  3 (   0.20000)|        0.0032411757  
  4 (   0.30000)|        0.0000000000  
  5 (   0.40000)|        0.0025963999  

          RESULTS FOR STATE NUMBER   2

 ------------------------------------
   ICOORD1,     |         ENERGY
    COORD1      |         DELTA
 ---------------+--------------------
  1 (   0.00000)|        0.3230502866  
  2 (   0.10000)|        0.2880089500  
  3 (   0.20000)|        0.2651893034  
  4 (   0.30000)|        0.2500340356  
  5 (   0.40000)|        0.2399276445  

          RESULTS FOR STATE NUMBER   3

 ------------------------------------
   ICOORD1,     |         ENERGY
    COORD1      |         DELTA
 ---------------+--------------------
  1 (   0.00000)|        0.3250410665  
  2 (   0.10000)|        0.2900466941  
  3 (   0.20000)|        0.2674899378  
  4 (   0.30000)|        0.2527232698  
  5 (   0.40000)|        0.2430805566  


 ENERGY DELTA MAP(S): E(N) minus E(N-1)


          RESULTS FOR STATE NUMBER   2

 ------------------------------------
   ICOORD1,     |         ENERGY
    COORD1      |         DELTA
 ---------------+--------------------
  1 (   0.00000)|        0.2803503036  
  2 (   0.10000)|        0.2723814266  
  3 (   0.20000)|        0.2619481277  
  4 (   0.30000)|        0.2500340356  
  5 (   0.40000)|        0.2373312446  

          RESULTS FOR STATE NUMBER   3

 ------------------------------------
   ICOORD1,     |         ENERGY
    COORD1      |         DELTA
 ---------------+--------------------
  1 (   0.00000)|        0.0019907800  
  2 (   0.10000)|        0.0020377441  
  3 (   0.20000)|        0.0023006344  
  4 (   0.30000)|        0.0026892342  
  5 (   0.40000)|        0.0031529121  

 ... DONE WITH POTENTIAL SURFACE SCAN ...

                         TIMING STATISTICS ON RANK 0:
 CPU        TIME:   STEP =     91.89 ,  TOTAL =      439.1 SECONDS (    7.3 MIN)
 WALL CLOCK TIME:   STEP =     93.99 ,  TOTAL =      452.8 SECONDS (    7.5 MIN)
 CPU UTILIZATION:   STEP =     97.76%,  TOTAL =      96.97%

                         OVERALL  TIMING  STATISTICS:
 GLOBAL CPU TIME ELAPSED      =      3163.2 SECONDS (    52.7 MIN)
 RANK 0 WALL CLOCK TIME       =       452.8 SECONDS (     7.5 MIN)
 JOB CPU UTILIZATION:   TOTAL =    698.54%, PER RANK AVERAGE =     87.32%

    24300461 WORDS OF    DYNAMIC MEMORY USED
     5602051 BYTES OF    HEAP MEMORY    USED,      121911 BYTES REMAIN IN USE

 WARNING! THIS VERSION OF FIREFLY IS PROBABLY OUTDATED!
 PLEASE CHECK FIREFLY HOMEPAGE FOR INFORMATION ON UPDATES!

 EXECUTION OF FIREFLY TERMINATED NORMALLY  8:35:45  7-MAY-2026    
