11
scan_04; coordinates in Angstrom
C  -0.0004255776 -0.1786220397  1.3662767760
C   0.1216404577  0.4822909885  0.0159934091
C  -0.6069298477  0.0326697040 -1.1099684206
H  -0.0657482555  0.5278119551  2.2061139483
H   0.8735639078 -0.8162753202  1.5678997953
H  -0.8976625189 -0.8089208346  1.4410453380
H   0.3063452381  1.5622906546  0.0610587892
H  -1.1279608151 -0.9285447314 -1.0493296797
H  -1.1456062346  0.7956873341 -1.6795266065
H   1.2933716771 -0.0483484251 -0.8633022132
F   1.2494119687 -0.6200392852 -1.9562611360
