11
mark_scan_03; coordinates in Angstrom
C   0.1204066552 -0.1946307801  1.3746803745
C   0.1439625358  0.5069603961  0.0422708458
C  -0.7741278433  0.1599635401 -0.9502140378
H  -0.5210189409  0.3625125143  2.0742744464
H   1.1403382993 -0.2486078301  1.7820155445
H  -0.2593415635 -1.2213893140  1.2854974443
H   0.4785713567  1.5501140730  0.0582557692
H  -1.4450144937 -0.6106776397 -1.3402197530
H  -1.0944073570  1.0086745467 -1.5658487453
H   0.5492355436 -0.6519160786 -1.5202835427
F   1.6613958079 -0.6610034277 -1.2404283459
