11
reactant; coordinates in Angstrom
C   1.4249445741  3.6912505483 -0.3528980200
C   1.2465695710  4.5068881993 -1.5995500897
C   0.5206603472  4.1479604736 -2.6697802294
H   1.0480327569  4.2424386488  0.5224085420
H   2.4904470599  3.4889611515 -0.1658673988
H   0.8938091734  2.7326109253 -0.4162428844
H   1.7545504871  5.4768003418 -1.6161480545
H  -0.0196105706  3.1992156589 -2.7011512949
H   0.4188201953  4.8042112578 -3.5347626739
H   2.4782128732  3.4036045325 -3.1232304711
F   3.2441502806  2.9824591622 -3.4698511902
