11
scan_01; coordinates in Angstrom
C   0.0152488687 -0.1917528758  1.3784814093
C  -0.0940826010  0.5773530950  0.0931839204
C  -0.8279524120  0.2000546286 -0.9875263800
H  -0.2903407133  0.4185348255  2.2417523554
H   1.0551755066 -0.4998917038  1.5650641246
H  -0.6145651691 -1.0912180274  1.3685978751
H   0.3467224954  1.5799402276  0.0974060396
H  -1.3894648087 -0.7374480230 -0.9821386103
H  -1.0353339515  0.9183561746 -1.7827073989
H   1.1213996694 -0.3167987890 -1.1970866871
F   1.7131931154 -0.8571295322 -1.7950266482
