11
scan_07; coordinates in Angstrom
C  -0.0495679447 -0.1438582032  1.3575127960
C   0.2941437666  0.4151202249 -0.0099843007
C  -0.4504604627 -0.1142638438 -1.1605725859
H   0.2603588774  0.5051864196  2.1878646035
H   0.4382939731 -1.1165310091  1.5198813130
H  -1.1321164985 -0.2922916030  1.4824632380
H   0.3441940167  1.5120706836 -0.0159751182
H  -0.7375554410 -1.1720523344 -1.1038700711
H  -1.2835908164  0.5205662678 -1.4842595005
H   1.3908437758  0.0634200945 -0.6031027413
F   0.9254567536 -0.1773666969 -2.1699576329
