              Grand Master is running on host yaroslavhonor
              rank #     1 is running on host yaroslavhonor
              rank #     2 is running on host yaroslavhonor
              rank #     3 is running on host yaroslavhonor
              rank #     4 is running on host yaroslavhonor
              rank #     5 is running on host yaroslavhonor
              rank #     6 is running on host yaroslavhonor
              rank #     7 is running on host yaroslavhonor
              rank #     8 is running on host yaroslavhonor
              rank #     9 is running on host yaroslavhonor

          ******************************************************
          *      Firefly version 8.2.0, build number 10203     *
          *   Compiled on    Monday,    19-09-2016, 15:30:23   *
          *Code development and Intel/AMD specific optimization*
          *  Copyright (c) 1994, 2016 by  Alex A. Granovsky,   *
          *          Firefly Project, Moscow, Russia.          *
          *   Some parts of this program include code due to   *
          * work of Jim Kress, Peter Burger, and Robert Ponec. *
          ******************************************************
          *             Firefly Project homepage:              *
          * http://classic.chem.msu.su/gran/firefly/index.html *
          *                      e-mail:                       *
          *               gran@classic.chem.msu.su             *
          *This program is not a free software and is provided *
          *exclusively to its registered users under the terms *
          *       of Firefly package license agreement         *
          * Unauthorized use of Firefly is strongly prohibited *
          *   This program may not be redistributed without    *
          * the specific, written permission of its developers.*
          ******************************************************

          ******************************************************
          *  PARTIALLY BASED ON  US GAMESS VERSION 6 JUN 1999, *
          *   US GAMESS VERSIONS  6 SEP 2001 AND 12 DEC 2003   *
          *             FROM IOWA STATE UNIVERSITY             *
          * M.W.SCHMIDT, K.K.BALDRIDGE, J.A.BOATZ, S.T.ELBERT, *
          *   M.S.GORDON, J.H.JENSEN, S.KOSEKI, N.MATSUNAGA,   *
          *          K.A.NGUYEN, S.J.SU, T.L.WINDUS,           *
          *       TOGETHER WITH M.DUPUIS, J.A.MONTGOMERY       *
          *         J.COMPUT.CHEM.  14, 1347-1363(1993)        *
          ******************************************************


 Core i7    / Linux  Firefly version running under Linux.
 Running on Intel CPU:  Brand ID  0, Family  6, Model 170, Stepping  4
 CPU Brand String    :  Intel(R) Core(TM) Ultra 5 125H                  
 CPU Features        :  x87 FPU, CMOV, MMX, SSE, SSE2, SSE3, SSSE3, SSE4.1, SSE4.2, AVX, AVX2, FMA3, HTT, MWAIT, EM64T
 Data cache size     :  L1 48 KB, L2 2048 KB, L3 18432 KB
 max    # of   cores/package :  64
 max    # of threads/package : 128
 max     cache sharing level :  64
 actual # of   cores/package :   9
 actual # of threads/package :  18
 actual # of threads/core    :   2
 Operating System successfully passed SSE support test.
 Operating System supports AVX/FMA.


 PARALLEL VERSION (MPICH) RUNNING USING   10 PROCESSES (RANKS)


 WARNING! THIS VERSION OF FIREFLY IS PROBABLY OUTDATED!
 PLEASE CHECK FIREFLY HOMEPAGE FOR INFORMATION ON UPDATES!

 EXECUTION OF FIREFLY BEGUN 21:05:31 22-APR-2026    

            ECHO OF THE FIRST FEW INPUT CARDS -
 INPUT CARD> $CONTRL D5=.T. EXETYP=RUN FSTINT=.T. GENCON=.F. ICHARG=1 ICUT=13 INTTYP=HONDO  
 INPUT CARD>      ITOL=30 MAXIT=100 MULT=2 RUNTYP=ENERGY SCFTYP=UHF WIDE=1 $END             
 INPUT CARD> $MOORTH NOSTF=.T. NOZERO=.T. SYMDEN=.T. SYMS=.T. SYMVEC=.T. SYMVX=.T.          
 INPUT CARD>      TOLE=0.0D0 TOLZ=0.0D0 $END                                                
 INPUT CARD> $GUESS GUESS=HUCKEL $END                                                       
 INPUT CARD> $BASIS GBASIS=N31 NGAUSS=6 $END                                                
 INPUT CARD> $SYSTEM KDIAG=0 MASMEM=200000000 MWORDS=200 MXBCST=-1 NOJAC=1 TIMLIM=60000 $END
 INPUT CARD> $SCF DAMP=.T. DIIS=.T. DIRSCF=.T. FDIFF=.F. SHIFT=.T. SOSCF=.F. $END           
 INPUT CARD> $DATA                                                                          
 INPUT CARD>H2+ UHF/6-31G, Koopmans ion reference                                           
 INPUT CARD>C1                                                                              
 INPUT CARD>H     1.0     0.0000000000     0.0000000000    -0.3700000000                    
 INPUT CARD>H     1.0     0.0000000000     0.0000000000     0.3700000000                    
 INPUT CARD> $END                                                                           
  200000000 WORDS OF MEMORY AVAILABLE

 This job is executing on     1 unique host(s)
 Minimum number of processes per host is:   10
 Maximum number of processes per host is:   10

 On master's host, detected   18 CPU core(s) in aggregate

 Using processor-specific dynamic link DGEMM library code.


 Warning: HTT is enabled, bitmask of physically unique cores is 0x000000B4

 SMT aware parts of program will use              2 threads.

 Creating thread pool to serve up to            128 threads.


 Loading P2P interface library... loaded successfully (version 2.4).
 Initializing global P2P interface... topology done.


     BASIS OPTIONS
     -------------
     GBASIS=N31          IGAUSS=       6      POLAR=NONE    
     NDFUNC=       0     NFFUNC=       0     DIFFSP=       F
     NPFUNC=       0      DIFFS=       F


     RUN TITLE
     ---------
 H2+ UHF/6-31G, Koopmans ion reference                                           

 THE POINT GROUP OF THE MOLECULE IS C1      
 THE ORDER OF THE PRINCIPAL AXIS IS     0

 ATOM      ATOMIC                      COORDINATES (BOHR)
           CHARGE         X                   Y                   Z
 H           1.0     0.0000000000        0.0000000000       -0.6991986664
 H           1.0     0.0000000000        0.0000000000        0.6991986664

          INTERNUCLEAR DISTANCES (ANGS.)
          ------------------------------

                    H              H         

  1  H               0.0000000      0.7400000 *  
  2  H               0.7400000 *    0.0000000    

  * ... LESS THAN  3.000


     ATOMIC BASIS SET
     ----------------
 THE CONTRACTED PRIMITIVE FUNCTIONS HAVE BEEN UNNORMALIZED
 THE CONTRACTED BASIS FUNCTIONS ARE NOW NORMALIZED TO UNITY

 SHELL TYPE PRIM    EXPONENT          CONTRACTION COEFFICIENTS

 H         

   1   S    1      18.731137    0.214935 (  0.033495) 
   1   S    2       2.825394    0.364571 (  0.234727) 
   1   S    3       0.640122    0.415051 (  0.813757) 

   2   S    4       0.161278    0.181381 (  1.000000) 

 H         

   3   S    5      18.731137    0.214935 (  0.033495) 
   3   S    6       2.825394    0.364571 (  0.234727) 
   3   S    7       0.640122    0.415051 (  0.813757) 

   4   S    8       0.161278    0.181381 (  1.000000) 

 TOTAL NUMBER OF SHELLS              =    4
 TOTAL NUMBER OF BASIS FUNCTIONS     =    4
 NUMBER OF ELECTRONS                 =    1
 CHARGE OF MOLECULE                  =    1
 STATE MULTIPLICITY                  =    2
 NUMBER OF OCCUPIED ORBITALS (ALPHA) =    1
 NUMBER OF OCCUPIED ORBITALS (BETA ) =    0
 TOTAL NUMBER OF ATOMS               =    2
 THE NUCLEAR REPULSION ENERGY IS        0.7151043387

 THIS MOLECULE IS RECOGNIZED AS BEING LINEAR.

     $CONTRL OPTIONS
     ---------------
     SCFTYP=UHF          RUNTYP=ENERGY       EXETYP=RUN     
     MPLEVL=       0     LOCAL =NONE         UNITS =ANGS    
     MULT  =       2     ICHARG=       1     MAXIT =     100
     NPRINT=       7     IREST =       0     COORD =UNIQUE  
     ECP   =NONE         NORMF =       0     NORMP =       0
     ITOL  =      30     ICUT  =      13     NZVAR =       0
     NOSYM =       0     INTTYP=HONDO        GEOM  =INPUT   
     PLTORB=       F     MOLPLT=       F     RPAC  =       F
     AIMPAC=       0     FRIEND=             CITYP =NONE    
     DFTTYP=NONE    

     $SYSTEM OPTIONS
     ---------------
     KDIAG =       0     MEMORY=200000000     TIMLIM=  3600000.0 SEC.
     COREFL=       F     PTIME =        F     XDR   =       F
     BALTYP=NXTVAL       CBASE = 09001000     FBASE = E6FA10C0

          ----------------
          PROPERTIES INPUT
          ----------------

     MOMENTS            FIELD           POTENTIAL          DENSITY
 IEMOM =       1   IEFLD =       0   IEPOT =       0   IEDEN =       0
 WHERE =COMASS     WHERE =NUCLEI     WHERE =NUCLEI     WHERE =NUCLEI  
 OUTPUT=BOTH       OUTPUT=BOTH       OUTPUT=BOTH       OUTPUT=BOTH    
 IEMINT=       0   IEFINT=       0                     IEDINT=       0
                                                       MORB  =       0

          EXTRAPOLATION IN EFFECT
          DAMPING IN EFFECT
          LEVEL SHIFTING IN EFFECT

          ----------------------
          INTEGRAL INPUT OPTIONS
          ----------------------
 NOPK  =       1 NORDER=       0 SCHWRZ=       T

 ATTENTION! AO INTEGRALS WILL BE PACKED.
 THRESHOLD FOR PACKING PKTHR =  0.10000000D-05

     -------------------------------
     INTEGRAL TRANSFORMATION OPTIONS
     -------------------------------
     NWORD  =       0     CUTTRF = 1.0E-09
     MPTRAN =       0     DIRTRF =       F
     AOINTS =DUP          IREST  =       0

     ------------------------------------------
     THE POINT GROUP IS C1 , NAXIS= 0, ORDER= 1
     ------------------------------------------

     DIMENSIONS OF THE SYMMETRY SUBSPACES ARE
 A   =   4

 ..... DONE SETTING UP THE RUN .....

                         TIMING STATISTICS ON RANK 0:
 CPU        TIME:   STEP =      0.23 ,  TOTAL =        0.4 SECONDS (    0.0 MIN)
 WALL CLOCK TIME:   STEP =      0.53 ,  TOTAL =        0.5 SECONDS (    0.0 MIN)
 CPU UTILIZATION:   STEP =     43.02%,  TOTAL =      78.55%

          ********************
          1 ELECTRON INTEGRALS
          ********************
 ...... END OF ONE-ELECTRON INTEGRALS ......

                         TIMING STATISTICS ON RANK 0:
 CPU        TIME:   STEP =      0.00 ,  TOTAL =        0.4 SECONDS (    0.0 MIN)
 WALL CLOCK TIME:   STEP =      0.02 ,  TOTAL =        0.6 SECONDS (    0.0 MIN)
 CPU UTILIZATION:   STEP =      0.00%,  TOTAL =      75.45%

          -------------
          GUESS OPTIONS
          -------------
          GUESS =HUCKEL            NORB  =       0          NORDER=       0
          MIX   =       F          PRTMO =       F          SYMDEN=       F
          TOLZ  = 0.0E+00          TOLE  = 0.0E+00

 INITIAL GUESS ORBITALS GENERATED BY HUCKEL   ROUTINE.
 HUCKEL GUESS REQUIRES      1424 WORDS.

 LOG10 OF CONDITION NUMBER OF OVERLAP MATRIX IS:  1.46985465E+00

 SYMMETRIES FOR INITIAL GUESS ORBITALS FOLLOW.  ALPHA SET(S).
     1 ORBITALS ARE OCCUPIED (    0 CORE ORBITALS).
     1=A        2=A        3=A        4=A   
 ...... END OF INITIAL ORBITAL SELECTION ......

                         TIMING STATISTICS ON RANK 0:
 CPU        TIME:   STEP =      0.01 ,  TOTAL =        0.4 SECONDS (    0.0 MIN)
 WALL CLOCK TIME:   STEP =      0.22 ,  TOTAL =        0.8 SECONDS (    0.0 MIN)
 CPU UTILIZATION:   STEP =      4.54%,  TOTAL =      55.36%

          --------------------
          2 ELECTRON INTEGRALS
          --------------------

 DIRECT SCF METHOD SKIPS INTEGRAL STORAGE ON DISK.
 SCHWARZ INEQUALITY OVERHEAD:        10 INTEGRALS, CPU TIME=        0.00
 ...... END OF TWO-ELECTRON INTEGRALS .....

                         TIMING STATISTICS ON RANK 0:
 CPU        TIME:   STEP =      0.00 ,  TOTAL =        0.4 SECONDS (    0.0 MIN)
 WALL CLOCK TIME:   STEP =      0.02 ,  TOTAL =        0.8 SECONDS (    0.0 MIN)
 CPU UTILIZATION:   STEP =      0.00%,  TOTAL =      54.05%

          -------------------
          UHF SCF CALCULATION
          -------------------

     NUCLEAR ENERGY =         0.7151043387
     MAXIT =100     NPUNCH=  2     MULT=  2
     EXTRAP=T  DAMP=T  SHIFT=T  RSTRCT=F  DIIS=F  SOSCF=F
     DENSITY CONV=  2.00E-05
     MEMORY REQUIRED FOR UHF/ROHF STEP=     15206 WORDS.

 DIRECT SCF CALCULATION, SCHWRZ=T   FDIFF=F
 SCHWARZ INEQUALITY OVERHEAD:        10 INTEGRALS, CPU TIME=        0.00

                                                                                                           NONZERO    BLOCKS
 ITER EX   TOTAL ENERGY      E CHANGE  DENSITY CHANGE    DIIS ERROR      VIR. SHIFT       DAMPING        INTEGRALS   SKIPPED
   1  0    -0.545406481    -0.545406481   0.041942454   0.000000000     0.000000000     1.000000000             55         0
   2  1    -0.555721402    -0.010314921   0.002620295   0.000000000     2.000000000     1.000000000             55         0
   3  2    -0.555965367    -0.000243964   0.004264545   0.000000000     2.000000000     0.062500000             55         0
   4  3    -0.556271457    -0.000306091   0.003071533   0.000000000     2.000000000     0.062500000             55         0
   5  4    -0.556423341    -0.000151884   0.002145835   0.000000000     2.000000000     0.015388809             55         0
   6  0    -0.556495935    -0.000072594   0.003041306   0.000000000     0.800000000     0.000000000             55         0
   7  1    -0.556552249    -0.000056314   0.000790801   0.000000000     0.800000000     0.000000000             55         0
   8  2    -0.556558034    -0.000005784   0.000413572   0.000000000     0.800000000     0.000000000             55         0
   9  3    -0.556559612    -0.000001579   0.000216189   0.000000000     0.800000000     0.000000000             55         0
  10  4    -0.556560043    -0.000000431   0.000171682   0.000000000     0.000000000     0.000000000             55         0
  11  5    -0.556560193    -0.000000150   0.000047120   0.000000000     0.000000000     0.000000000             55         0
  12  6    -0.556560204    -0.000000011   0.000012931   0.000000000     0.000000000     0.000000000             55         0
  13  7    -0.556560205    -0.000000001   0.000003548   0.000000000     0.000000000     0.000000000             55         0

          -----------------
          DENSITY CONVERGED
          -----------------
     TIME TO FORM FOCK OPERATORS =       0.04 SECONDS (       0.00 SEC/ITER)
     FOCK TIME ON FIRST ITERATION=       0.00, LAST ITERATION=       0.01
     TIME TO SOLVE SCF EQUATIONS =       0.02 SECONDS (       0.00 SEC/ITER)

 FINAL ENERGY IS       -0.5565602053 AFTER  13 ITERATIONS

          --------------------
          SPIN SZ   =    0.500
          S-SQUARED =    0.750
          --------------------

  ----- ALPHA SET ----- 

          ------------
          EIGENVECTORS
          ------------

                      1          2          3          4
                   -1.2717    -0.1941     0.2684     0.7817
                     A          A          A          A   
    1  H   1  S   0.439203  -0.279911  -0.707973   1.094075
    2  H   1  S   0.164757  -1.507209   0.719497  -1.578021
    3  H   2  S   0.439203   0.279911  -0.707973  -1.094075
    4  H   2  S   0.164757   1.507209   0.719497   1.578021

 WARNING! THIS VERSION OF FIREFLY IS PROBABLY OUTDATED!
 PLEASE CHECK FIREFLY HOMEPAGE FOR INFORMATION ON UPDATES!

 ...... END OF UHF CALCULATION ......

                         TIMING STATISTICS ON RANK 0:
 CPU        TIME:   STEP =      0.07 ,  TOTAL =        0.5 SECONDS (    0.0 MIN)
 WALL CLOCK TIME:   STEP =      1.78 ,  TOTAL =        2.6 SECONDS (    0.0 MIN)
 CPU UTILIZATION:   STEP =      3.93%,  TOTAL =      19.39%


                         ------------------------------
                         properties for the UHF density
                         ------------------------------

          -----------------
          ENERGY COMPONENTS
          -----------------

         WAVEFUNCTION NORMALIZATION =       1.0000000000

                ONE ELECTRON ENERGY =      -1.2716645441
                TWO ELECTRON ENERGY =       0.0000000001
           NUCLEAR REPULSION ENERGY =       0.7151043387
                                      ------------------
                       TOTAL ENERGY =      -0.5565602053

 ELECTRON-ELECTRON POTENTIAL ENERGY =       0.0000000001
  NUCLEUS-ELECTRON POTENTIAL ENERGY =      -2.0464392643
   NUCLEUS-NUCLEUS POTENTIAL ENERGY =       0.7151043387
                                      ------------------
             TOTAL POTENTIAL ENERGY =      -1.3313349255
               TOTAL KINETIC ENERGY =       0.7747747202
                 VIRIAL RATIO (V/T) =       1.7183510132

  ...... PI ENERGY ANALYSIS ......

 ENERGY ANALYSIS:
            FOCK ENERGY=      -1.2716645441
          BARE H ENERGY=      -1.2716645441
     ELECTRONIC ENERGY =      -1.2716645441
         KINETIC ENERGY=       0.7747747202
          N-N REPULSION=       0.7151043387
           TOTAL ENERGY=      -0.5565602053
        SIGMA PART(1+2)=      -1.2716645441
               (K,V1,2)=       0.7747747202      -2.0464392643       0.0000000000
           PI PART(1+2)=       0.0000000000
               (K,V1,2)=       0.0000000000       0.0000000000       0.0000000000
  SIGMA SKELETON, ERROR=      -0.5565602053       0.0000000000
             MIXED PART= 0.00000E+00 0.00000E+00 0.00000E+00 0.00000E+00
 ...... END OF PI ENERGY ANALYSIS ......

          ---------------------------------------
          MULLIKEN AND LOWDIN POPULATION ANALYSES
          ---------------------------------------

     MULLIKEN ATOMIC POPULATION IN EACH MOLECULAR ORBITAL
        ALPHA ORBITALS

                      1

                  1.000000

    1             0.500000
    2             0.500000

     MULLIKEN ATOMIC POPULATION IN EACH MOLECULAR ORBITAL
         BETA ORBITALS





    1
    2

     ATOMIC SPIN POPULATION (ALPHA MINUS BETA)
       ATOM         MULL.POP.                    LOW.POP.
    1 H             0.500000                     0.500000
    2 H             0.500000                     0.500000


          ********* ALL ELECTRONS ********

               ----- POPULATIONS IN EACH AO -----
                             MULLIKEN      LOWDIN
              1  H   1  S     0.36520     0.31902
              2  H   1  S     0.13480     0.18098
              3  H   2  S     0.36520     0.31902
              4  H   2  S     0.13480     0.18098

          ----- MULLIKEN ATOMIC OVERLAP POPULATIONS -----
          (OFF-DIAGONAL ELEMENTS NEED TO BE MULTIPLIED BY 2)

             1           2

    1    0.3153148
    2    0.1846852   0.3153148

          TOTAL MULLIKEN AND LOWDIN ATOMIC POPULATIONS
       ATOM         MULL.POP.    CHARGE          LOW.POP.     CHARGE
    1 H             0.500000    0.500000         0.500000    0.500000
    2 H             0.500000    0.500000         0.500000    0.500000

          -------------------------------
          BOND ORDER AND VALENCE ANALYSIS     BOND ORDER THRESHOLD=0.050
          -------------------------------

                   BOND                       BOND                       BOND
  ATOM PAIR DIST  ORDER      ATOM PAIR DIST  ORDER      ATOM PAIR DIST  ORDER
    1   2  0.740  0.500

                       TOTAL       BONDED        FREE
      ATOM            VALENCE     VALENCE     VALENCE
    1 H                 0.750       0.500       0.250
    2 H                 0.750       0.500       0.250

          ATOMIC SPIN DENSITY AT THE NUCLEUS (A.U.)
          -----------------------------------------

    1  H            1.0     0.2929738
    2  H            1.0     0.2929738

          ---------------------
          ELECTROSTATIC MOMENTS
          ---------------------

 POINT   1           X           Y           Z (BOHR)    CHARGE
                 0.000000    0.000000    0.000000        1.00 (A.U.)
         DX          DY          DZ         /D/  (DEBYE)
     0.000000    0.000000    0.000000    0.000000
 ...... END OF PROPERTY EVALUATION ......

                         TIMING STATISTICS ON RANK 0:
 CPU        TIME:   STEP =      0.00 ,  TOTAL =        0.5 SECONDS (    0.0 MIN)
 WALL CLOCK TIME:   STEP =      0.47 ,  TOTAL =        3.0 SECONDS (    0.1 MIN)
 CPU UTILIZATION:   STEP =      0.00%,  TOTAL =      16.42%
 ......END OF NBO ANALYSIS......

                         TIMING STATISTICS ON RANK 0:
 CPU        TIME:   STEP =      0.00 ,  TOTAL =        0.5 SECONDS (    0.0 MIN)
 WALL CLOCK TIME:   STEP =      0.01 ,  TOTAL =        3.1 SECONDS (    0.1 MIN)
 CPU UTILIZATION:   STEP =      0.00%,  TOTAL =      16.34%

                         OVERALL  TIMING  STATISTICS:
 GLOBAL CPU TIME ELAPSED      =        13.8 SECONDS (     0.2 MIN)
 RANK 0 WALL CLOCK TIME       =         3.1 SECONDS (     0.1 MIN)
 JOB CPU UTILIZATION:   TOTAL =    451.05%, PER RANK AVERAGE =     45.09%

      396846 WORDS OF    DYNAMIC MEMORY USED
     5585795 BYTES OF    HEAP MEMORY    USED,      113783 BYTES REMAIN IN USE

 WARNING! THIS VERSION OF FIREFLY IS PROBABLY OUTDATED!
 PLEASE CHECK FIREFLY HOMEPAGE FOR INFORMATION ON UPDATES!

 EXECUTION OF FIREFLY TERMINATED NORMALLY 21:05:35 22-APR-2026    
