11
scan_05; coordinates in Angstrom
C  -0.0161847310 -0.1674117907  1.3653887119
C   0.1837157723  0.4557523180  0.0036174228
C  -0.5520466517 -0.0193870857 -1.1305859927
H   0.0465167786  0.5442367448  2.2005868512
H   0.7487550472 -0.9347613548  1.5577441816
H  -0.9998134472 -0.6482993442  1.4638728932
H   0.3160135093  1.5444142017  0.0352698390
H  -1.0054231830 -1.0150935351 -1.0686237937
H  -1.1955368580  0.7178409072 -1.6212717455
H   1.3263840133 -0.0086666473 -0.7782671053
F   1.1476197502 -0.4686244140 -2.0277312624
