              Grand Master is running on host yaroslavhonor
              rank #     1 is running on host yaroslavhonor
              rank #     2 is running on host yaroslavhonor
              rank #     3 is running on host yaroslavhonor
              rank #     4 is running on host yaroslavhonor
              rank #     5 is running on host yaroslavhonor

          ******************************************************
          *      Firefly version 8.2.0, build number 10203     *
          *   Compiled on    Monday,    19-09-2016, 15:30:23   *
          *Code development and Intel/AMD specific optimization*
          *  Copyright (c) 1994, 2016 by  Alex A. Granovsky,   *
          *          Firefly Project, Moscow, Russia.          *
          *   Some parts of this program include code due to   *
          * work of Jim Kress, Peter Burger, and Robert Ponec. *
          ******************************************************
          *             Firefly Project homepage:              *
          * http://classic.chem.msu.su/gran/firefly/index.html *
          *                      e-mail:                       *
          *               gran@classic.chem.msu.su             *
          *This program is not a free software and is provided *
          *exclusively to its registered users under the terms *
          *       of Firefly package license agreement         *
          * Unauthorized use of Firefly is strongly prohibited *
          *   This program may not be redistributed without    *
          * the specific, written permission of its developers.*
          ******************************************************

          ******************************************************
          *  PARTIALLY BASED ON  US GAMESS VERSION 6 JUN 1999, *
          *   US GAMESS VERSIONS  6 SEP 2001 AND 12 DEC 2003   *
          *             FROM IOWA STATE UNIVERSITY             *
          * M.W.SCHMIDT, K.K.BALDRIDGE, J.A.BOATZ, S.T.ELBERT, *
          *   M.S.GORDON, J.H.JENSEN, S.KOSEKI, N.MATSUNAGA,   *
          *          K.A.NGUYEN, S.J.SU, T.L.WINDUS,           *
          *       TOGETHER WITH M.DUPUIS, J.A.MONTGOMERY       *
          *         J.COMPUT.CHEM.  14, 1347-1363(1993)        *
          ******************************************************


 Core i7    / Linux  Firefly version running under Linux.
 Running on Intel CPU:  Brand ID  0, Family  6, Model 170, Stepping  4
 CPU Brand String    :  Intel(R) Core(TM) Ultra 5 125H                  
 CPU Features        :  x87 FPU, CMOV, MMX, SSE, SSE2, SSE3, SSSE3, SSE4.1, SSE4.2, AVX, AVX2, FMA3, HTT, MWAIT, EM64T
 Data cache size     :  L1 32 KB, L2 2048 KB, L3 18432 KB
 max    # of   cores/package :  64
 max    # of threads/package : 128
 max     cache sharing level :  64
 actual # of   cores/package :  18
 actual # of threads/package :  18
 actual # of threads/core    :   1
 Operating System successfully passed SSE support test.
 Operating System supports AVX/FMA.


 PARALLEL VERSION (MPICH) RUNNING USING    6 PROCESSES (RANKS)


 WARNING! THIS VERSION OF FIREFLY IS PROBABLY OUTDATED!
 PLEASE CHECK FIREFLY HOMEPAGE FOR INFORMATION ON UPDATES!

 EXECUTION OF FIREFLY BEGUN  4:36:44 18-MAY-2026    

            ECHO OF THE FIRST FEW INPUT CARDS -
 INPUT CARD> $CONTRL SCFTYP=MCSCF RUNTYP=ENERGY ICHARG=0 MULT=1 MPLEVL=2 EXETYP=RUN         
 INPUT CARD>      INTTYP=HONDO ICUT=13 ITOL=30 D5=.T. MAXIT=100 GENCON=.F. WIDE=1 FSTINT=.T.
 INPUT CARD> $END                                                                           
 INPUT CARD> $SYSTEM TIMLIM=60000 MWORDS=200 MASMEM=200000000 MXBCST=-1 KDIAG=0 NOJAC=1 $END
 INPUT CARD> $MOORTH NOSTF=.T. NOZERO=.T. SYMS=.T. SYMDEN=.T. SYMVEC=.T. SYMVX=.T.          
 INPUT CARD>      TOLE=0.0D0 TOLZ=0.0D0 $END                                                
 INPUT CARD> $GUESS GUESS=MOREAD NORB=160 IORDER(22)=-23 IORDER(32)=-45 NORDER=1 $END       
 INPUT CARD> $DET NCORE=22 NACT=10 NELS=12 CVGTOL=1D-8 ITERMX=1000 NSTATE=15                
 INPUT CARD>      WSTATE(1)=1,1,1,1,1 $END                                                  
 INPUT CARD> $MCSCF MAXIT=200 ACURCY=1D-8 CISTEP=ALDET ENGTOL=1D-12 IFORB=1 ISTATE=1        
 INPUT CARD>      SOSCF=.T. $END                                                            
 INPUT CARD> $XMCQDPT NSTATE=5 EDSHFT=2D-2 GENZRO=1D-20 ISTATE(1)=1 THRCON=1D-8 THRERI=1D-20
 INPUT CARD>      THRGEN=1D-20 WSTATE(1)=1,1,1,1,1 $END                                     
 INPUT CARD> $MCQGENS GEN1=3 GEN2=3 GEN3=1 USEGEN1=.T. $END                                 
 INPUT CARD> $DATA                                                                          
 INPUT CARD>o_bq XMCQDPT2/ALDET-CASSCF(12,10) Andrew-style geometry                         
 INPUT CARD>C1                                                                              
 INPUT CARD>C      6.0     0.0000000000     1.4000000000     0.0000000000                   
 INPUT CARD>S   8                                                                           
 INPUT CARD>  1    6665.0000000       0.0006920                                             
 INPUT CARD>  2    1000.0000000       0.0053290                                             
 INPUT CARD>  3     228.0000000       0.0270770                                             
 INPUT CARD>  4      64.7100000       0.1017180                                             
 INPUT CARD>  5      21.0600000       0.2747400                                             
 INPUT CARD>  6       7.4950000       0.4485640                                             
 INPUT CARD>  7       2.7970000       0.2850740                                             
 INPUT CARD>  8       0.5215000       0.0152040                                             
 INPUT CARD>S   8                                                                           
 INPUT CARD>  1    6665.0000000      -0.0001460                                             
 INPUT CARD>  2    1000.0000000      -0.0011540                                             
 INPUT CARD>  3     228.0000000      -0.0057250                                             
 INPUT CARD>  4      64.7100000      -0.0233120                                             
 INPUT CARD>  5      21.0600000      -0.0639550                                             
 INPUT CARD>  6       7.4950000      -0.1499810                                             
 INPUT CARD>  7       2.7970000      -0.1272620                                             
 INPUT CARD>  8       0.5215000       0.5445290                                             
 INPUT CARD>S   1                                                                           
 INPUT CARD>  1       0.1596000       1.0000000                                             
 INPUT CARD>P   3                                                                           
 INPUT CARD>  1       9.4390000       0.0381090                                             
 INPUT CARD>  2       2.0020000       0.2094800                                             
 INPUT CARD>  3       0.5456000       0.5085570                                             
 INPUT CARD>P   1                                                                           
 INPUT CARD>  1       0.1517000       1.0000000                                             
 INPUT CARD>D   1                                                                           
 INPUT CARD>  1       0.5500000       1.0000000                                             
 INPUT CARD>                                                                                
 INPUT CARD>C      6.0     1.2124355650     0.7000000000     0.0000000000                   
 INPUT CARD>S   8                                                                           
 INPUT CARD>  1    6665.0000000       0.0006920                                             
  200000000 WORDS OF MEMORY AVAILABLE

 This job is executing on     1 unique host(s)
 Minimum number of processes per host is:    6
 Maximum number of processes per host is:    6

 On master's host, detected   18 CPU core(s) in aggregate

 Using processor-specific dynamic link DGEMM library code.


 Creating thread pool to serve up to            128 threads.


 Loading P2P interface library... loaded successfully (version 2.4).
 Initializing global P2P interface... topology done.



     RUN TITLE
     ---------
 o_bq XMCQDPT2/ALDET-CASSCF(12,10) Andrew-style geometry                         

 THE POINT GROUP OF THE MOLECULE IS C1      
 THE ORDER OF THE PRINCIPAL AXIS IS     0
 *** WARNING! ATOM   1 SHELL    1 TYPE S HAS NORMALIZATION   0.99939879
 *** WARNING! ATOM   1 SHELL    2 TYPE S HAS NORMALIZATION   2.00869625
 *** WARNING! ATOM   1 SHELL    4 TYPE P HAS NORMALIZATION   1.49516523
 *** WARNING! ATOM   2 SHELL    7 TYPE S HAS NORMALIZATION   0.99939879
 *** WARNING! ATOM   2 SHELL    8 TYPE S HAS NORMALIZATION   2.00869625
 *** WARNING! ATOM   2 SHELL   10 TYPE P HAS NORMALIZATION   1.49516523
 *** WARNING! ATOM   3 SHELL   13 TYPE S HAS NORMALIZATION   0.99939879
 *** WARNING! ATOM   3 SHELL   14 TYPE S HAS NORMALIZATION   2.00869625
 *** WARNING! ATOM   3 SHELL   16 TYPE P HAS NORMALIZATION   1.49516523
 *** WARNING! ATOM   4 SHELL   19 TYPE S HAS NORMALIZATION   0.99939879
 *** WARNING! ATOM   4 SHELL   20 TYPE S HAS NORMALIZATION   2.00869625
 *** WARNING! ATOM   4 SHELL   22 TYPE P HAS NORMALIZATION   1.49516523
 *** WARNING! ATOM   5 SHELL   25 TYPE S HAS NORMALIZATION   0.99939879
 *** WARNING! ATOM   5 SHELL   26 TYPE S HAS NORMALIZATION   2.00869625
 *** WARNING! ATOM   5 SHELL   28 TYPE P HAS NORMALIZATION   1.49516523
 *** WARNING! ATOM   6 SHELL   31 TYPE S HAS NORMALIZATION   0.99939879
 *** WARNING! ATOM   6 SHELL   32 TYPE S HAS NORMALIZATION   2.00869625
 *** WARNING! ATOM   6 SHELL   34 TYPE P HAS NORMALIZATION   1.49516523
 *** WARNING! ATOM   7 SHELL   37 TYPE S HAS NORMALIZATION   0.99950133
 *** WARNING! ATOM   7 SHELL   38 TYPE S HAS NORMALIZATION   1.96527132
 *** WARNING! ATOM   7 SHELL   41 TYPE P HAS NORMALIZATION   1.45704510
 *** WARNING! ATOM   8 SHELL   46 TYPE S HAS NORMALIZATION   0.99950133
 *** WARNING! ATOM   8 SHELL   47 TYPE S HAS NORMALIZATION   1.96527132
 *** WARNING! ATOM   8 SHELL   50 TYPE P HAS NORMALIZATION   1.45704510
 *** WARNING! ATOM   9 SHELL   55 TYPE S HAS NORMALIZATION   1.70173870
 *** WARNING! ATOM  10 SHELL   58 TYPE S HAS NORMALIZATION   1.70173870
 *** WARNING! ATOM  11 SHELL   61 TYPE S HAS NORMALIZATION   1.70173870
 *** WARNING! ATOM  12 SHELL   64 TYPE S HAS NORMALIZATION   1.70173870

 ATOM      ATOMIC                      COORDINATES (BOHR)
           CHARGE         X                   Y                   Z
 C           6.0     0.0000000000        2.6456165756        0.0000000000
 C           6.0     2.2911711626        1.3228082878        0.0000000000
 C           6.0     2.2911711626       -1.3228082878        0.0000000000
 C           6.0     0.0000000000       -2.6456165756        0.0000000000
 C           6.0    -2.2911711626       -1.3228082878        0.0000000000
 C           6.0    -2.2911711626        1.3228082878        0.0000000000
 O           8.0     0.0000000000        4.9510824487        0.0000000000
 O           8.0     4.2868437156        2.4755412243        0.0000000000
 H           1.0     4.0629111697       -2.3451501217        0.0000000000
 H           1.0     0.0000000000       -4.6865207911        0.0000000000
 H           1.0    -4.0629111697       -2.3451501217        0.0000000000
 H           1.0    -4.0629111697        2.3451501217        0.0000000000

          INTERNUCLEAR DISTANCES (ANGS.)
          ------------------------------

                    C              C              C              C         

  1  C               0.0000000      1.4000000 *    2.4248711 *    2.8000000 *  
  2  C               1.4000000 *    0.0000000      1.4000000 *    2.4248711 *  
  3  C               2.4248711 *    1.4000000 *    0.0000000      1.4000000 *  
  4  C               2.8000000 *    2.4248711 *    1.4000000 *    0.0000000    
  5  C               2.4248711 *    2.8000000 *    2.4248711 *    1.4000000 *  
  6  C               1.4000000 *    2.4248711 *    2.8000000 *    2.4248711 *  
  7  O               1.2200000 *    2.2707708 *    3.5344589      4.0200000    
  8  O               2.2702846 *    1.2195787 *    2.2705444 *    3.5341466    
  9  H               3.4054928      2.1555760 *    1.0824547 *    2.1558713 *  
 10  H               3.8800000      3.4032925      2.1536945 *    1.0800000 *  
 11  H               3.4054928      3.8824546      3.4056797      2.1558713 *  
 12  H               2.1558713 *    3.4056797      3.8824546      3.4054928    

                    C              C              O              O         

  1  C               2.4248711 *    1.4000000 *    1.2200000 *    2.2702846 *  
  2  C               2.8000000 *    2.4248711 *    2.2707708 *    1.2195787 *  
  3  C               2.4248711 *    2.8000000 *    3.5344589      2.2705444 *  
  4  C               1.4000000 *    2.4248711 *    4.0200000      3.5341466    
  5  C               0.0000000      1.4000000 *    3.5344589      4.0195786    
  6  C               1.4000000 *    0.0000000      2.2707708 *    3.5339797    
  7  O               3.5344589      2.2707708 *    0.0000000      2.6195786 *  
  8  O               4.0195786      3.5339797      2.6195786 *    0.0000000    
  9  H               3.4056797      3.8824546      4.4192557      2.5537508 *  
 10  H               2.1536945 *    3.4032925      5.1000000      4.4170343    
 11  H               1.0824547 *    2.1555760 *    4.4192557      5.1020332    
 12  H               2.1555760 *    1.0824547 *    2.5542398 *    4.4190387    

                    H              H              H              H         

  1  C               3.4054928      3.8800000      3.4054928      2.1558713 *  
  2  C               2.1555760 *    3.4032925      3.8824546      3.4056797    
  3  C               1.0824547 *    2.1536945 *    3.4056797      3.8824546    
  4  C               2.1558713 *    1.0800000 *    2.1558713 *    3.4054928    
  5  C               3.4056797      2.1536945 *    1.0824547 *    2.1555760 *  
  6  C               3.8824546      3.4032925      2.1555760 *    1.0824547 *  
  7  O               4.4192557      5.1000000      4.4192557      2.5542398 *  
  8  O               2.5537508 *    4.4170343      5.1020332      4.4190387    
  9  H               0.0000000      2.4814554 *    4.3000000      4.9649093    
 10  H               2.4814554 *    0.0000000      2.4814554 *    4.2974808    
 11  H               4.3000000      2.4814554 *    0.0000000      2.4820000 *  
 12  H               4.9649093      4.2974808      2.4820000 *    0.0000000    

  * ... LESS THAN  3.000


     ATOMIC BASIS SET
     ----------------
 THE CONTRACTED PRIMITIVE FUNCTIONS HAVE BEEN UNNORMALIZED
 THE CONTRACTED BASIS FUNCTIONS ARE NOW NORMALIZED TO UNITY

 SHELL TYPE PRIM    EXPONENT          CONTRACTION COEFFICIENTS

 C         

   1   S    1    6665.000000    0.363584 (  0.000692) 
   1   S    2    1000.000000    0.674986 (  0.005329) 
   1   S    3     228.000000    1.131620 (  0.027077) 
   1   S    4      64.710000    1.653009 (  0.101718) 
   1   S    5      21.060000    1.923821 (  0.274740) 
   1   S    6       7.495000    1.447278 (  0.448564) 
   1   S    7       2.797000    0.439163 (  0.285074) 
   1   S    8       0.521500    0.006646 (  0.015204) 

   2   S    9    6665.000000   -0.154180 ( -0.000146) 
   2   S   10    1000.000000   -0.293785 ( -0.001154) 
   2   S   11     228.000000   -0.480896 ( -0.005725) 
   2   S   12      64.710000   -0.761434 ( -0.023312) 
   2   S   13      21.060000   -0.900104 ( -0.063955) 
   2   S   14       7.495000   -0.972611 ( -0.149981) 
   2   S   15       2.797000   -0.394042 ( -0.127262) 
   2   S   16       0.521500    0.478394 (  0.544529) 

   3   S   17       0.159600    0.179964 (  1.000000) 

   4   P   18       9.439000    1.343737 (  0.038109) 
   4   P   19       2.002000    1.063168 (  0.209480) 
   4   P   20       0.545600    0.508232 (  0.508557) 

   5   P   21       0.151700    0.134950 (  1.000000) 

   6   D   22       0.550000    0.578155 (  1.000000) 

 C         

   7   S   23    6665.000000    0.363584 (  0.000692) 
   7   S   24    1000.000000    0.674986 (  0.005329) 
   7   S   25     228.000000    1.131620 (  0.027077) 
   7   S   26      64.710000    1.653009 (  0.101718) 
   7   S   27      21.060000    1.923821 (  0.274740) 
   7   S   28       7.495000    1.447278 (  0.448564) 
   7   S   29       2.797000    0.439163 (  0.285074) 
   7   S   30       0.521500    0.006646 (  0.015204) 

   8   S   31    6665.000000   -0.154180 ( -0.000146) 
   8   S   32    1000.000000   -0.293785 ( -0.001154) 
   8   S   33     228.000000   -0.480896 ( -0.005725) 
   8   S   34      64.710000   -0.761434 ( -0.023312) 
   8   S   35      21.060000   -0.900104 ( -0.063955) 
   8   S   36       7.495000   -0.972611 ( -0.149981) 
   8   S   37       2.797000   -0.394042 ( -0.127262) 
   8   S   38       0.521500    0.478394 (  0.544529) 

   9   S   39       0.159600    0.179964 (  1.000000) 

  10   P   40       9.439000    1.343737 (  0.038109) 
  10   P   41       2.002000    1.063168 (  0.209480) 
  10   P   42       0.545600    0.508232 (  0.508557) 

  11   P   43       0.151700    0.134950 (  1.000000) 

  12   D   44       0.550000    0.578155 (  1.000000) 

 C         

  13   S   45    6665.000000    0.363584 (  0.000692) 
  13   S   46    1000.000000    0.674986 (  0.005329) 
  13   S   47     228.000000    1.131620 (  0.027077) 
  13   S   48      64.710000    1.653009 (  0.101718) 
  13   S   49      21.060000    1.923821 (  0.274740) 
  13   S   50       7.495000    1.447278 (  0.448564) 
  13   S   51       2.797000    0.439163 (  0.285074) 
  13   S   52       0.521500    0.006646 (  0.015204) 

  14   S   53    6665.000000   -0.154180 ( -0.000146) 
  14   S   54    1000.000000   -0.293785 ( -0.001154) 
  14   S   55     228.000000   -0.480896 ( -0.005725) 
  14   S   56      64.710000   -0.761434 ( -0.023312) 
  14   S   57      21.060000   -0.900104 ( -0.063955) 
  14   S   58       7.495000   -0.972611 ( -0.149981) 
  14   S   59       2.797000   -0.394042 ( -0.127262) 
  14   S   60       0.521500    0.478394 (  0.544529) 

  15   S   61       0.159600    0.179964 (  1.000000) 

  16   P   62       9.439000    1.343737 (  0.038109) 
  16   P   63       2.002000    1.063168 (  0.209480) 
  16   P   64       0.545600    0.508232 (  0.508557) 

  17   P   65       0.151700    0.134950 (  1.000000) 

  18   D   66       0.550000    0.578155 (  1.000000) 

 C         

  19   S   67    6665.000000    0.363584 (  0.000692) 
  19   S   68    1000.000000    0.674986 (  0.005329) 
  19   S   69     228.000000    1.131620 (  0.027077) 
  19   S   70      64.710000    1.653009 (  0.101718) 
  19   S   71      21.060000    1.923821 (  0.274740) 
  19   S   72       7.495000    1.447278 (  0.448564) 
  19   S   73       2.797000    0.439163 (  0.285074) 
  19   S   74       0.521500    0.006646 (  0.015204) 

  20   S   75    6665.000000   -0.154180 ( -0.000146) 
  20   S   76    1000.000000   -0.293785 ( -0.001154) 
  20   S   77     228.000000   -0.480896 ( -0.005725) 
  20   S   78      64.710000   -0.761434 ( -0.023312) 
  20   S   79      21.060000   -0.900104 ( -0.063955) 
  20   S   80       7.495000   -0.972611 ( -0.149981) 
  20   S   81       2.797000   -0.394042 ( -0.127262) 
  20   S   82       0.521500    0.478394 (  0.544529) 

  21   S   83       0.159600    0.179964 (  1.000000) 

  22   P   84       9.439000    1.343737 (  0.038109) 
  22   P   85       2.002000    1.063168 (  0.209480) 
  22   P   86       0.545600    0.508232 (  0.508557) 

  23   P   87       0.151700    0.134950 (  1.000000) 

  24   D   88       0.550000    0.578155 (  1.000000) 

 C         

  25   S   89    6665.000000    0.363584 (  0.000692) 
  25   S   90    1000.000000    0.674986 (  0.005329) 
  25   S   91     228.000000    1.131620 (  0.027077) 
  25   S   92      64.710000    1.653009 (  0.101718) 
  25   S   93      21.060000    1.923821 (  0.274740) 
  25   S   94       7.495000    1.447278 (  0.448564) 
  25   S   95       2.797000    0.439163 (  0.285074) 
  25   S   96       0.521500    0.006646 (  0.015204) 

  26   S   97    6665.000000   -0.154180 ( -0.000146) 
  26   S   98    1000.000000   -0.293785 ( -0.001154) 
  26   S   99     228.000000   -0.480896 ( -0.005725) 
  26   S  100      64.710000   -0.761434 ( -0.023312) 
  26   S  101      21.060000   -0.900104 ( -0.063955) 
  26   S  102       7.495000   -0.972611 ( -0.149981) 
  26   S  103       2.797000   -0.394042 ( -0.127262) 
  26   S  104       0.521500    0.478394 (  0.544529) 

  27   S  105       0.159600    0.179964 (  1.000000) 

  28   P  106       9.439000    1.343737 (  0.038109) 
  28   P  107       2.002000    1.063168 (  0.209480) 
  28   P  108       0.545600    0.508232 (  0.508557) 

  29   P  109       0.151700    0.134950 (  1.000000) 

  30   D  110       0.550000    0.578155 (  1.000000) 

 C         

  31   S  111    6665.000000    0.363584 (  0.000692) 
  31   S  112    1000.000000    0.674986 (  0.005329) 
  31   S  113     228.000000    1.131620 (  0.027077) 
  31   S  114      64.710000    1.653009 (  0.101718) 
  31   S  115      21.060000    1.923821 (  0.274740) 
  31   S  116       7.495000    1.447278 (  0.448564) 
  31   S  117       2.797000    0.439163 (  0.285074) 
  31   S  118       0.521500    0.006646 (  0.015204) 

  32   S  119    6665.000000   -0.154180 ( -0.000146) 
  32   S  120    1000.000000   -0.293785 ( -0.001154) 
  32   S  121     228.000000   -0.480896 ( -0.005725) 
  32   S  122      64.710000   -0.761434 ( -0.023312) 
  32   S  123      21.060000   -0.900104 ( -0.063955) 
  32   S  124       7.495000   -0.972611 ( -0.149981) 
  32   S  125       2.797000   -0.394042 ( -0.127262) 
  32   S  126       0.521500    0.478394 (  0.544529) 

  33   S  127       0.159600    0.179964 (  1.000000) 

  34   P  128       9.439000    1.343737 (  0.038109) 
  34   P  129       2.002000    1.063168 (  0.209480) 
  34   P  130       0.545600    0.508232 (  0.508557) 

  35   P  131       0.151700    0.134950 (  1.000000) 

  36   D  132       0.550000    0.578155 (  1.000000) 

 O         

  37   S  133   11720.000000    0.569702 (  0.000710) 
  37   S  134    1759.000000    1.058352 (  0.005470) 
  37   S  135     400.800000    1.776281 (  0.027837) 
  37   S  136     113.700000    2.599412 (  0.104800) 
  37   S  137      37.030000    3.026846 (  0.283062) 
  37   S  138      13.270000    2.222394 (  0.448719) 
  37   S  139       5.025000    0.647795 (  0.270952) 
  37   S  140       1.013000    0.011119 (  0.015458) 

  38   S  141   11720.000000   -0.252434 ( -0.000160) 
  38   S  142    1759.000000   -0.480491 ( -0.001263) 
  38   S  143     400.800000   -0.786300 ( -0.006267) 
  38   S  144     113.700000   -1.254170 ( -0.025716) 
  38   S  145      37.030000   -1.491218 ( -0.070924) 
  38   S  146      13.270000   -1.610832 ( -0.165411) 
  38   S  147       5.025000   -0.549798 ( -0.116955) 
  38   S  148       1.013000    0.788282 (  0.557368) 

  39   S  149       0.302300    0.290562 (  1.000000) 

  40   S  150       0.078960    0.106161 (  1.000000) 

  41   P  151      17.700000    3.243619 (  0.043018) 
  41   P  152       3.854000    2.567280 (  0.228913) 
  41   P  153       1.046000    1.117669 (  0.508728) 

  42   P  154       0.275300    0.284248 (  1.000000) 

  43   P  155       0.068560    0.050007 (  1.000000) 

  44   D  156       1.185000    2.215218 (  1.000000) 

  45   D  157       0.332000    0.239002 (  1.000000) 

 O         

  46   S  158   11720.000000    0.569702 (  0.000710) 
  46   S  159    1759.000000    1.058352 (  0.005470) 
  46   S  160     400.800000    1.776281 (  0.027837) 
  46   S  161     113.700000    2.599412 (  0.104800) 
  46   S  162      37.030000    3.026846 (  0.283062) 
  46   S  163      13.270000    2.222394 (  0.448719) 
  46   S  164       5.025000    0.647795 (  0.270952) 
  46   S  165       1.013000    0.011119 (  0.015458) 

  47   S  166   11720.000000   -0.252434 ( -0.000160) 
  47   S  167    1759.000000   -0.480491 ( -0.001263) 
  47   S  168     400.800000   -0.786300 ( -0.006267) 
  47   S  169     113.700000   -1.254170 ( -0.025716) 
  47   S  170      37.030000   -1.491218 ( -0.070924) 
  47   S  171      13.270000   -1.610832 ( -0.165411) 
  47   S  172       5.025000   -0.549798 ( -0.116955) 
  47   S  173       1.013000    0.788282 (  0.557368) 

  48   S  174       0.302300    0.290562 (  1.000000) 

  49   S  175       0.078960    0.106161 (  1.000000) 

  50   P  176      17.700000    3.243619 (  0.043018) 
  50   P  177       3.854000    2.567280 (  0.228913) 
  50   P  178       1.046000    1.117669 (  0.508728) 

  51   P  179       0.275300    0.284248 (  1.000000) 

  52   P  180       0.068560    0.050007 (  1.000000) 

  53   D  181       1.185000    2.215218 (  1.000000) 

  54   D  182       0.332000    0.239002 (  1.000000) 

 H         

  55   S  183      13.010000    0.163548 (  0.019685) 
  55   S  184       1.962000    0.277418 (  0.137977) 
  55   S  185       0.444600    0.315749 (  0.478148) 

  56   S  186       0.122000    0.147123 (  1.000000) 

  57   P  187       0.727000    0.956881 (  1.000000) 

 H         

  58   S  188      13.010000    0.163548 (  0.019685) 
  58   S  189       1.962000    0.277418 (  0.137977) 
  58   S  190       0.444600    0.315749 (  0.478148) 

  59   S  191       0.122000    0.147123 (  1.000000) 

  60   P  192       0.727000    0.956881 (  1.000000) 

 H         

  61   S  193      13.010000    0.163548 (  0.019685) 
  61   S  194       1.962000    0.277418 (  0.137977) 
  61   S  195       0.444600    0.315749 (  0.478148) 

  62   S  196       0.122000    0.147123 (  1.000000) 

  63   P  197       0.727000    0.956881 (  1.000000) 

 H         

  64   S  198      13.010000    0.163548 (  0.019685) 
  64   S  199       1.962000    0.277418 (  0.137977) 
  64   S  200       0.444600    0.315749 (  0.478148) 

  65   S  201       0.122000    0.147123 (  1.000000) 

  66   P  202       0.727000    0.956881 (  1.000000) 

 TOTAL NUMBER OF SHELLS              =   66
 TOTAL NUMBER OF BASIS FUNCTIONS     =  160
 NUMBER OF ELECTRONS                 =   56
 CHARGE OF MOLECULE                  =    0
 STATE MULTIPLICITY                  =    1
 NUMBER OF OCCUPIED ORBITALS (ALPHA) =   28
 NUMBER OF OCCUPIED ORBITALS (BETA ) =   28
 TOTAL NUMBER OF ATOMS               =   12
 THE NUCLEAR REPULSION ENERGY IS      333.9576952133
 TOTAL NUMBER OF CONTAMINANTS DROPPED=   10


     $CONTRL OPTIONS
     ---------------
     SCFTYP=MCSCF        RUNTYP=ENERGY       EXETYP=RUN     
     MPLEVL=       2     LOCAL =NONE         UNITS =ANGS    
     MULT  =       1     ICHARG=       0     MAXIT =     100
     NPRINT=       7     IREST =       0     COORD =UNIQUE  
     ECP   =NONE         NORMF =       0     NORMP =       0
     ITOL  =      30     ICUT  =      13     NZVAR =       0
     NOSYM =       0     INTTYP=HONDO        GEOM  =INPUT   
     PLTORB=       F     MOLPLT=       F     RPAC  =       F
     AIMPAC=       0     FRIEND=             CITYP =NONE    
     DFTTYP=NONE    

     $SYSTEM OPTIONS
     ---------------
     KDIAG =       0     MEMORY=200000000     TIMLIM=  3600000.0 SEC.
     COREFL=       F     PTIME =        F     XDR   =       F
     BALTYP=NXTVAL       CBASE = E9981000     FBASE = EEEC10C0

          ----------------
          PROPERTIES INPUT
          ----------------

     MOMENTS            FIELD           POTENTIAL          DENSITY
 IEMOM =       1   IEFLD =       0   IEPOT =       0   IEDEN =       0
 WHERE =COMASS     WHERE =NUCLEI     WHERE =NUCLEI     WHERE =NUCLEI  
 OUTPUT=BOTH       OUTPUT=BOTH       OUTPUT=BOTH       OUTPUT=BOTH    
 IEMINT=       0   IEFINT=       0                     IEDINT=       0
                                                       MORB  =       0


          ----------------------
          INTEGRAL INPUT OPTIONS
          ----------------------
 NOPK  =       1 NORDER=       0 SCHWRZ=       T

 ATTENTION! AO INTEGRALS WILL BE PACKED.
 THRESHOLD FOR PACKING PKTHR =  0.10000000D-05

     -------------------------------
     INTEGRAL TRANSFORMATION OPTIONS
     -------------------------------
     NWORD  =       0     CUTTRF = 1.0E-09
     MPTRAN =       0     DIRTRF =       F
     AOINTS =DUP          IREST  =       0

          ----------------------
          MCSCF INPUT PARAMETERS
          ----------------------
 CONVERGER SELECTION: FOCAS = F  SOSCF = T  FULLNR = F  QUD = F
 SECULAR EQUATION METHOD CISTEP = ALDET   
 --- GENERAL INPUT OPTIONS:
 MAXIT =     200  MICIT =       5  ACURCY= 1.000E-08
 DAMP  =   0.000  CANONC=       3  ENGTOL= 1.000E-12
 EKT   =       F  NPUNCH=       2  NWORD =         0
 --- INPUT FOR SOSCF CONVERGER:
 FORS  =       T  NUMFO =       1

          ------------------------
          XMCQDPT INPUT PARAMETERS
          ------------------------
 *** INPUT PARAMETERS ***
 # OF ELECTRONS                =        56
 SPIN MULTIPLICITY             =         1
 SPATIAL STATE SYMMETRY        =         1 (A   )
 # OF STATES                   =         5
 ( = DIMENSION OF EFFECTIVE HAMILTONIAN )
 # OF FROZEN CORE ORBITALS     =         8
 # OF DOUBLY OCCUPIED ORBITALS =        14
 # OF ACTIVE ORBITALS          =        10
 # OF EXTERNAL ORBITALS        =       118
 # OF FROZEN VIRTUAL ORBITALS  =         0
 RUNNING USING RESOLVENT FITTING
 ***
      IFORB     INORB      IROT    ISELCT    LENGTH    MAXCSF    MAXERI
          1         0         0         0     65536      4096      4096
     MAXROW       MDI    MXBASE    MXTRFR    NSOLUT     NSTCI     NSTOP
      10000       300       300      1000         5         5      1000
     GENZRO    THRCON    THRENE    THRERI    THRGEN    THRWGT
  1.000D-20 1.000D-08-1.000D+00 1.000D-20 1.000D-20 1.000D-06
 *** WEIGHTS OF STATES IN COMPUTING AVERAGED DENSITY MATRIX (WSTATE)
 -----------------------------------------------------------------------
                   1            2            3            4            5
     1  1.000000D+00 1.000000D+00 1.000000D+00 1.000000D+00 1.000000D+00
 -----------------------------------------------------------------------
 *** WEIGHTS OF STATES IN COMPUTING AVERAGED DENSITY MATRIX (AVECOE)
 -----------------------------------------------------------------------
                   1            2            3            4            5
     1  1.000000D+00 1.000000D+00 1.000000D+00 1.000000D+00 1.000000D+00
 -----------------------------------------------------------------------
 *** SELECTED STATES
 -----------------------------------------------------------------------
             1.    2.    3.    4.    5.
      1.      1     1     1     1     1
 -----------------------------------------------------------------------



     ------------------------------------------
     THE POINT GROUP IS C1 , NAXIS= 0, ORDER= 1
     ------------------------------------------

     DIMENSIONS OF THE SYMMETRY SUBSPACES ARE
 A   = 160

 ..... DONE SETTING UP THE RUN .....

                         TIMING STATISTICS ON RANK 0:
 CPU        TIME:   STEP =      0.19 ,  TOTAL =        0.3 SECONDS (    0.0 MIN)
 WALL CLOCK TIME:   STEP =      0.20 ,  TOTAL =        0.2 SECONDS (    0.0 MIN)
 CPU UTILIZATION:   STEP =     96.07%,  TOTAL =     131.46%

          ********************
          1 ELECTRON INTEGRALS
          ********************
 TIME TO DO ORDINARY INTEGRALS=      0.01
 TIME TO DO   DIPOLE INTEGRALS=      0.00
 ...... END OF ONE-ELECTRON INTEGRALS ......

                         TIMING STATISTICS ON RANK 0:
 CPU        TIME:   STEP =      0.01 ,  TOTAL =        0.3 SECONDS (    0.0 MIN)
 WALL CLOCK TIME:   STEP =      0.01 ,  TOTAL =        0.2 SECONDS (    0.0 MIN)
 CPU UTILIZATION:   STEP =     69.81%,  TOTAL =     127.29%

          -------------
          GUESS OPTIONS
          -------------
          GUESS =MOREAD            NORB  =     160          NORDER=       1
          MIX   =       F          PRTMO =       F          SYMDEN=       F
          TOLZ  = 0.0E+00          TOLE  = 0.0E+00

 INITIAL GUESS ORBITALS GENERATED BY MOREAD   ROUTINE.

 LOG10 OF CONDITION NUMBER OF OVERLAP MATRIX IS:  4.38163205E+00

 SYMMETRIES FOR INITIAL GUESS ORBITALS FOLLOW.   BOTH SET(S).
    28 ORBITALS ARE OCCUPIED (    8 CORE ORBITALS).
     1=A        2=A        3=A        4=A        5=A        6=A        7=A   
     8=A        9=A       10=A       11=A       12=A       13=A       14=A   
    15=A       16=A       17=A       18=A       19=A       20=A       21=A   
    22=A       23=A       24=A       25=A       26=A       27=A       28=A   
    29=A       30=A       31=A       32=A       33=A       34=A       35=A   
    36=A       37=A       38=A       39=A       40=A       41=A       42=A   
    43=A       44=A       45=A       46=A       47=A       48=A       49=A   
    50=A       51=A       52=A       53=A       54=A       55=A       56=A   
    57=A       58=A       59=A       60=A       61=A       62=A       63=A   
    64=A       65=A       66=A       67=A       68=A       69=A       70=A   
    71=A       72=A       73=A       74=A       75=A       76=A       77=A   
    78=A       79=A       80=A       81=A       82=A       83=A       84=A   
    85=A       86=A       87=A       88=A       89=A       90=A       91=A   
    92=A       93=A       94=A       95=A       96=A       97=A       98=A   
    99=A      100=A      101=A      102=A      103=A      104=A      105=A   
   106=A      107=A      108=A      109=A      110=A      111=A      112=A   
   113=A      114=A      115=A      116=A      117=A      118=A      119=A   
   120=A      121=A      122=A      123=A      124=A      125=A      126=A   
   127=A      128=A      129=A      130=A      131=A      132=A      133=A   
   134=A      135=A      136=A      137=A      138=A      139=A      140=A   
   141=A      142=A      143=A      144=A      145=A      146=A      147=A   
   148=A      149=A      150=A      151=A      152=A      153=A      154=A   
   155=A      156=A      157=A      158=A      159=A      160=A   
 ...... END OF INITIAL ORBITAL SELECTION ......

                         TIMING STATISTICS ON RANK 0:
 CPU        TIME:   STEP =      0.03 ,  TOTAL =        0.3 SECONDS (    0.0 MIN)
 WALL CLOCK TIME:   STEP =      0.04 ,  TOTAL =        0.3 SECONDS (    0.0 MIN)
 CPU UTILIZATION:   STEP =     69.41%,  TOTAL =     117.50%

          --------------------
          2 ELECTRON INTEGRALS
          --------------------

 THE -PK- OPTION IS OFF, THE INTEGRALS ARE NOT IN SUPERMATRIX FORM.
 STORING    4998 INTEGRALS/RECORD ON DISK, USING 12 BYTES/INTEGRAL.
 TWO ELECTRON INTEGRAL EVALUATION REQUIRES   37899 WORDS OF MEMORY.
 SCHWARZ INEQUALITY OVERHEAD:     12814 INTEGRALS, CPU TIME=        0.01
 II,JST,KST,LST =  1  1  1  1 NREC =         1 INTLOC =    1
 II,JST,KST,LST =  2  1  1  1 NREC =         1 INTLOC =    2
 II,JST,KST,LST =  3  1  1  1 NREC =         1 INTLOC =    7
 II,JST,KST,LST =  4  1  1  1 NREC =         1 INTLOC =   22
 II,JST,KST,LST =  5  1  1  1 NREC =         1 INTLOC =   67
 II,JST,KST,LST =  6  1  1  1 NREC =         1 INTLOC =  214
 II,JST,KST,LST =  7  1  1  1 NREC =         1 INTLOC = 1135
 II,JST,KST,LST =  8  1  1  1 NREC =         1 INTLOC = 2311
 II,JST,KST,LST =  9  1  1  1 NREC =         1 INTLOC = 3748
 II,JST,KST,LST = 10  1  1  1 NREC =         2 INTLOC =  487
 II,JST,KST,LST = 11  1  1  1 NREC =         3 INTLOC = 1854
 II,JST,KST,LST = 12  1  1  1 NREC =         5 INTLOC = 1253
 II,JST,KST,LST = 13  1  1  1 NREC =        11 INTLOC = 1938
 II,JST,KST,LST = 14  1  1  1 NREC =        12 INTLOC = 4809
 II,JST,KST,LST = 15  1  1  1 NREC =        14 INTLOC = 3518
 II,JST,KST,LST = 16  1  1  1 NREC =        16 INTLOC = 3126
 II,JST,KST,LST = 17  1  1  1 NREC =        22 INTLOC = 3946
 II,JST,KST,LST = 18  1  1  1 NREC =        30 INTLOC = 2429
 II,JST,KST,LST = 19  1  1  1 NREC =        51 INTLOC = 1513
 II,JST,KST,LST = 20  1  1  1 NREC =        56 INTLOC = 3175
 II,JST,KST,LST = 21  1  1  1 NREC =        62 INTLOC = 1755
 II,JST,KST,LST = 22  1  1  1 NREC =        68 INTLOC = 2346
 II,JST,KST,LST = 23  1  1  1 NREC =        87 INTLOC = 2436
 II,JST,KST,LST = 24  1  1  1 NREC =       109 INTLOC = 4341
 II,JST,KST,LST = 25  1  1  1 NREC =       166 INTLOC =  207
 II,JST,KST,LST = 26  1  1  1 NREC =       178 INTLOC = 2716
 II,JST,KST,LST = 27  1  1  1 NREC =       191 INTLOC = 3644
 II,JST,KST,LST = 28  1  1  1 NREC =       205 INTLOC = 3002
 II,JST,KST,LST = 29  1  1  1 NREC =       247 INTLOC = 4435
 II,JST,KST,LST = 30  1  1  1 NREC =       295 INTLOC = 4492
 II,JST,KST,LST = 31  1  1  1 NREC =       411 INTLOC =  227
 II,JST,KST,LST = 32  1  1  1 NREC =       435 INTLOC =  962
 II,JST,KST,LST = 33  1  1  1 NREC =       460 INTLOC = 1925
 II,JST,KST,LST = 34  1  1  1 NREC =       486 INTLOC = 3150
 II,JST,KST,LST = 35  1  1  1 NREC =       565 INTLOC = 1645
 II,JST,KST,LST = 36  1  1  1 NREC =       652 INTLOC = 2730
 II,JST,KST,LST = 37  1  1  1 NREC =       854 INTLOC = 3761
 II,JST,KST,LST = 38  1  1  1 NREC =       892 INTLOC = 2809
 II,JST,KST,LST = 39  1  1  1 NREC =       934 INTLOC =  555
 II,JST,KST,LST = 40  1  1  1 NREC =       977 INTLOC = 4567
 II,JST,KST,LST = 41  1  1  1 NREC =      1023 INTLOC = 1826
 II,JST,KST,LST = 42  1  1  1 NREC =      1153 INTLOC = 2726
 II,JST,KST,LST = 43  1  1  1 NREC =      1299 INTLOC = 1772
 II,JST,KST,LST = 44  1  1  1 NREC =      1458 INTLOC = 1984
 II,JST,KST,LST = 45  1  1  1 NREC =      1805 INTLOC = 4666
 II,JST,KST,LST = 46  1  1  1 NREC =      2222 INTLOC =  121
 II,JST,KST,LST = 47  1  1  1 NREC =      2300 INTLOC = 2785
 II,JST,KST,LST = 48  1  1  1 NREC =      2386 INTLOC =  157
 II,JST,KST,LST = 49  1  1  1 NREC =      2476 INTLOC = 1953
 II,JST,KST,LST = 50  1  1  1 NREC =      2569 INTLOC = 4573
 II,JST,KST,LST = 51  1  1  1 NREC =      2835 INTLOC =  484
 II,JST,KST,LST = 52  1  1  1 NREC =      3129 INTLOC = 2697
 II,JST,KST,LST = 53  1  1  1 NREC =      3447 INTLOC =  288
 II,JST,KST,LST = 54  1  1  1 NREC =      4126 INTLOC = 3420
 II,JST,KST,LST = 55  1  1  1 NREC =      4924 INTLOC = 2606
 II,JST,KST,LST = 56  1  1  1 NREC =      5072 INTLOC = 4258
 II,JST,KST,LST = 57  1  1  1 NREC =      5230 INTLOC =  243
 II,JST,KST,LST = 58  1  1  1 NREC =      5648 INTLOC = 4202
 II,JST,KST,LST = 59  1  1  1 NREC =      5795 INTLOC = 4199
 II,JST,KST,LST = 60  1  1  1 NREC =      5964 INTLOC = 4231
 II,JST,KST,LST = 61  1  1  1 NREC =      6368 INTLOC = 1502
 II,JST,KST,LST = 62  1  1  1 NREC =      6533 INTLOC = 4093
 II,JST,KST,LST = 63  1  1  1 NREC =      6724 INTLOC = 3776
 II,JST,KST,LST = 64  1  1  1 NREC =      7180 INTLOC = 2871
 II,JST,KST,LST = 65  1  1  1 NREC =      7375 INTLOC = 4718
 II,JST,KST,LST = 66  1  1  1 NREC =      7586 INTLOC = 2518
 SCHWARZ INEQUALITY TEST SKIPPED     86839 INTEGRAL BLOCKS.
 TOTAL NUMBER OF NONZERO TWO-ELECTRON INTEGRALS =            40599748
       8124 INTEGRAL RECORDS WERE STORED ON DISK FILE  8.
 ...... END OF TWO-ELECTRON INTEGRALS .....

 CPU        TIME:   STEP =      9.37 ,  TOTAL =        9.7 SECONDS (    0.2 MIN)
 WALL CLOCK TIME:   STEP =      9.37 ,  TOTAL =        9.6 SECONDS (    0.2 MIN)
 CPU UTILIZATION:   STEP =    100.00%,  TOTAL =     100.46%

          -----------------
          MCSCF CALCULATION
          -----------------

 ----- NUCLEAR ENERGY ----- =       333.9576952133

     --------------------------------------------------
          AMES LABORATORY DETERMINANTAL FULL CI
     PROGRAM WRITTEN BY JOE IVANIC AND KLAUS RUEDENBERG
     --------------------------------------------------

 THE POINT GROUP                  =   C1      
 THE STATE SYMMETRY               =   A       
 NUMBER OF CORE ORBITALS          =   22
 NUMBER OF ACTIVE ORBITALS        =   10
 NUMBER OF ALPHA ELECTRONS        =   28 (   6 ACTIVE)
 NUMBER OF BETA ELECTRONS         =   28 (   6 ACTIVE)
 NUMBER OF OCCUPIED ORBITALS      =   32
 NUMBER OF CI STATES REQUESTED    =   15
 NUMBER OF CI STARTING VECTORS    =   15
 MAX. NO. OF CI EXPANSION VECTORS =   60
 SIZE OF INITIAL CI GUESS MATRIX  =  300
 MAX. NO. OF CI ITERS/STATE       = 1000
 CI DIAGONALIZATION CRITERION     = 1.00E-08
 PURE SPIN STATE AVERAGED 1E- AND 2E- DENSITY MATRIX OPTION=.T.
 STATE=   1 DM2 WEIGHT=   0.20000     STATE=   2 DM2 WEIGHT=   0.20000
 STATE=   3 DM2 WEIGHT=   0.20000     STATE=   4 DM2 WEIGHT=   0.20000
 STATE=   5 DM2 WEIGHT=   0.20000

 SYMMETRIES FOR THE  22 CORE,  10 ACTIVE ARE

     CORE= A     A     A     A     A     A     A     A     A     A   
           A     A     A     A     A     A     A     A     A     A   
           A     A   

   ACTIVE= A     A     A     A     A     A     A     A     A     A   

 OPENING FILE DAFL30 WITH       81 LOGICAL RECORDS OF   25600 WORDS
 DAFL30 WILL CONTAIN A MAXIMUM OF      32400 PHYSICAL RECORDS
 EACH PHYSICAL RECORD WILL CONTAIN      64   WORDS


          ------------------------------
          CASSCF INTEGRAL TRANSFORMATION
          ------------------------------
 AO INTEGRALS WILL BE READ IN FROM DISK...
 MEMORY WHICH WOULD BE NEEDED FOR SINGLE PASS TRANSFORMATION =   21453888

 ----- CHOOSING THREE STEPS TRANSFORMATION -----
 NUMBER OF WORDS USED      =    4399173
 NUMBER OF WORDS AVAILABLE =  199999600
 NUMBER OF PASSES          =          6
 PASS #   1 COMPLETED IN         0.6 SECONDS ON MASTER.
 PASS #   2 IS ASSIGNED TO A DIFFERENT RANK.
 PASS #   3 IS ASSIGNED TO A DIFFERENT RANK.
 PASS #   4 IS ASSIGNED TO A DIFFERENT RANK.
 PASS #   5 IS ASSIGNED TO A DIFFERENT RANK.
 PASS #   6 IS ASSIGNED TO A DIFFERENT RANK.

 ----- NUCLEAR REPULSION ENERGY =    333.95769521
 ----- FROZEN CORE ENERGY       =   -689.84439868

 ... SYMMETRY ...           CPU =    0.01
 ... (PQ|RS) -> (PQ|KL) ... CPU =    0.78
 ... (PQ|KL) -> (IJ|KL) ... CPU =    0.00

 NUMBER OF (PQ|KL) INTEGRALS WRITTEN     340013
 NUMBER OF (IJ|KL) INTEGRALS WRITTEN        796
 ..... END OF CASSCF INTEGRAL TRANSFORMATION .....

                         TIMING STATISTICS ON RANK 0:
 CPU        TIME:   STEP =      4.70 ,  TOTAL =       14.4 SECONDS (    0.2 MIN)
 WALL CLOCK TIME:   STEP =      4.73 ,  TOTAL =       14.4 SECONDS (    0.2 MIN)
 CPU UTILIZATION:   STEP =     99.34%,  TOTAL =     100.09%

     --------------------------------------------------
          AMES LABORATORY DETERMINANTAL FULL CI
     PROGRAM WRITTEN BY JOE IVANIC AND KLAUS RUEDENBERG
          PROGRAM REWRITTEN BY ALEX A. GRANOVSKY
     --------------------------------------------------

 THE NUMBER OF DETERMINANTS HAVING SPACE SYMMETRY A  
 IN POINT GROUP C1   WITH SZ=  0.0 IS          44100
 WHICH INCLUDES          13860 CSFS WITH S=  0.0
 WHICH INCLUDES          20790 CSFS WITH S=  1.0
 WHICH INCLUDES           8250 CSFS WITH S=  2.0
 WHICH INCLUDES           1155 CSFS WITH S=  3.0
 WHICH INCLUDES             45 CSFS WITH S=  4.0
 THE DETERMINANT FULL CI REQUIRES     1444183 WORDS
 INITIAL CI VECTOR GUESS TIME  :          0.1
 INITIAL FULL CI ITERATION TIME:          0.1

 ITERATION      ENERGY           GRADIENT
     1     -379.2278578037     0.15549170
     1     -379.1720062354     0.16129183
     1     -379.1497176523     0.14429246
     1     -379.1402933848     0.14651948
     1     -379.1049412069     0.14669648
     1     -379.1041290627     0.14581708
     1     -379.0566966550     0.05589069
     1     -379.0439078539     0.05337878
     1     -379.0416544391     0.17824246
     1     -379.0198531068     0.18022813
     1     -379.0144477882     0.19745231
     1     -379.0079434094     0.15767965
     1     -378.9913272312     0.17470119
     1     -378.9851386582     0.12969009
     1     -378.9729534586     0.12839010

     2     -379.2407304792     0.02747326
     2     -379.1866980240     0.02618217
     2     -379.1620206091     0.02241627
     2     -379.1529784442     0.02275982
     2     -379.1175718629     0.01812316
     2     -379.1165047461     0.01807366
     2     -379.0611610062     0.03754952
     2     -379.0579671756     0.00775089
     2     -379.0450751618     0.00784436
     2     -379.0388660128     0.03172867
     2     -379.0380650474     0.03778472
     2     -379.0219878006     0.02507342
     2     -379.0087622943     0.03529079
     2     -378.9950638447     0.02151552
     2     -378.9826486311     0.02011771

     3     -379.2410086708     0.00942583
     3     -379.1870420628     0.00526701
     3     -379.1622920898     0.00763319
     3     -379.1532452525     0.00858774
     3     -379.1177262965     0.00369696
     3     -379.1166587513     0.00392141
     3     -379.0616733427     0.01964086
     3     -379.0579932817     0.00215225
     3     -379.0451038118     0.00210873
     3     -379.0393505712     0.00827849
     3     -379.0386766780     0.01009594
     3     -379.0223637334     0.00726160
     3     -379.0091418629     0.02205908
     3     -378.9953233707     0.00641439
     3     -378.9828734087     0.00518282

     4     -379.2410483403     0.00196734
     4     -379.1870585329     0.00135480
     4     -379.1623279273     0.00196716
     4     -379.1532880961     0.00212524
     4     -379.1177365635     0.00130745
     4     -379.1166716804     0.00157600
     4     -379.0618655270     0.00524067
     4     -379.0579960885     0.00068708
     4     -379.0451058920     0.00078735
     4     -379.0393848992     0.00417687
     4     -379.0387307950     0.00357368
     4     -379.0223995872     0.00275575
     4     -379.0093525623     0.00700903
     4     -378.9953549863     0.00307517
     4     -378.9828912244     0.00217019

     5     -379.2410498725     0.00048819
     5     -379.1870593977     0.00039784
     5     -379.1623305848     0.00076914
     5     -379.1532907219     0.00072145
     5     -379.1177377430     0.00037385
     5     -379.1166734904     0.00046919
     5     -379.0618785114     0.00193991
     5     -379.0579963638     0.00023912
     5     -379.0451062245     0.00036630
     5     -379.0393961043     0.00258516
     5     -379.0387394713     0.00173321
     5     -379.0224043403     0.00198000
     5     -379.0093750253     0.00311174
     5     -378.9953575526     0.00232219
     5     -378.9828934520     0.00149821

     6     -379.2410499977     0.00018044
     6     -379.1870595076     0.00010373
     6     -379.1623310304     0.00026501
     6     -379.1532910651     0.00024547
     6     -379.1177379098     0.00014833
     6     -379.1166737538     0.00020224
     6     -379.0618806731     0.00057389
     6     -379.0579964594     0.00017765
     6     -379.0451063340     0.00014621
     6     -379.0394019011     0.00098509
     6     -379.0387437457     0.00142894
     6     -379.0224064692     0.00169170
     6     -379.0093789134     0.00286045
     6     -378.9953666415     0.00204110
     6     -378.9828971347     0.00173584

     7     -379.2410500125     0.00004506
     7     -379.1870595122     0.00002184
     7     -379.1623310875     0.00007849
     7     -379.1532911151     0.00007645
     7     -379.1177379211     0.00003636
     7     -379.1166737770     0.00004680
     7     -379.0618808833     0.00016069
     7     -379.0579964760     0.00004773
     7     -379.0451063448     0.00002990
     7     -379.0394024405     0.00022935
     7     -379.0387449315     0.00049465
     7     -379.0224086159     0.00050958
     7     -379.0093837056     0.00080061
     7     -378.9953709557     0.00093099
     7     -378.9829001540     0.00077887

     8     -379.2410500133     0.00001403
     8     -379.1870595124     0.00000615
     8     -379.1623310911     0.00002481
     8     -379.1532911191     0.00002489
     8     -379.1177379217     0.00001154
     8     -379.1166737780     0.00001413
     8     -379.0618808958     0.00005482
     8     -379.0579964770     0.00001361
     8     -379.0451063452     0.00000939
     8     -379.0394024689     0.00007460
     8     -379.0387450370     0.00017051
     8     -379.0224087735     0.00019265
     8     -379.0093840651     0.00032470
     8     -378.9953713905     0.00027790
     8     -378.9829004774     0.00025455

     9     -379.2410500135     0.00000473
     9     -379.1870595124     0.00000169
     9     -379.1623310916     0.00000734
     9     -379.1532911196     0.00001300
     9     -379.1177379218     0.00000578
     9     -379.1166737781     0.00000761
     9     -379.0618808974     0.00003597
     9     -379.0579964772     0.00000473
     9     -379.0451063453     0.00000402
     9     -379.0394024734     0.00003163
     9     -379.0387450544     0.00005789
     9     -379.0224087888     0.00018110
     9     -379.0093841312     0.00015188
     9     -378.9953714529     0.00016295
     9     -378.9829005345     0.00015101

    10     -379.2410500135     0.00000162
    10     -379.1870595124     0.00000041
    10     -379.1623310917     0.00000212
    10     -379.1532911197     0.00000725
    10     -379.1177379218     0.00000129
    10     -379.1166737781     0.00000193
    10     -379.0618808984     0.00001451
    10     -379.0579964772     0.00000229
    10     -379.0451063453     0.00000153
    10     -379.0394024741     0.00001039
    10     -379.0387450570     0.00003727
    10     -379.0224088180     0.00008817
    10     -379.0093841498     0.00009079
    10     -378.9953714582     0.00016573
    10     -378.9829005475     0.00015609

    11     -379.2410500135     0.00000057
    11     -379.1870595124     0.00000011
    11     -379.1623310917     0.00000061
    11     -379.1532911197     0.00000479
    11     -379.1177379218     0.00000058
    11     -379.1166737781     0.00000076
    11     -379.0618808985     0.00000451
    11     -379.0579964772     0.00000103
    11     -379.0451063453     0.00000063
    11     -379.0394024741     0.00000436
    11     -379.0387450577     0.00001766
    11     -379.0224088231     0.00004093
    11     -379.0093841525     0.00004939
    11     -378.9953714624     0.00017064
    11     -378.9829005539     0.00015205

    12     -379.2410500135     0.00000017
    12     -379.1870595124     0.00000004
    12     -379.1623310917     0.00000017
    12     -379.1532911197     0.00000171
    12     -379.1177379218     0.00000022
    12     -379.1166737781     0.00000035
    12     -379.0618808985     0.00000185
    12     -379.0579964772     0.00000064
    12     -379.0451063453     0.00000025
    12     -379.0394024741     0.00000182
    12     -379.0387450580     0.00001134
    12     -379.0224088246     0.00002616
    12     -379.0093841540     0.00002904
    12     -378.9953714849     0.00010135
    12     -378.9829005645     0.00015221

    13     -379.2410500135     0.00000004
    13     -379.1870595124     0.00000001
    13     -379.1623310917     0.00000005
    13     -379.1532911197     0.00000054
    13     -379.1177379218     0.00000008
    13     -379.1166737781     0.00000015
    13     -379.0618808985     0.00000054
    13     -379.0579964772     0.00000022
    13     -379.0451063453     0.00000011
    13     -379.0394024741     0.00000079
    13     -379.0387450581     0.00000456
    13     -379.0224088252     0.00001247
    13     -379.0093841546     0.00001079
    13     -378.9953714944     0.00003471
    13     -378.9829005813     0.00010277

    14     -379.2410500135     0.00000001
    14     -379.1870595124     0.00000000
    14     -379.1623310917     0.00000002
    14     -379.1532911197     0.00000019
    14     -379.1177379218     0.00000003
    14     -379.1166737781     0.00000005
    14     -379.0618808985     0.00000018
    14     -379.0579964772     0.00000007
    14     -379.0451063453     0.00000004
    14     -379.0394024741     0.00000032
    14     -379.0387450581     0.00000155
    14     -379.0224088253     0.00000475
    14     -379.0093841546     0.00000383
    14     -378.9953714951     0.00001428
    14     -378.9829005850     0.00006998


 CONVERGED STATE    2 ENERGY=     -379.1870595124 IN   13 ITERS

     0     -379.2410500135     0.00000001
     0     -379.1623310917     0.00000002
     0     -379.1532911197     0.00000019
     0     -379.1177379218     0.00000003
     0     -379.1166737781     0.00000005
     0     -379.0618808985     0.00000018
     0     -379.0579964772     0.00000007
     0     -379.0451063453     0.00000004
     0     -379.0394024741     0.00000032
     0     -379.0387450581     0.00000155
     0     -379.0224088253     0.00000475
     0     -379.0093841546     0.00000383
     0     -378.9953714951     0.00001428
     0     -378.9829005850     0.00006998

     1     -379.2410500135     0.00000000
     1     -379.1623310917     0.00000001
     1     -379.1532911197     0.00000009
     1     -379.1177379218     0.00000001
     1     -379.1166737781     0.00000003
     1     -379.0618808985     0.00000010
     1     -379.0579964772     0.00000003
     1     -379.0451063453     0.00000002
     1     -379.0394024741     0.00000017
     1     -379.0387450581     0.00000086
     1     -379.0224088253     0.00000250
     1     -379.0093841546     0.00000268
     1     -378.9953714952     0.00001184
     1     -378.9829005868     0.00005028


 CONVERGED STATE    1 ENERGY=     -379.2410500135 IN   15 ITERS


 CONVERGED STATE    3 ENERGY=     -379.1623310917 IN   15 ITERS

     0     -379.1532911197     0.00000009
     0     -379.1177379218     0.00000001
     0     -379.1166737781     0.00000003
     0     -379.0618808985     0.00000010
     0     -379.0579964772     0.00000003
     0     -379.0451063453     0.00000002
     0     -379.0394024741     0.00000017
     0     -379.0387450581     0.00000086
     0     -379.0224088253     0.00000250
     0     -379.0093841546     0.00000268
     0     -378.9953714952     0.00001184
     0     -378.9829005868     0.00005028

     1     -379.1532911197     0.00000007
     1     -379.1177379218     0.00000001
     1     -379.1166737781     0.00000001
     1     -379.0618808985     0.00000006
     1     -379.0579964772     0.00000002
     1     -379.0451063453     0.00000001
     1     -379.0394024741     0.00000011
     1     -379.0387450581     0.00000054
     1     -379.0224088253     0.00000161
     1     -379.0093841547     0.00000169
     1     -378.9953714952     0.00001129
     1     -378.9829005879     0.00003768


 CONVERGED STATE    5 ENERGY=     -379.1177379218 IN   17 ITERS

     0     -379.1532911197     0.00000007
     0     -379.1166737781     0.00000001
     0     -379.0618808985     0.00000006
     0     -379.0579964772     0.00000002
     0     -379.0451063453     0.00000001
     0     -379.0394024741     0.00000011
     0     -379.0387450581     0.00000054
     0     -379.0224088253     0.00000161
     0     -379.0093841547     0.00000169
     0     -378.9953714952     0.00001129
     0     -378.9829005879     0.00003768

     1     -379.1532911197     0.00000006
     1     -379.1166737781     0.00000001
     1     -379.0618808985     0.00000004
     1     -379.0579964772     0.00000001
     1     -379.0451063453     0.00000001
     1     -379.0394024741     0.00000006
     1     -379.0387450581     0.00000035
     1     -379.0224088253     0.00000105
     1     -379.0093841547     0.00000169
     1     -378.9953714952     0.00001078
     1     -378.9829005887     0.00003200


 CONVERGED STATE    8 ENERGY=     -379.0579964772 IN   19 ITERS


 CONVERGED STATE    9 ENERGY=     -379.0451063453 IN   19 ITERS

     0     -379.1532911197     0.00000006
     0     -379.1166737781     0.00000001
     0     -379.0618808985     0.00000004
     0     -379.0394024741     0.00000006
     0     -379.0387450581     0.00000035
     0     -379.0224088253     0.00000105
     0     -379.0093841547     0.00000169
     0     -378.9953714952     0.00001078
     0     -378.9829005887     0.00003200

     1     -379.1532911197     0.00000005
     1     -379.1166737781     0.00000001
     1     -379.0618808985     0.00000002
     1     -379.0394024741     0.00000004
     1     -379.0387450581     0.00000027
     1     -379.0224088253     0.00000092
     1     -379.0093841547     0.00000159
     1     -378.9953714952     0.00001104
     1     -378.9829005892     0.00002421


 CONVERGED STATE    6 ENERGY=     -379.1166737781 IN   21 ITERS

     0     -379.1532911197     0.00000005
     0     -379.0618808985     0.00000002
     0     -379.0394024741     0.00000004
     0     -379.0387450581     0.00000027
     0     -379.0224088253     0.00000092
     0     -379.0093841547     0.00000159
     0     -378.9953714952     0.00001104
     0     -378.9829005892     0.00002421

     1     -379.1532911197     0.00000004
     1     -379.0618808985     0.00000001
     1     -379.0394024741     0.00000003
     1     -379.0387450581     0.00000022
     1     -379.0224088253     0.00000054
     1     -379.0093841547     0.00000157
     1     -378.9953714952     0.00001052
     1     -378.9829005895     0.00001879

     2     -379.1532911197     0.00000002
     2     -379.0618808985     0.00000000
     2     -379.0394024741     0.00000001
     2     -379.0387450581     0.00000011
     2     -379.0224088253     0.00000033
     2     -379.0093841547     0.00000150
     2     -378.9953714953     0.00000700
     2     -378.9829005902     0.00001652


 CONVERGED STATE    7 ENERGY=     -379.0618808985 IN   24 ITERS


 CONVERGED STATE   10 ENERGY=     -379.0394024741 IN   24 ITERS

     0     -379.1532911197     0.00000002
     0     -379.0387450581     0.00000011
     0     -379.0224088253     0.00000033
     0     -379.0093841547     0.00000150
     0     -378.9953714953     0.00000700
     0     -378.9829005902     0.00001652

     1     -379.1532911197     0.00000001
     1     -379.0387450581     0.00000007
     1     -379.0224088253     0.00000015
     1     -379.0093841547     0.00000146
     1     -378.9953714953     0.00000545
     1     -378.9829005904     0.00001129


 CONVERGED STATE    4 ENERGY=     -379.1532911197 IN   26 ITERS

     0     -379.0387450581     0.00000007
     0     -379.0224088253     0.00000015
     0     -379.0093841547     0.00000146
     0     -378.9953714953     0.00000545
     0     -378.9829005904     0.00001129

     1     -379.0387450581     0.00000006
     1     -379.0224088253     0.00000017
     1     -379.0093841547     0.00000146
     1     -378.9953714953     0.00000597
     1     -378.9829005904     0.00000868

     2     -379.0387450581     0.00000006
     2     -379.0224088253     0.00000014
     2     -379.0093841547     0.00000087
     2     -378.9953714953     0.00000479
     2     -378.9829005905     0.00001022

     3     -379.0387450581     0.00000005
     3     -379.0224088253     0.00000003
     3     -379.0093841547     0.00000031
     3     -378.9953714954     0.00000427
     3     -378.9829005908     0.00001288

     4     -379.0387450581     0.00000003
     4     -379.0224088253     0.00000001
     4     -379.0093841547     0.00000014
     4     -378.9953714954     0.00000444
     4     -378.9829005910     0.00000866


 CONVERGED STATE   12 ENERGY=     -379.0224088253 IN   31 ITERS

     0     -379.0387450581     0.00000003
     0     -379.0093841547     0.00000014
     0     -378.9953714954     0.00000444
     0     -378.9829005910     0.00000866

     1     -379.0387450581     0.00000002
     1     -379.0093841547     0.00000006
     1     -378.9953714955     0.00000165
     1     -378.9829005910     0.00000579

     2     -379.0387450581     0.00000001
     2     -379.0093841547     0.00000005
     2     -378.9953714955     0.00000208
     2     -378.9829005911     0.00000369

     3     -379.0387450581     0.00000001
     3     -379.0093841547     0.00000004
     3     -378.9953714955     0.00000160
     3     -378.9829005911     0.00000339

     4     -379.0387450581     0.00000001
     4     -379.0093841547     0.00000002
     4     -378.9953714955     0.00000158
     4     -378.9829005911     0.00000349

     5     -379.0387450581     0.00000001
     5     -379.0093841547     0.00000001
     5     -378.9953714955     0.00000144
     5     -378.9829005911     0.00000251


 CONVERGED STATE   11 ENERGY=     -379.0387450581 IN   37 ITERS

     0     -379.0093841547     0.00000001
     0     -378.9953714955     0.00000144
     0     -378.9829005911     0.00000251

     1     -379.0093841547     0.00000000
     1     -378.9953714955     0.00000124
     1     -378.9829005911     0.00000116


 CONVERGED STATE   13 ENERGY=     -379.0093841547 IN   39 ITERS

     0     -378.9953714955     0.00000124
     0     -378.9829005911     0.00000116

     1     -378.9953714955     0.00000129
     1     -378.9829005911     0.00000082

     2     -378.9953714955     0.00000099
     2     -378.9829005911     0.00000080

     3     -378.9953714955     0.00000077
     3     -378.9829005911     0.00000091

     4     -378.9953714955     0.00000068
     4     -378.9829005911     0.00000091

     5     -378.9953714955     0.00000056
     5     -378.9829005911     0.00000088

     6     -378.9953714955     0.00000025
     6     -378.9829005911     0.00000078

     7     -378.9953714955     0.00000011
     7     -378.9829005911     0.00000067

     8     -378.9953714955     0.00000004
     8     -378.9829005911     0.00000051

     9     -378.9953714955     0.00000004
     9     -378.9829005911     0.00000050

    10     -378.9953714955     0.00000002
    10     -378.9829005911     0.00000049

    11     -378.9953714955     0.00000001
    11     -378.9829005911     0.00000049


 CONVERGED STATE   14 ENERGY=     -378.9953714955 IN   51 ITERS

     0     -378.9829005911     0.00000049
     1     -378.9829005911     0.00000049
     2     -378.9829005911     0.00000042
     3     -378.9829005911     0.00000037
     4     -378.9829005911     0.00000032
     5     -378.9829005911     0.00000023
     6     -378.9829005911     0.00000022
     7     -378.9829005911     0.00000022
     8     -378.9829005911     0.00000021
     9     -378.9829005911     0.00000016
    10     -378.9829005911     0.00000014
    11     -378.9829005911     0.00000012
    12     -378.9829005911     0.00000014
    13     -378.9829005911     0.00000009
    14     -378.9829005911     0.00000004
    15     -378.9829005911     0.00000002
    16     -378.9829005911     0.00000001
    17     -378.9829005911     0.00000001

 CONVERGED STATE   15 ENERGY=     -378.9829005911 IN   69 ITERS

 ALL STATES CONVERGED.

 CI EIGENVECTORS WILL BE LABELED IN GROUP=C1      
 PRINTING CI COEFFICIENTS LARGER THAN  0.050000

 STATE   1  ENERGY=      -379.2410500135  S=  0.00  SZ=  0.00  SPACE SYM=A   

   ALPHA    |   BETA     | COEFFICIENT
------------|------------|------------
 1111101000 | 1111101000 |   0.8996855
 1111011000 | 1111011000 |  -0.3006003
 1111101000 | 1110111000 |  -0.1871895
 1110111000 | 1111101000 |  -0.1871895

 STATE   2  ENERGY=      -379.1870595124  S=  1.00  SZ=  0.00  SPACE SYM=A   

   ALPHA    |   BETA     | COEFFICIENT
------------|------------|------------
 1111011000 | 1111101000 |   0.6500969
 1111101000 | 1111011000 |  -0.6500969
 1110111000 | 1111011000 |   0.1892248
 1111011000 | 1110111000 |  -0.1892248
 1111101000 | 1011111000 |  -0.1500497
 1011111000 | 1111101000 |   0.1500497
 1110111000 | 1011111000 |   0.0668716
 1011111000 | 1110111000 |  -0.0668716

 STATE   3  ENERGY=      -379.1623310917  S=  1.00  SZ=  0.00  SPACE SYM=A   

   ALPHA    |   BETA     | COEFFICIENT
------------|------------|------------
 1111110000 | 1111101000 |   0.6528487
 1111101000 | 1111110000 |  -0.6528487
 0111111000 | 1111011000 |   0.2311725
 1111011000 | 0111111000 |  -0.2311725
 1111110000 | 1110111000 |  -0.1066326
 1110111000 | 1111110000 |   0.1066326

 STATE   4  ENERGY=      -379.1532911197  S=  0.00  SZ=  0.00  SPACE SYM=A   

   ALPHA    |   BETA     | COEFFICIENT
------------|------------|------------
 1111101000 | 1111110000 |   0.6410957
 1111110000 | 1111101000 |   0.6410957
 0111111000 | 1111011000 |   0.2610892
 1111011000 | 0111111000 |   0.2610892
 1111110000 | 1110111000 |  -0.1098449
 1110111000 | 1111110000 |  -0.1098449

 STATE   5  ENERGY=      -379.1177379218  S=  1.00  SZ=  0.00  SPACE SYM=A   

   ALPHA    |   BETA     | COEFFICIENT
------------|------------|------------
 1111101000 | 0111111000 |  -0.5265124
 0111111000 | 1111101000 |   0.5265124
 1111011000 | 1111110000 |  -0.4311008
 1111110000 | 1111011000 |   0.4311008
 0111111000 | 1110111000 |  -0.1303698
 1110111000 | 0111111000 |   0.1303698
 1011111000 | 1111110000 |  -0.1002183
 1111110000 | 1011111000 |   0.1002183

 STATE   6  ENERGY=      -379.1166737781  S=  0.00  SZ=  0.00  SPACE SYM=A   

   ALPHA    |   BETA     | COEFFICIENT
------------|------------|------------
 0111111000 | 1111101000 |  -0.5196890
 1111101000 | 0111111000 |  -0.5196890
 1111011000 | 1111110000 |  -0.4405995
 1111110000 | 1111011000 |  -0.4405995
 0111111000 | 1110111000 |   0.1317148
 1110111000 | 0111111000 |   0.1317148
 1111110000 | 1011111000 |  -0.0930663
 1011111000 | 1111110000 |  -0.0930663

 STATE   7  ENERGY=      -379.0618808985  S=  0.00  SZ=  0.00  SPACE SYM=A   

   ALPHA    |   BETA     | COEFFICIENT
------------|------------|------------
 1111101000 | 1111011000 |  -0.5314138
 1111011000 | 1111101000 |  -0.5314138
 1011111000 | 1111101000 |  -0.4115239
 1111101000 | 1011111000 |  -0.4115239
 1011111000 | 1110111000 |   0.1634686
 1110111000 | 1011111000 |   0.1634686
 1111100100 | 1111101000 |   0.0618368
 1111101000 | 1111100100 |   0.0618368
 1111011000 | 1110111000 |  -0.0530051
 1110111000 | 1111011000 |  -0.0530051

 STATE   8  ENERGY=      -379.0579964772  S=  0.00  SZ=  0.00  SPACE SYM=A   

   ALPHA    |   BETA     | COEFFICIENT
------------|------------|------------
 1111110000 | 1111110000 |  -0.8682062
 0111111000 | 0111111000 |   0.4731912
 1111011000 | 1111011000 |   0.0904159

 STATE   9  ENERGY=      -379.0451063453  S=  1.00  SZ=  0.00  SPACE SYM=A   

   ALPHA    |   BETA     | COEFFICIENT
------------|------------|------------
 1111110000 | 0111111000 |  -0.6938380
 0111111000 | 1111110000 |   0.6938380
 1111101000 | 1011111000 |   0.1088430
 1011111000 | 1111101000 |  -0.1088430
 0111110100 | 0111111000 |   0.0556931
 0111111000 | 0111110100 |  -0.0556931

 STATE  10  ENERGY=      -379.0394024741  S=  1.00  SZ=  0.00  SPACE SYM=A   

   ALPHA    |   BETA     | COEFFICIENT
------------|------------|------------
 1111101000 | 1011111000 |  -0.6394876
 1011111000 | 1111101000 |   0.6394876
 1110111000 | 1011111000 |   0.1670546
 1011111000 | 1110111000 |  -0.1670546
 1111011000 | 1111101000 |  -0.1430234
 1111101000 | 1111011000 |   0.1430234
 1111110000 | 0111111000 |  -0.1174127
 0111111000 | 1111110000 |   0.1174127
 1111011000 | 1110111000 |   0.0863343
 1110111000 | 1111011000 |  -0.0863343
 1011111000 | 1101111000 |   0.0565015
 1101111000 | 1011111000 |  -0.0565015
 1101111000 | 1111011000 |  -0.0507442
 1111011000 | 1101111000 |   0.0507442

 STATE  11  ENERGY=      -379.0387450581  S=  0.00  SZ=  0.00  SPACE SYM=A   

   ALPHA    |   BETA     | COEFFICIENT
------------|------------|------------
 1111011000 | 1111011000 |   0.6646204
 1111101000 | 1111101000 |   0.3601800
 1110111000 | 1111101000 |   0.3217488
 1111101000 | 1110111000 |   0.3217488
 1110111000 | 1110111000 |  -0.2934448
 1111011000 | 1011111000 |   0.1721480
 1011111000 | 1111011000 |   0.1721480
 1111110000 | 1111110000 |   0.0914425
 1011111000 | 1011111000 |  -0.0826701
 1111101000 | 1101111000 |  -0.0778091
 1101111000 | 1111101000 |  -0.0778091
 0111111000 | 0111111000 |  -0.0703825
 1110111000 | 1101111000 |   0.0617369
 1101111000 | 1110111000 |   0.0617369
 1101111000 | 1101111000 |  -0.0571250
 1111101000 | 1111100010 |   0.0513834
 1111100010 | 1111101000 |   0.0513834

 STATE  12  ENERGY=      -379.0224088253  S=  1.00  SZ=  0.00  SPACE SYM=A   

   ALPHA    |   BETA     | COEFFICIENT
------------|------------|------------
 1111101000 | 1110111000 |   0.6637871
 1110111000 | 1111101000 |  -0.6637871
 1011111000 | 1111011000 |   0.1755177
 1111011000 | 1011111000 |  -0.1755177
 1111101000 | 1101111000 |  -0.1180606
 1101111000 | 1111101000 |   0.1180606
 1111011000 | 1111100100 |  -0.0522238
 1111100100 | 1111011000 |   0.0522238

 STATE  13  ENERGY=      -379.0093841547  S=  0.00  SZ=  0.00  SPACE SYM=A   

   ALPHA    |   BETA     | COEFFICIENT
------------|------------|------------
 1011111000 | 1111101000 |  -0.4564389
 1111101000 | 1011111000 |  -0.4564389
 1111011000 | 1111101000 |   0.3841703
 1111101000 | 1111011000 |   0.3841703
 1110111000 | 1111011000 |   0.2861317
 1111011000 | 1110111000 |   0.2861317
 1011111000 | 1110111000 |   0.2134982
 1110111000 | 1011111000 |   0.2134982
 1111101000 | 1111100100 |  -0.0547737
 1111100100 | 1111101000 |  -0.0547737
 0111101010 | 1111101000 |  -0.0532941
 1111101000 | 0111101010 |  -0.0532941

 STATE  14  ENERGY=      -378.9953714955  S=  1.00  SZ=  0.00  SPACE SYM=A   

   ALPHA    |   BETA     | COEFFICIENT
------------|------------|------------
 1011111000 | 1111110000 |  -0.4502133
 1111110000 | 1011111000 |   0.4502133
 0111111000 | 1111101000 |  -0.3911040
 1111101000 | 0111111000 |   0.3911040
 1111110000 | 1111011000 |   0.3497806
 1111011000 | 1111110000 |  -0.3497806
 0111111000 | 1110111000 |  -0.0865932
 1110111000 | 0111111000 |   0.0865932
 1111100100 | 1111110000 |   0.0553304
 1111110000 | 1111100100 |  -0.0553304

 STATE  15  ENERGY=      -378.9829005911  S=  0.00  SZ=  0.00  SPACE SYM=A   

   ALPHA    |   BETA     | COEFFICIENT
------------|------------|------------
 1111110000 | 1011111000 |   0.5022600
 1011111000 | 1111110000 |   0.5022600
 1111101000 | 0111111000 |  -0.3674979
 0111111000 | 1111101000 |  -0.3674979
 1111011000 | 1111110000 |   0.3014094
 1111110000 | 1111011000 |   0.3014094
 1110111000 | 0111111000 |  -0.0928904
 0111111000 | 1110111000 |  -0.0928904
 ..... DONE WITH DETERMINANT CI COMPUTATION .....

                         TIMING STATISTICS ON RANK 0:
 CPU        TIME:   STEP =      2.25 ,  TOTAL =       16.6 SECONDS (    0.3 MIN)
 WALL CLOCK TIME:   STEP =      2.11 ,  TOTAL =       16.5 SECONDS (    0.3 MIN)
 CPU UTILIZATION:   STEP =    106.54%,  TOTAL =     100.92%

     --------------------------------------------------
      ONE AND TWO PARTICLE DENSITY MATRIX COMPUTATION
            PROGRAM WRITTEN BY ALEX A. GRANOVSKY     
     --------------------------------------------------

     198546 WORDS WILL BE USED TO FORM THE DENSITIES
 THE DENSITIES ARE STATE AVERAGED OVER   5 ROOT(S)
 STATE=   1   ENERGY=     -379.2410500135   WEIGHT= 0.20000   S=  0.00
 STATE=   4   ENERGY=     -379.1532911197   WEIGHT= 0.20000   S=  0.00
 STATE=   6   ENERGY=     -379.1166737781   WEIGHT= 0.20000   S=  0.00
 STATE=   7   ENERGY=     -379.0618808985   WEIGHT= 0.20000   S=  0.00
 STATE=   8   ENERGY=     -379.0579964772   WEIGHT= 0.20000   S=  0.00
 SIEVING THE A    SYMMETRY NONZERO DENSITY ELEMENTS IN GROUP C1      
       1507 NONZERO DM2 ELEMENTS WRITTEN IN       1 RECORDS TO FILE 15
 ..... DONE WITH 1 AND 2 PARTICLE DENSITY MATRIX .....

                         TIMING STATISTICS ON RANK 0:
 CPU        TIME:   STEP =      0.02 ,  TOTAL =       16.6 SECONDS (    0.3 MIN)
 WALL CLOCK TIME:   STEP =      0.02 ,  TOTAL =       16.5 SECONDS (    0.3 MIN)
 CPU UTILIZATION:   STEP =    117.81%,  TOTAL =     100.94%

     ------------------------------  ------------------------------------
     APPROXIMATE SECOND-ORDER MCSCF  PROGRAM WRITTEN BY ALEX A. GRANOVSKY
     ------------------------------  ------------------------------------

  NUMBER OF WORDS NEEDED     =     889220
  NUMBER AVAILABLE           =  199999600

 ----- GAMMA(IJKL)*(PQ|KL) PRODUCTS ----- CPU TIME =      0.020
 ----- ORBITAL SYMMETRY             ----- CPU TIME =      0.010
 ----- FOCK OPERATORS CONSTRUCTION  ----- CPU TIME =      0.550
     MICIT =   1 ASYMM =    0.057204 ROTMAX =    0.066841
 ----- EFFECTIVE FOCK + ROTATE ORBS ----- CPU TIME =      0.010
     MICIT =   2 ASYMM =    0.053345 ROTMAX =    0.017068
     MICIT =   3 ASYMM =    0.055323 ROTMAX =    0.034067
     MICIT =   4 ASYMM =    0.059272 ROTMAX =    0.033133
     MICIT =   5 ASYMM =    0.062985 ROTMAX =    0.033639
 ..... DONE WITH CASSCF ORBITAL UPDATE .....

                         TIMING STATISTICS ON RANK 0:
 CPU        TIME:   STEP =      0.69 ,  TOTAL =       17.3 SECONDS (    0.3 MIN)
 WALL CLOCK TIME:   STEP =      0.69 ,  TOTAL =       17.2 SECONDS (    0.3 MIN)
 CPU UTILIZATION:   STEP =     99.77%,  TOTAL =     100.89%

 ITER    TOTAL ENERGY          DEL(E)    LAG.ASYMM.  SQCDF  MICIT   DAMP
   1    -379.126178457    -379.126178457  0.057204 6.684E-02  5   0.0000
   1 CONVERGED CI STATE(S) HAVE BECOME UNCONVERGED, NOW WORKING ON   3 STATES.
                    ALL CI STATES CONVERGED IN  84 ITERATIONS
       SOSCF IS SCALING ROTATION ANGLE MATRIX, DXMAX=    0.364121
     ----------START APPROXIMATE SECOND ORDER MCSCF----------
   2    -379.165667968      -0.039489511  0.024245 2.115E-01  1   0.0000
       SOSCF IS SCALING ROTATION ANGLE MATRIX, SQCDF=    2.531612
       SOSCF IS SCALING ROTATION ANGLE MATRIX, DXMAX=    2.417547
   3    -379.182593251      -0.016925283  0.015692 2.778E-01  1   0.0000
       SOSCF IS SCALING ROTATION ANGLE MATRIX, DXMAX=    1.008223
   4    -379.197660864      -0.015067613  0.012662 1.816E-01  1   0.0000
       SOSCF IS SCALING ROTATION ANGLE MATRIX, DXMAX=    2.179876
   5    -379.207067950      -0.009407086  0.012578 1.152E-01  1   0.0000
       SOSCF IS SCALING ROTATION ANGLE MATRIX, DXMAX=    1.924878
   6    -379.211664038      -0.004596089  0.025357 1.050E-01  1   0.0000
       SOSCF IS SCALING ROTATION ANGLE MATRIX, DXMAX=    0.923604
   7    -379.211660572       0.000003466  0.030672 7.105E-02  1   0.0000
       SOSCF IS SCALING ROTATION ANGLE MATRIX, DXMAX=    0.594675
   8    -379.209453507       0.002207064  0.028281 1.601E-01  1   0.0000
       SOSCF IS SCALING ROTATION ANGLE MATRIX, DXMAX=    1.051359
   9    -379.202840299       0.006613208  0.023722 1.093E-01  1   0.0000
       SOSCF IS SCALING ROTATION ANGLE MATRIX, DXMAX=    1.191229
  10    -379.203869373      -0.001029074  0.021000 1.352E-01  1   0.0000
       SOSCF IS SCALING ROTATION ANGLE MATRIX, DXMAX=    0.693187
  11    -379.208029882      -0.004160508  0.018543 2.424E-01  1   0.0000
       SOSCF IS SCALING ROTATION ANGLE MATRIX, DXMAX=    0.846066
  12    -379.202498572       0.005531310  0.020083 1.827E-01  1   0.0000
       SOSCF IS SCALING ROTATION ANGLE MATRIX, DXMAX=    1.137266
  13    -379.202711165      -0.000212593  0.014431 1.505E-01  1   0.0000
       SOSCF IS SCALING ROTATION ANGLE MATRIX, DXMAX=    0.967426
  14    -379.205445220      -0.002734055  0.010088 1.832E-01  1   0.0000
       SOSCF IS SCALING ROTATION ANGLE MATRIX, DXMAX=    0.838821
  15    -379.208892978      -0.003447758  0.011859 2.256E-01  1   0.0000
       SOSCF IS SCALING ROTATION ANGLE MATRIX, DXMAX=    0.536855
  16    -379.204545163       0.004347815  0.015761 3.913E-01  1   0.0000
       SOSCF IS SCALING ROTATION ANGLE MATRIX, DXMAX=    0.921529
  17    -379.196887093       0.007658071  0.020649 2.032E-01  1   0.0000
       SOSCF IS SCALING ROTATION ANGLE MATRIX, DXMAX=    1.001468
  18    -379.200579586      -0.003692493  0.022142 3.017E-01  1   0.0000
       SOSCF IS SCALING ROTATION ANGLE MATRIX, DXMAX=    0.699383
  19    -379.203095873      -0.002516287  0.020943 3.242E-01  1   0.0000
       SOSCF IS SCALING ROTATION ANGLE MATRIX, DXMAX=    0.557253
  20    -379.204158656      -0.001062782  0.016397 3.338E-01  1   0.0000
       SOSCF IS SCALING ROTATION ANGLE MATRIX, DXMAX=    0.841532
  21    -379.202422074       0.001736581  0.015508 3.534E-01  1   0.0000
       SOSCF IS SCALING ROTATION ANGLE MATRIX, DXMAX=    0.453153
  22    -379.201574293       0.000847781  0.015114 5.248E-01  1   0.0000
       SOSCF IS SCALING ROTATION ANGLE MATRIX, DXMAX=    0.691055
  23    -379.201903436      -0.000329144  0.015558 3.716E-01  1   0.0000
       SOSCF IS SCALING ROTATION ANGLE MATRIX, DXMAX=    0.797313
  24    -379.208151455      -0.006248018  0.014305 1.989E-01  1   0.0000
       SOSCF IS SCALING ROTATION ANGLE MATRIX, DXMAX=    0.430822
  25    -379.214247625      -0.006096170  0.010756 3.975E-01  1   0.0000
       SOSCF IS SCALING ROTATION ANGLE MATRIX, DXMAX=    0.244660
  26    -379.218347742      -0.004100117  0.008504 6.449E-01  1   0.0000
       SOSCF IS SCALING ROTATION ANGLE MATRIX, DXMAX=    0.295516
  27    -379.219390881      -0.001043140  0.008964 4.286E-01  1   0.0000
       SOSCF IS SCALING ROTATION ANGLE MATRIX, DXMAX=    0.330374
  28    -379.224454904      -0.005064023  0.006184 4.346E-01  1   0.0000
       SOSCF IS SCALING ROTATION ANGLE MATRIX, DXMAX=    0.347823
  29    -379.225664846      -0.001209941  0.005621 2.895E-01  1   0.0000
       SOSCF IS SCALING ROTATION ANGLE MATRIX, DXMAX=    0.483488
  30    -379.228438198      -0.002773352  0.005581 2.656E-01  1   0.0000
       SOSCF IS SCALING ROTATION ANGLE MATRIX, DXMAX=    0.230163
  31    -379.230300922      -0.001862724  0.005894 5.436E-01  1   0.0000
       SOSCF IS SCALING ROTATION ANGLE MATRIX, DXMAX=    0.346855
  32    -379.223306565       0.006994356  0.006311 1.998E-01  1   0.0000
       SOSCF IS SCALING ROTATION ANGLE MATRIX, DXMAX=    0.463899
  33    -379.230232182      -0.006925617  0.005537 4.263E-01  1   0.0000
       SOSCF IS SCALING ROTATION ANGLE MATRIX, DXMAX=    0.562177
  34    -379.227078475       0.003153707  0.007401 1.218E-01  1   0.0000
       SOSCF IS SCALING ROTATION ANGLE MATRIX, DXMAX=    0.447547
  35    -379.230549453      -0.003470978  0.003867 2.681E-01  1   0.0000
       SOSCF IS SCALING ROTATION ANGLE MATRIX, DXMAX=    0.416606
  36    -379.231489267      -0.000939814  0.007060 2.095E-01  1   0.0000
   1 CONVERGED CI STATE(S) HAVE BECOME UNCONVERGED, NOW WORKING ON   3 STATES.
                    ALL CI STATES CONVERGED IN 120 ITERATIONS
       SOSCF IS SCALING ROTATION ANGLE MATRIX, DXMAX=    0.230499
  37    -379.231963041      -0.000473774  0.004563 4.928E-01  1   0.0000
       SOSCF IS SCALING ROTATION ANGLE MATRIX, DXMAX=    0.230285
  38    -379.229143068       0.002819973  0.005726 5.516E-01  1   0.0000
       SOSCF IS SCALING ROTATION ANGLE MATRIX, DXMAX=    0.255888
  39    -379.230557423      -0.001414354  0.005767 5.877E-01  1   0.0000
       SOSCF IS SCALING ROTATION ANGLE MATRIX, DXMAX=    0.229781
  40    -379.230448671       0.000108752  0.006597 6.463E-01  1   0.0000
       SOSCF IS SCALING ROTATION ANGLE MATRIX, DXMAX=    0.298817
  41    -379.227797589       0.002651081  0.007600 4.955E-01  1   0.0000
       SOSCF IS SCALING ROTATION ANGLE MATRIX, DXMAX=    0.327857
  42    -379.232647366      -0.004849776  0.006933 5.067E-01  1   0.0000
       SOSCF IS SCALING ROTATION ANGLE MATRIX, DXMAX=    0.376020
  43    -379.232165173       0.000482193  0.006438 2.478E-01  1   0.0000
       SOSCF IS SCALING ROTATION ANGLE MATRIX, DXMAX=    0.328295
  44    -379.238030818      -0.005865646  0.005021 4.775E-01  1   0.0000
       SOSCF IS SCALING ROTATION ANGLE MATRIX, DXMAX=    0.277168
  45    -379.232295167       0.005735651  0.006170 2.882E-01  1   0.0000
       SOSCF IS SCALING ROTATION ANGLE MATRIX, DXMAX=    0.401576
  46    -379.237096173      -0.004801006  0.004641 3.487E-01  1   0.0000
       SOSCF IS SCALING ROTATION ANGLE MATRIX, DXMAX=    0.409891
  47    -379.237122417      -0.000026244  0.006382 1.904E-01  1   0.0000
       SOSCF IS SCALING ROTATION ANGLE MATRIX, DXMAX=    0.274510
  48    -379.238678933      -0.001556515  0.004940 4.031E-01  1   0.0000
       SOSCF IS SCALING ROTATION ANGLE MATRIX, DXMAX=    0.238200
  49    -379.234386997       0.004291936  0.007325 4.485E-01  1   0.0000
       SOSCF IS SCALING ROTATION ANGLE MATRIX, DXMAX=    0.267289
  50    -379.233934553       0.000452444  0.006067 4.041E-01  1   0.0000
       SOSCF IS SCALING ROTATION ANGLE MATRIX, DXMAX=    0.358058
  51    -379.237124444      -0.003189892  0.005323 2.762E-01  1   0.0000
       SOSCF IS SCALING ROTATION ANGLE MATRIX, DXMAX=    0.426117
  52    -379.237286240      -0.000161796  0.006540 1.967E-01  1   0.0000
       SOSCF IS SCALING ROTATION ANGLE MATRIX, DXMAX=    0.270553
  53    -379.238792650      -0.001506410  0.005259 3.814E-01  1   0.0000
       SOSCF IS SCALING ROTATION ANGLE MATRIX, DXMAX=    0.275918
  54    -379.234709107       0.004083543  0.005456 3.523E-01  1   0.0000
       SOSCF IS SCALING ROTATION ANGLE MATRIX, DXMAX=    0.232241
  55    -379.235664736      -0.000955629  0.004742 5.870E-01  1   0.0000
  56    -379.231553185       0.004111550  0.004963 5.827E-01  1   0.0000
       SOSCF IS SCALING ROTATION ANGLE MATRIX, DXMAX=    0.220936
  57    -379.232041508      -0.000488323  0.005256 7.109E-01  1   0.0000
       SOSCF IS SCALING ROTATION ANGLE MATRIX, DXMAX=    0.327166
  58    -379.229841789       0.002199719  0.007133 3.964E-01  1   0.0000
       SOSCF IS SCALING ROTATION ANGLE MATRIX, DXMAX=    0.282542
  59    -379.236482640      -0.006640851  0.004704 5.636E-01  1   0.0000
       SOSCF IS SCALING ROTATION ANGLE MATRIX, DXMAX=    0.216871
  60    -379.232061925       0.004420715  0.007348 5.235E-01  1   0.0000
       SOSCF IS SCALING ROTATION ANGLE MATRIX, DXMAX=    0.328876
  61    -379.233269115      -0.001207190  0.005825 3.851E-01  1   0.0000
       SOSCF IS SCALING ROTATION ANGLE MATRIX, DXMAX=    0.360590
  62    -379.236424807      -0.003155692  0.006358 3.697E-01  1   0.0000
       SOSCF IS SCALING ROTATION ANGLE MATRIX, DXMAX=    0.351287
  63    -379.235354675       0.001070132  0.006336 2.556E-01  1   0.0000
       SOSCF IS SCALING ROTATION ANGLE MATRIX, DXMAX=    0.438937
  64    -379.238169429      -0.002814754  0.004631 1.993E-01  1   0.0000
       SOSCF IS SCALING ROTATION ANGLE MATRIX, DXMAX=    0.462722
  65    -379.239576775      -0.001407346  0.006817 1.189E-01  1   0.0000
       SOSCF IS SCALING ROTATION ANGLE MATRIX, DXMAX=    0.214516
  66    -379.240901089      -0.001324314  0.004270 3.804E-01  1   0.0000
       SOSCF IS SCALING ROTATION ANGLE MATRIX, DXMAX=    0.246656
  67    -379.233858473       0.007042616  0.006632 2.853E-01  1   0.0000
       SOSCF IS SCALING ROTATION ANGLE MATRIX, DXMAX=    0.321708
  68    -379.238489242      -0.004630769  0.004127 3.886E-01  1   0.0000
       SOSCF IS SCALING ROTATION ANGLE MATRIX, DXMAX=    0.356021
  69    -379.236064268       0.002424974  0.006188 1.930E-01  1   0.0000
       SOSCF IS SCALING ROTATION ANGLE MATRIX, DXMAX=    0.313451
  70    -379.239326656      -0.003262388  0.003830 3.495E-01  1   0.0000
  71    -379.237608278       0.001718378  0.005038 4.220E-01  1   0.0000
       SOSCF IS SCALING ROTATION ANGLE MATRIX, DXMAX=    0.265621
  72    -379.234114269       0.003494010  0.007413 3.841E-01  1   0.0000
       SOSCF IS SCALING ROTATION ANGLE MATRIX, DXMAX=    0.255635
  73    -379.236168997      -0.002054729  0.005176 6.541E-01  1   0.0000
       SOSCF IS SCALING ROTATION ANGLE MATRIX, DXMAX=    0.208271
  74    -379.228318186       0.007850811  0.009604 5.430E-01  1   0.0000
       SOSCF IS SCALING ROTATION ANGLE MATRIX, DXMAX=    0.284310
  75    -379.234026972      -0.005708786  0.005444 5.589E-01  1   0.0000
       SOSCF IS SCALING ROTATION ANGLE MATRIX, DXMAX=    0.303970
  76    -379.233733919       0.000293053  0.006139 4.511E-01  1   0.0000
       SOSCF IS SCALING ROTATION ANGLE MATRIX, DXMAX=    0.276618
  77    -379.234102220      -0.000368301  0.004649 4.743E-01  1   0.0000
       SOSCF IS SCALING ROTATION ANGLE MATRIX, DXMAX=    0.287476
  78    -379.236245688      -0.002143468  0.005588 4.279E-01  1   0.0000
       SOSCF IS SCALING ROTATION ANGLE MATRIX, DXMAX=    0.296891
  79    -379.235165449       0.001080239  0.006430 3.500E-01  1   0.0000
       SOSCF IS SCALING ROTATION ANGLE MATRIX, DXMAX=    0.393200
  80    -379.237782683      -0.002617234  0.004318 2.650E-01  1   0.0000
       SOSCF IS SCALING ROTATION ANGLE MATRIX, DXMAX=    0.302020
  81    -379.238576471      -0.000793788  0.004507 3.605E-01  1   0.0000
       SOSCF IS SCALING ROTATION ANGLE MATRIX, DXMAX=    0.332606
  82    -379.235776839       0.002799632  0.004710 2.625E-01  1   0.0000
       SOSCF IS SCALING ROTATION ANGLE MATRIX, DXMAX=    0.403541
  83    -379.238835856      -0.003059017  0.005161 2.728E-01  1   0.0000
       SOSCF IS SCALING ROTATION ANGLE MATRIX, DXMAX=    0.312051
  84    -379.239689949      -0.000854093  0.004625 2.664E-01  1   0.0000
       SOSCF IS SCALING ROTATION ANGLE MATRIX, DXMAX=    0.345871
  85    -379.238267160       0.001422789  0.004567 2.631E-01  1   0.0000
       SOSCF IS SCALING ROTATION ANGLE MATRIX, DXMAX=    0.288027
  86    -379.238752394      -0.000485234  0.005235 4.309E-01  1   0.0000
       SOSCF IS SCALING ROTATION ANGLE MATRIX, DXMAX=    0.221938
  87    -379.235077611       0.003674783  0.007843 4.910E-01  1   0.0000
       SOSCF IS SCALING ROTATION ANGLE MATRIX, DXMAX=    0.301340
  88    -379.233776041       0.001301570  0.007547 3.571E-01  1   0.0000
       SOSCF IS SCALING ROTATION ANGLE MATRIX, DXMAX=    0.309655
  89    -379.237465021      -0.003688980  0.004527 3.596E-01  1   0.0000
       SOSCF IS SCALING ROTATION ANGLE MATRIX, DXMAX=    0.215980
  90    -379.236669633       0.000795388  0.004798 5.612E-01  1   0.0000
       SOSCF IS SCALING ROTATION ANGLE MATRIX, DXMAX=    0.409989
  91    -379.231321828       0.005347805  0.006007 2.108E-01  1   0.0000
       SOSCF IS SCALING ROTATION ANGLE MATRIX, DXMAX=    0.450168
  92    -379.237766145      -0.006444317  0.005504 3.142E-01  1   0.0000
       SOSCF IS SCALING ROTATION ANGLE MATRIX, DXMAX=    0.302137
  93    -379.238566448      -0.000800303  0.004960 3.419E-01  1   0.0000
       SOSCF IS SCALING ROTATION ANGLE MATRIX, DXMAX=    0.283540
  94    -379.236530819       0.002035629  0.005705 3.170E-01  1   0.0000
       SOSCF IS SCALING ROTATION ANGLE MATRIX, DXMAX=    0.391103
  95    -379.237460490      -0.000929672  0.005517 2.390E-01  1   0.0000
       SOSCF IS SCALING ROTATION ANGLE MATRIX, DXMAX=    0.250355
  96    -379.239612741      -0.002152250  0.004280 4.788E-01  1   0.0000
       SOSCF IS SCALING ROTATION ANGLE MATRIX, DXMAX=    0.313993
  97    -379.233381630       0.006231110  0.006078 2.545E-01  1   0.0000
       SOSCF IS SCALING ROTATION ANGLE MATRIX, DXMAX=    0.563862
  98    -379.238386979      -0.005005349  0.005219 1.601E-01  1   0.0000
       SOSCF IS SCALING ROTATION ANGLE MATRIX, DXMAX=    0.255265
  99    -379.241516886      -0.003129906  0.003314 3.194E-01  1   0.0000
 100    -379.236413320       0.005103566  0.004106 3.499E-01  1   0.0000
       SOSCF IS SCALING ROTATION ANGLE MATRIX, DXMAX=    0.213403
 101    -379.238213204      -0.001799884  0.005115 5.157E-01  1   0.0000
 102    -379.232435131       0.005778073  0.005780 4.572E-01  1   0.0000
       SOSCF IS SCALING ROTATION ANGLE MATRIX, DXMAX=    0.414253
 103    -379.235786801      -0.003351670  0.005454 2.635E-01  1   0.0000
       SOSCF IS SCALING ROTATION ANGLE MATRIX, DXMAX=    0.260837
 104    -379.239504295      -0.003717494  0.003941 4.289E-01  1   0.0000
 105    -379.233253219       0.006251076  0.005740 4.618E-01  1   0.0000
       SOSCF IS SCALING ROTATION ANGLE MATRIX, DXMAX=    0.248935
 106    -379.234611052      -0.001357833  0.005029 5.544E-01  1   0.0000
       SOSCF IS SCALING ROTATION ANGLE MATRIX, DXMAX=    0.216985
 107    -379.231385390       0.003225662  0.004254 5.695E-01  1   0.0000
       SOSCF IS SCALING ROTATION ANGLE MATRIX, DXMAX=    0.267190
 108    -379.232512353      -0.001126963  0.005963 5.521E-01  1   0.0000
       SOSCF IS SCALING ROTATION ANGLE MATRIX, DXMAX=    0.306972
 109    -379.233173150      -0.000660797  0.004647 4.359E-01  1   0.0000
       SOSCF IS SCALING ROTATION ANGLE MATRIX, DXMAX=    0.259647
 110    -379.235042347      -0.001869196  0.004798 5.113E-01  1   0.0000
       SOSCF IS SCALING ROTATION ANGLE MATRIX, DXMAX=    0.265340
 111    -379.233482428       0.001559919  0.005297 3.864E-01  1   0.0000
       SOSCF IS SCALING ROTATION ANGLE MATRIX, DXMAX=    0.245217
 112    -379.235957503      -0.002475075  0.005132 5.829E-01  1   0.0000
       SOSCF IS SCALING ROTATION ANGLE MATRIX, DXMAX=    0.212990
 113    -379.231203644       0.004753858  0.006479 6.019E-01  1   0.0000
       SOSCF IS SCALING ROTATION ANGLE MATRIX, DXMAX=    0.271716
 114    -379.232256913      -0.001053269  0.004940 4.900E-01  1   0.0000
       SOSCF IS SCALING ROTATION ANGLE MATRIX, DXMAX=    0.236950
 115    -379.235589199      -0.003332285  0.003906 5.985E-01  1   0.0000
       SOSCF IS SCALING ROTATION ANGLE MATRIX, DXMAX=    0.215410
 116    -379.231372526       0.004216673  0.005539 6.987E-01  1   0.0000
       SOSCF IS SCALING ROTATION ANGLE MATRIX, DXMAX=    0.276370
 117    -379.230014843       0.001357683  0.006193 4.737E-01  1   0.0000
       SOSCF IS SCALING ROTATION ANGLE MATRIX, DXMAX=    0.296918
 118    -379.235355664      -0.005340820  0.005241 4.439E-01  1   0.0000
