              Grand Master is running on host yaroslavhonor
              rank #     1 is running on host yaroslavhonor
              rank #     2 is running on host yaroslavhonor
              rank #     3 is running on host yaroslavhonor
              rank #     4 is running on host yaroslavhonor
              rank #     5 is running on host yaroslavhonor
              rank #     6 is running on host yaroslavhonor
              rank #     7 is running on host yaroslavhonor
              rank #     8 is running on host yaroslavhonor
              rank #     9 is running on host yaroslavhonor

          ******************************************************
          *      Firefly version 8.2.0, build number 10203     *
          *   Compiled on    Monday,    19-09-2016, 15:30:23   *
          *Code development and Intel/AMD specific optimization*
          *  Copyright (c) 1994, 2016 by  Alex A. Granovsky,   *
          *          Firefly Project, Moscow, Russia.          *
          *   Some parts of this program include code due to   *
          * work of Jim Kress, Peter Burger, and Robert Ponec. *
          ******************************************************
          *             Firefly Project homepage:              *
          * http://classic.chem.msu.su/gran/firefly/index.html *
          *                      e-mail:                       *
          *               gran@classic.chem.msu.su             *
          *This program is not a free software and is provided *
          *exclusively to its registered users under the terms *
          *       of Firefly package license agreement         *
          * Unauthorized use of Firefly is strongly prohibited *
          *   This program may not be redistributed without    *
          * the specific, written permission of its developers.*
          ******************************************************

          ******************************************************
          *  PARTIALLY BASED ON  US GAMESS VERSION 6 JUN 1999, *
          *   US GAMESS VERSIONS  6 SEP 2001 AND 12 DEC 2003   *
          *             FROM IOWA STATE UNIVERSITY             *
          * M.W.SCHMIDT, K.K.BALDRIDGE, J.A.BOATZ, S.T.ELBERT, *
          *   M.S.GORDON, J.H.JENSEN, S.KOSEKI, N.MATSUNAGA,   *
          *          K.A.NGUYEN, S.J.SU, T.L.WINDUS,           *
          *       TOGETHER WITH M.DUPUIS, J.A.MONTGOMERY       *
          *         J.COMPUT.CHEM.  14, 1347-1363(1993)        *
          ******************************************************


 Core i7    / Linux  Firefly version running under Linux.
 Running on Intel CPU:  Brand ID  0, Family  6, Model 170, Stepping  4
 CPU Brand String    :  Intel(R) Core(TM) Ultra 5 125H                  
 CPU Features        :  x87 FPU, CMOV, MMX, SSE, SSE2, SSE3, SSSE3, SSE4.1, SSE4.2, AVX, AVX2, FMA3, HTT, MWAIT, EM64T
 Data cache size     :  L1 48 KB, L2 2048 KB, L3 18432 KB
 max    # of   cores/package :  64
 max    # of threads/package : 128
 max     cache sharing level :  64
 actual # of   cores/package :   9
 actual # of threads/package :  18
 actual # of threads/core    :   2
 Operating System successfully passed SSE support test.
 Operating System supports AVX/FMA.


 PARALLEL VERSION (MPICH) RUNNING USING   10 PROCESSES (RANKS)


 WARNING! THIS VERSION OF FIREFLY IS PROBABLY OUTDATED!
 PLEASE CHECK FIREFLY HOMEPAGE FOR INFORMATION ON UPDATES!

 EXECUTION OF FIREFLY BEGUN  0:10:57  9-JUL-2026    

            ECHO OF THE FIRST FEW INPUT CARDS -
 INPUT CARD> $CONTRL SCFTYP=RHF RUNTYP=ENERGY ICHARG=0 MULT=1 DFTTYP=B3LYP EXETYP=RUN       
 INPUT CARD>      INTTYP=HONDO ICUT=13 ITOL=30 D5=.T. MAXIT=100 GENCON=.F. WIDE=1 FSTINT=.T.
 INPUT CARD> $END                                                                           
 INPUT CARD> $SYSTEM TIMLIM=60000 MWORDS=200 MASMEM=200000000 MXBCST=-1 KDIAG=0 NOJAC=1 $END
 INPUT CARD> $MOORTH NOSTF=.T. NOZERO=.T. SYMS=.T. SYMDEN=.T. SYMVEC=.T. SYMVX=.T.          
 INPUT CARD>      TOLE=0.0D0 TOLZ=0.0D0 $END                                                
 INPUT CARD> $GUESS GUESS=HUCKEL $END                                                       
 INPUT CARD> $SCF DIRSCF=.T. FDIFF=.F. DIIS=.T. DAMP=.T. SHIFT=.T. SOSCF=.F. $END           
 INPUT CARD> $DATA                                                                          
 INPUT CARD> C3H7F                                                                          
 INPUT CARD> C1                                                                             
 INPUT CARD>C      6.0            1.4879338689          3.6455663457         -0.3921454835  
 INPUT CARD>S   8                                                                           
 INPUT CARD>  1    6665.0000000       0.0006920                                             
 INPUT CARD>  2    1000.0000000       0.0053290                                             
 INPUT CARD>  3     228.0000000       0.0270770                                             
 INPUT CARD>  4      64.7100000       0.1017180                                             
 INPUT CARD>  5      21.0600000       0.2747400                                             
 INPUT CARD>  6       7.4950000       0.4485640                                             
 INPUT CARD>  7       2.7970000       0.2850740                                             
 INPUT CARD>  8       0.5215000       0.0152040                                             
 INPUT CARD>S   8                                                                           
 INPUT CARD>  1    6665.0000000      -0.0001460                                             
 INPUT CARD>  2    1000.0000000      -0.0011540                                             
 INPUT CARD>  3     228.0000000      -0.0057250                                             
 INPUT CARD>  4      64.7100000      -0.0233120                                             
 INPUT CARD>  5      21.0600000      -0.0639550                                             
 INPUT CARD>  6       7.4950000      -0.1499810                                             
 INPUT CARD>  7       2.7970000      -0.1272620                                             
 INPUT CARD>  8       0.5215000       0.5445290                                             
 INPUT CARD>S   1                                                                           
 INPUT CARD>  1       0.1596000       1.0000000                                             
 INPUT CARD>S   1                                                                           
 INPUT CARD>  1       0.0469000       1.0000000                                             
 INPUT CARD>P   3                                                                           
 INPUT CARD>  1       9.4390000       0.0381090                                             
 INPUT CARD>  2       2.0020000       0.2094800                                             
 INPUT CARD>  3       0.5456000       0.5085570                                             
 INPUT CARD>P   1                                                                           
 INPUT CARD>  1       0.1517000       1.0000000                                             
 INPUT CARD>P   1                                                                           
 INPUT CARD>  1       0.0404100       1.0000000                                             
 INPUT CARD>D   1                                                                           
 INPUT CARD>  1       0.5500000       1.0000000                                             
 INPUT CARD>D   1                                                                           
 INPUT CARD>  1       0.1510000       1.0000000                                             
 INPUT CARD>                                                                                
 INPUT CARD>C      6.0            1.3617906561          4.4680295392         -1.6404485654  
 INPUT CARD>S   8                                                                           
 INPUT CARD>  1    6665.0000000       0.0006920                                             
  200000000 WORDS OF MEMORY AVAILABLE

 This job is executing on     1 unique host(s)
 Minimum number of processes per host is:   10
 Maximum number of processes per host is:   10

 On master's host, detected   18 CPU core(s) in aggregate

 Using processor-specific dynamic link DGEMM library code.


 Warning: HTT is enabled, bitmask of physically unique cores is 0x000000B4

 SMT aware parts of program will use              2 threads.

 Creating thread pool to serve up to            128 threads.


 Loading P2P interface library... loaded successfully (version 2.4).
 Initializing global P2P interface... topology done.



     RUN TITLE
     ---------
  C3H7F                                                                          

 THE POINT GROUP OF THE MOLECULE IS C1      
 THE ORDER OF THE PRINCIPAL AXIS IS     0
 *** WARNING! ATOM   1 SHELL    1 TYPE S HAS NORMALIZATION   0.99939879
 *** WARNING! ATOM   1 SHELL    2 TYPE S HAS NORMALIZATION   2.00869625
 *** WARNING! ATOM   1 SHELL    5 TYPE P HAS NORMALIZATION   1.49516523
 *** WARNING! ATOM   2 SHELL   10 TYPE S HAS NORMALIZATION   0.99939879
 *** WARNING! ATOM   2 SHELL   11 TYPE S HAS NORMALIZATION   2.00869625
 *** WARNING! ATOM   2 SHELL   14 TYPE P HAS NORMALIZATION   1.49516523
 *** WARNING! ATOM   3 SHELL   19 TYPE S HAS NORMALIZATION   0.99939879
 *** WARNING! ATOM   3 SHELL   20 TYPE S HAS NORMALIZATION   2.00869625
 *** WARNING! ATOM   3 SHELL   23 TYPE P HAS NORMALIZATION   1.49516523
 *** WARNING! ATOM   4 SHELL   28 TYPE S HAS NORMALIZATION   1.70173870
 *** WARNING! ATOM   5 SHELL   33 TYPE S HAS NORMALIZATION   1.70173870
 *** WARNING! ATOM   6 SHELL   38 TYPE S HAS NORMALIZATION   1.70173870
 *** WARNING! ATOM   7 SHELL   43 TYPE S HAS NORMALIZATION   1.70173870
 *** WARNING! ATOM   8 SHELL   48 TYPE S HAS NORMALIZATION   1.70173870
 *** WARNING! ATOM   9 SHELL   53 TYPE S HAS NORMALIZATION   1.70173870
 *** WARNING! ATOM  10 SHELL   58 TYPE S HAS NORMALIZATION   1.70173870
 *** WARNING! ATOM  11 SHELL   63 TYPE S HAS NORMALIZATION   0.99954745
 *** WARNING! ATOM  11 SHELL   64 TYPE S HAS NORMALIZATION   1.94662964
 *** WARNING! ATOM  11 SHELL   67 TYPE P HAS NORMALIZATION   1.44467270

 ATOM      ATOMIC                      COORDINATES (BOHR)
           CHARGE         X                   Y                   Z
 C           6.0     2.8117875050        6.8891219656       -0.7410475652
 C           6.0     2.5734113802        8.4433521495       -3.0999985115
 C           6.0     1.0573760650        7.8067918436       -5.0987201682
 H           1.0     1.8952146817        7.8126835819        0.7927184715
 H           1.0     4.7479065737        6.6570679322       -0.2118271897
 H           1.0     2.0033614536        5.0361093297       -0.9339895803
 H           1.0     3.3593344582       10.3132170429       -3.0256872197
 H           1.0    -0.1272543189        6.4716872735       -4.9804051064
 H           1.0     0.9606604898        9.0308820220       -6.7453891098
 H           1.0     4.0080417570        6.2815129391       -5.8956766168
 F           9.0     6.0626889460        6.0327470491       -6.1682953978

          INTERNUCLEAR DISTANCES (ANGS.)
          ------------------------------

                    C              C              C              H         

  1  C               0.0000000      1.5002061 *    2.5328407 *    1.0643581 *  
  2  C               1.5002061 *    0.0000000      1.3695839 *    2.1174323 *  
  3  C               2.5328407 *    1.3695839 *    0.0000000      3.1489849    
  4  H               1.0643581 *    2.1174323 *    3.1489849      0.0000000    
  5  H               1.0692104 *    2.1338886 *    3.2972286      1.7132933 *  
  6  H               1.0746904 *    2.1577103 *    2.6939513 *    1.7311926 *  
  7  H               2.1974438 *    1.0740592 *    2.1086663 *    2.5365499 *  
  8  H               2.7386836 *    2.0300680 *    0.9465991 *    3.3139174    
  9  H               3.5127931      2.1321987 *    1.0869755 *    4.0708989    
 10  H               2.8186034 *    2.0183466 *    1.8075909 *    3.7991515    
 11  F               3.3783212      2.7700049 *    2.8665771 *    4.3954126    

                    H              H              H              H         

  1  C               1.0692104 *    1.0746904 *    2.1974438 *    2.7386836 *  
  2  C               2.1338886 *    2.1577103 *    1.0740592 *    2.0300680 *  
  3  C               3.2972286      2.6939513 *    2.1086663 *    0.9465991 *  
  4  H               1.7132933 *    1.7311926 *    2.5365499 *    3.3139174    
  5  H               0.0000000      1.7294911 *    2.5495892 *    3.6100939    
  6  H               1.7294911 *    0.0000000      3.0884066      2.5364036 *  
  7  H               2.5495892 *    3.0884066      0.0000000      2.9336935 *  
  8  H               3.6100939      2.5364036 *    2.9336935 *    0.0000000    
  9  H               4.1890538      3.7723246      2.4384795 *    1.7429305 *  
 10  H               3.0396423      2.9074959 *    2.6412410 *    2.2435218 *  
 11  F               3.2447644      3.5446731      3.1532273      3.3434264    

                    H              H              F         

  1  C               3.5127931      2.8186034 *    3.3783212    
  2  C               2.1321987 *    2.0183466 *    2.7700049 *  
  3  C               1.0869755 *    1.8075909 *    2.8665771 *  
  4  H               4.0708989      3.7991515      4.3954126    
  5  H               4.1890538      3.0396423      3.2447644    
  6  H               3.7723246      2.9074959 *    3.5446731    
  7  H               2.4384795 *    2.6412410 *    3.1532273    
  8  H               1.7429305 *    2.2435218 *    3.3434264    
  9  H               0.0000000      2.2179770 *    3.1463822    
 10  H               2.2179770 *    0.0000000      1.1046732 *  
 11  F               3.1463822      1.1046732 *    0.0000000    

  * ... LESS THAN  3.000


     ATOMIC BASIS SET
     ----------------
 THE CONTRACTED PRIMITIVE FUNCTIONS HAVE BEEN UNNORMALIZED
 THE CONTRACTED BASIS FUNCTIONS ARE NOW NORMALIZED TO UNITY

 SHELL TYPE PRIM    EXPONENT          CONTRACTION COEFFICIENTS

 C         

   1   S    1    6665.000000    0.363584 (  0.000692) 
   1   S    2    1000.000000    0.674986 (  0.005329) 
   1   S    3     228.000000    1.131620 (  0.027077) 
   1   S    4      64.710000    1.653009 (  0.101718) 
   1   S    5      21.060000    1.923821 (  0.274740) 
   1   S    6       7.495000    1.447278 (  0.448564) 
   1   S    7       2.797000    0.439163 (  0.285074) 
   1   S    8       0.521500    0.006646 (  0.015204) 

   2   S    9    6665.000000   -0.154180 ( -0.000146) 
   2   S   10    1000.000000   -0.293785 ( -0.001154) 
   2   S   11     228.000000   -0.480896 ( -0.005725) 
   2   S   12      64.710000   -0.761434 ( -0.023312) 
   2   S   13      21.060000   -0.900104 ( -0.063955) 
   2   S   14       7.495000   -0.972611 ( -0.149981) 
   2   S   15       2.797000   -0.394042 ( -0.127262) 
   2   S   16       0.521500    0.478394 (  0.544529) 

   3   S   17       0.159600    0.179964 (  1.000000) 

   4   S   18       0.046900    0.071827 (  1.000000) 

   5   P   19       9.439000    1.343737 (  0.038109) 
   5   P   20       2.002000    1.063168 (  0.209480) 
   5   P   21       0.545600    0.508232 (  0.508557) 

   6   P   22       0.151700    0.134950 (  1.000000) 

   7   P   23       0.040410    0.025826 (  1.000000) 

   8   D   24       0.550000    0.578155 (  1.000000) 

   9   D   25       0.151000    0.060203 (  1.000000) 

 C         

  10   S   26    6665.000000    0.363584 (  0.000692) 
  10   S   27    1000.000000    0.674986 (  0.005329) 
  10   S   28     228.000000    1.131620 (  0.027077) 
  10   S   29      64.710000    1.653009 (  0.101718) 
  10   S   30      21.060000    1.923821 (  0.274740) 
  10   S   31       7.495000    1.447278 (  0.448564) 
  10   S   32       2.797000    0.439163 (  0.285074) 
  10   S   33       0.521500    0.006646 (  0.015204) 

  11   S   34    6665.000000   -0.154180 ( -0.000146) 
  11   S   35    1000.000000   -0.293785 ( -0.001154) 
  11   S   36     228.000000   -0.480896 ( -0.005725) 
  11   S   37      64.710000   -0.761434 ( -0.023312) 
  11   S   38      21.060000   -0.900104 ( -0.063955) 
  11   S   39       7.495000   -0.972611 ( -0.149981) 
  11   S   40       2.797000   -0.394042 ( -0.127262) 
  11   S   41       0.521500    0.478394 (  0.544529) 

  12   S   42       0.159600    0.179964 (  1.000000) 

  13   S   43       0.046900    0.071827 (  1.000000) 

  14   P   44       9.439000    1.343737 (  0.038109) 
  14   P   45       2.002000    1.063168 (  0.209480) 
  14   P   46       0.545600    0.508232 (  0.508557) 

  15   P   47       0.151700    0.134950 (  1.000000) 

  16   P   48       0.040410    0.025826 (  1.000000) 

  17   D   49       0.550000    0.578155 (  1.000000) 

  18   D   50       0.151000    0.060203 (  1.000000) 

 C         

  19   S   51    6665.000000    0.363584 (  0.000692) 
  19   S   52    1000.000000    0.674986 (  0.005329) 
  19   S   53     228.000000    1.131620 (  0.027077) 
  19   S   54      64.710000    1.653009 (  0.101718) 
  19   S   55      21.060000    1.923821 (  0.274740) 
  19   S   56       7.495000    1.447278 (  0.448564) 
  19   S   57       2.797000    0.439163 (  0.285074) 
  19   S   58       0.521500    0.006646 (  0.015204) 

  20   S   59    6665.000000   -0.154180 ( -0.000146) 
  20   S   60    1000.000000   -0.293785 ( -0.001154) 
  20   S   61     228.000000   -0.480896 ( -0.005725) 
  20   S   62      64.710000   -0.761434 ( -0.023312) 
  20   S   63      21.060000   -0.900104 ( -0.063955) 
  20   S   64       7.495000   -0.972611 ( -0.149981) 
  20   S   65       2.797000   -0.394042 ( -0.127262) 
  20   S   66       0.521500    0.478394 (  0.544529) 

  21   S   67       0.159600    0.179964 (  1.000000) 

  22   S   68       0.046900    0.071827 (  1.000000) 

  23   P   69       9.439000    1.343737 (  0.038109) 
  23   P   70       2.002000    1.063168 (  0.209480) 
  23   P   71       0.545600    0.508232 (  0.508557) 

  24   P   72       0.151700    0.134950 (  1.000000) 

  25   P   73       0.040410    0.025826 (  1.000000) 

  26   D   74       0.550000    0.578155 (  1.000000) 

  27   D   75       0.151000    0.060203 (  1.000000) 

 H         

  28   S   76      13.010000    0.163548 (  0.019685) 
  28   S   77       1.962000    0.277418 (  0.137977) 
  28   S   78       0.444600    0.315749 (  0.478148) 

  29   S   79       0.122000    0.147123 (  1.000000) 

  30   S   80       0.029740    0.051041 (  1.000000) 

  31   P   81       0.727000    0.956881 (  1.000000) 

  32   P   82       0.141000    0.123158 (  1.000000) 

 H         

  33   S   83      13.010000    0.163548 (  0.019685) 
  33   S   84       1.962000    0.277418 (  0.137977) 
  33   S   85       0.444600    0.315749 (  0.478148) 

  34   S   86       0.122000    0.147123 (  1.000000) 

  35   S   87       0.029740    0.051041 (  1.000000) 

  36   P   88       0.727000    0.956881 (  1.000000) 

  37   P   89       0.141000    0.123158 (  1.000000) 

 H         

  38   S   90      13.010000    0.163548 (  0.019685) 
  38   S   91       1.962000    0.277418 (  0.137977) 
  38   S   92       0.444600    0.315749 (  0.478148) 

  39   S   93       0.122000    0.147123 (  1.000000) 

  40   S   94       0.029740    0.051041 (  1.000000) 

  41   P   95       0.727000    0.956881 (  1.000000) 

  42   P   96       0.141000    0.123158 (  1.000000) 

 H         

  43   S   97      13.010000    0.163548 (  0.019685) 
  43   S   98       1.962000    0.277418 (  0.137977) 
  43   S   99       0.444600    0.315749 (  0.478148) 

  44   S  100       0.122000    0.147123 (  1.000000) 

  45   S  101       0.029740    0.051041 (  1.000000) 

  46   P  102       0.727000    0.956881 (  1.000000) 

  47   P  103       0.141000    0.123158 (  1.000000) 

 H         

  48   S  104      13.010000    0.163548 (  0.019685) 
  48   S  105       1.962000    0.277418 (  0.137977) 
  48   S  106       0.444600    0.315749 (  0.478148) 

  49   S  107       0.122000    0.147123 (  1.000000) 

  50   S  108       0.029740    0.051041 (  1.000000) 

  51   P  109       0.727000    0.956881 (  1.000000) 

  52   P  110       0.141000    0.123158 (  1.000000) 

 H         

  53   S  111      13.010000    0.163548 (  0.019685) 
  53   S  112       1.962000    0.277418 (  0.137977) 
  53   S  113       0.444600    0.315749 (  0.478148) 

  54   S  114       0.122000    0.147123 (  1.000000) 

  55   S  115       0.029740    0.051041 (  1.000000) 

  56   P  116       0.727000    0.956881 (  1.000000) 

  57   P  117       0.141000    0.123158 (  1.000000) 

 H         

  58   S  118      13.010000    0.163548 (  0.019685) 
  58   S  119       1.962000    0.277418 (  0.137977) 
  58   S  120       0.444600    0.315749 (  0.478148) 

  59   S  121       0.122000    0.147123 (  1.000000) 

  60   S  122       0.029740    0.051041 (  1.000000) 

  61   P  123       0.727000    0.956881 (  1.000000) 

  62   P  124       0.141000    0.123158 (  1.000000) 

 F         

  63   S  125   14710.000000    0.686054 (  0.000721) 
  63   S  126    2207.000000    1.273776 (  0.005553) 
  63   S  127     502.800000    2.138157 (  0.028267) 
  63   S  128     142.600000    3.129135 (  0.106444) 
  63   S  129      46.470000    3.636582 (  0.286814) 
  63   S  130      16.700000    2.640279 (  0.448641) 
  63   S  131       6.356000    0.755015 (  0.264761) 
  63   S  132       1.316000    0.013421 (  0.015333) 

  64   S  133   14710.000000   -0.305764 ( -0.000165) 
  64   S  134    2207.000000   -0.584323 ( -0.001308) 
  64   S  135     502.800000   -0.956795 ( -0.006495) 
  64   S  136     142.600000   -1.528086 ( -0.026691) 
  64   S  137      46.470000   -1.819623 ( -0.073690) 
  64   S  138      16.700000   -1.957301 ( -0.170776) 
  64   S  139       6.356000   -0.623829 ( -0.112327) 
  64   S  140       1.316000    0.959401 (  0.562814) 

  65   S  141       0.389700    0.351526 (  1.000000) 

  66   S  142       0.098630    0.125434 (  1.000000) 

  67   P  143      22.670000    4.571487 (  0.044878) 
  67   P  144       4.977000    3.608377 (  0.235718) 
  67   P  145       1.347000    1.519595 (  0.508521) 

  68   P  146       0.347100    0.379759 (  1.000000) 

  69   P  147       0.085020    0.065440 (  1.000000) 

  70   D  148       1.640000    3.911886 (  1.000000) 

  71   D  149       0.464000    0.429354 (  1.000000) 

 TOTAL NUMBER OF SHELLS              =   71
 TOTAL NUMBER OF BASIS FUNCTIONS     =  163
 NUMBER OF ELECTRONS                 =   34
 CHARGE OF MOLECULE                  =    0
 STATE MULTIPLICITY                  =    1
 NUMBER OF OCCUPIED ORBITALS (ALPHA) =   17
 NUMBER OF OCCUPIED ORBITALS (BETA ) =   17
 TOTAL NUMBER OF ATOMS               =   11
 THE NUCLEAR REPULSION ENERGY IS      118.0881279536
 TOTAL NUMBER OF CONTAMINANTS DROPPED=    8


     $CONTRL OPTIONS
     ---------------
     SCFTYP=RHF          RUNTYP=ENERGY       EXETYP=RUN     
     MPLEVL=       0     LOCAL =NONE         UNITS =ANGS    
     MULT  =       1     ICHARG=       0     MAXIT =     100
     NPRINT=       7     IREST =       0     COORD =UNIQUE  
     ECP   =NONE         NORMF =       0     NORMP =       0
     ITOL  =      30     ICUT  =      13     NZVAR =       0
     NOSYM =       0     INTTYP=HONDO        GEOM  =INPUT   
     PLTORB=       F     MOLPLT=       F     RPAC  =       F
     AIMPAC=       0     FRIEND=             CITYP =NONE    
     DFTTYP=B3LYP   

     $SYSTEM OPTIONS
     ---------------
     KDIAG =       0     MEMORY=200000000     TIMLIM=  3600000.0 SEC.
     COREFL=       F     PTIME =        F     XDR   =       F
     BALTYP=NXTVAL       CBASE = E5F81000     FBASE = EB4C10C0

          ----------------
          PROPERTIES INPUT
          ----------------

     MOMENTS            FIELD           POTENTIAL          DENSITY
 IEMOM =       1   IEFLD =       0   IEPOT =       0   IEDEN =       0
 WHERE =COMASS     WHERE =NUCLEI     WHERE =NUCLEI     WHERE =NUCLEI  
 OUTPUT=BOTH       OUTPUT=BOTH       OUTPUT=BOTH       OUTPUT=BOTH    
 IEMINT=       0   IEFINT=       0                     IEDINT=       0
                                                       MORB  =       0


          ----------------   ------------------------------------
          DFT CODE OPTIONS   PROGRAM WRITTEN BY ALEX A. GRANOVSKY
          ----------------   ------------------------------------
          NRAD   =   63      LMAX   =  29 ( 302 POINTS PER SHELL)
          ANGPRN =    T      RADPRN =   T
          KAP    =   5.000   LMIN   =   7 (  26 POINTS PER SHELL)
          CUTOFF = 1.0E-10   CUTAO  = 1.0E-10
          CUTWGT = 1.0E-20   CUTORB = 1.0E-15
          CUTGG1 = 1.0E-13   CUTGG2 = 1.0E-13
          CUTGG3 = 1.0E-13   CUTGG4 = 1.0E-30
          B3LYP  =  NWCHEM   O3LYP  = DEFAULT 
          HFX    =  2.0000000000000000000E-01
          CPT2   =  0.0000000000000000000E+00
          SCS(S) =  1.0000000000000000000E+00
          SCS(T) =  1.0000000000000000000E+00



          EXTRAPOLATION IN EFFECT
          DAMPING IN EFFECT
          LEVEL SHIFTING IN EFFECT
          DIIS IN EFFECT

          ----------------------
          INTEGRAL INPUT OPTIONS
          ----------------------
 NOPK  =       1 NORDER=       0 SCHWRZ=       T

 ATTENTION! AO INTEGRALS WILL BE PACKED.
 THRESHOLD FOR PACKING PKTHR =  0.10000000D-05

     -------------------------------
     INTEGRAL TRANSFORMATION OPTIONS
     -------------------------------
     NWORD  =       0     CUTTRF = 1.0E-09
     MPTRAN =       0     DIRTRF =       T
     AOINTS =DUP          IREST  =       0

     ------------------------------------------
     THE POINT GROUP IS C1 , NAXIS= 0, ORDER= 1
     ------------------------------------------

     DIMENSIONS OF THE SYMMETRY SUBSPACES ARE
 A   = 163

 ..... DONE SETTING UP THE RUN .....

                         TIMING STATISTICS ON RANK 0:
 CPU        TIME:   STEP =      0.16 ,  TOTAL =        0.3 SECONDS (    0.0 MIN)
 WALL CLOCK TIME:   STEP =      1.32 ,  TOTAL =        1.3 SECONDS (    0.0 MIN)
 CPU UTILIZATION:   STEP =     12.13%,  TOTAL =      21.99%

          ********************
          1 ELECTRON INTEGRALS
          ********************
 ...... END OF ONE-ELECTRON INTEGRALS ......

                         TIMING STATISTICS ON RANK 0:
 CPU        TIME:   STEP =      0.00 ,  TOTAL =        0.3 SECONDS (    0.0 MIN)
 WALL CLOCK TIME:   STEP =      0.03 ,  TOTAL =        1.3 SECONDS (    0.0 MIN)
 CPU UTILIZATION:   STEP =      0.00%,  TOTAL =      21.53%

          -------------
          GUESS OPTIONS
          -------------
          GUESS =HUCKEL            NORB  =       0          NORDER=       0
          MIX   =       F          PRTMO =       F          SYMDEN=       F
          TOLZ  = 0.0E+00          TOLE  = 0.0E+00

 INITIAL GUESS ORBITALS GENERATED BY HUCKEL   ROUTINE.
 HUCKEL GUESS REQUIRES    200083 WORDS.

 LOG10 OF CONDITION NUMBER OF OVERLAP MATRIX IS:  5.45008143E+00

                    * * * WARNING * * *
 ------------------------------------------------------------------------------
 THE OVERLAP MATRIX HAS    3 EIGENVALUES BELOW 1.3E-04.
 THE SMALLEST OF THESE IS 4.67886E-05.
 THIS INDICATES A PARTIAL LINEAR DEPENDENCE IN YOUR ATOMIC BASIS.

 TO OBTAIN SCF CONVERGENCE MAY REQUIRE
 MORE ACCURATE INTEGRAL EVALUATION (INTTYP=HONDO, ICUT=11, ITOL=30 IN $CONTRL),
 MORE ACCURATE DIRECT SCF FOCK MATRIX FORMATION (FDIFF=.FALSE. IN $SCF), OR
 CHANGING CONVERGERS (DIIS=.T. SOSCF=.F. IN $SCF).

 EIGENVALUES BELOW 1.0D-07 PROBABLY WON'T CONVERGE.
 EIGENVALUES BETWEEN 1.0D-07 AND 1.0D-06 MAY REQUIRE
 TIGHTENING OF -NCONV- DENSITY CONVERGENCE IN $SCF.

 THE OVERALL DEGREES OF AOS LINEAR INDEPENDENCE ARE: 
   0.7155       -    F  11 YZ,   SHELL  70,   AO  157
   0.6904       -    F  11  Z,   SHELL  67,   AO  145
   0.6862       -    F  11  Y,   SHELL  67,   AO  144
   0.6832       -    F  11 XZ,   SHELL  70,   AO  156
   0.6789       -    F  11 XY,   SHELL  70,   AO  155
   0.6389       -    F  11  X,   SHELL  67,   AO  143
   0.6360       -    F  11 YZ,   SHELL  71,   AO  163
   0.6184       -    F  11 ZZ,   SHELL  70,   AO  154
   0.6173       -    F  11 YY,   SHELL  70,   AO  153
   0.5897       -    F  11 XX,   SHELL  70,   AO  152
   0.5110       -    H  10  Y,   SHELL  61,   AO  134
   0.4897       -    H  10  Z,   SHELL  61,   AO  135
   0.4812       -    H   5  Y,   SHELL  36,   AO   89
   0.4789       -    H   9  X,   SHELL  56,   AO  124
   0.4666       -    F  11  S,   SHELL  63,   AO  139
   0.4525       -    H   6  Z,   SHELL  41,   AO   99
   0.4430       -    H   7  Z,   SHELL  46,   AO  108
   0.4424       -    H   5  Z,   SHELL  36,   AO   90
   0.4360       -    H   6  X,   SHELL  41,   AO   97
   0.4351       -    H   7  X,   SHELL  46,   AO  106
   0.4198       -    H   4  X,   SHELL  31,   AO   79
   0.4157       -    F  11 ZZ,   SHELL  71,   AO  160
   0.4096       -    F  11 YY,   SHELL  71,   AO  159
   0.4055       -    H   4  Y,   SHELL  31,   AO   80
   0.4042       -    C   2  X,   SHELL  14,   AO   30
   0.4041       -    F  11 XZ,   SHELL  71,   AO  162
   0.3826       -    F  11 XY,   SHELL  71,   AO  161
   0.3752       -    H   8  Z,   SHELL  51,   AO  117
   0.3707       -    H   9  Y,   SHELL  56,   AO  125
   0.3485       -    C   2 XX,   SHELL  17,   AO   39
   0.3214       -    H   4  Z,   SHELL  31,   AO   81
   0.3189       -    C   2  Z,   SHELL  14,   AO   32
   0.3172       -    C   3 YY,   SHELL  26,   AO   65
   0.3138       -    C   1  Z,   SHELL   5,   AO    7
   0.3138       -    C   2 XZ,   SHELL  17,   AO   43
   0.3077       -    C   2  Y,   SHELL  14,   AO   31
   0.3067       -    C   3  Z,   SHELL  23,   AO   57
   0.3064       -    C   2 XY,   SHELL  17,   AO   42
   0.3057       -    C   1 XY,   SHELL   8,   AO   17
   0.3031       -    C   3 XX,   SHELL  26,   AO   64
   0.2991       -    C   3 XZ,   SHELL  26,   AO   68
   0.2985       -    C   1 XZ,   SHELL   8,   AO   18
   0.2944       -    C   2 YZ,   SHELL  17,   AO   44
   0.2913       -    H   6  Y,   SHELL  41,   AO   98
   0.2910       -    C   1  Y,   SHELL   5,   AO    6
   0.2865       -    H   9  Z,   SHELL  56,   AO  126
   0.2790       -    C   1  X,   SHELL   5,   AO    5
   0.2789       -    C   3  X,   SHELL  23,   AO   55
   0.2788       -    H   5  X,   SHELL  36,   AO   88
   0.2787       -    C   1 YZ,   SHELL   8,   AO   19
   0.2776       -    F  11  Z,   SHELL  68,   AO  148
   0.2746       -    H   8  X,   SHELL  51,   AO  115
   0.2682       -    C   1 ZZ,   SHELL   8,   AO   16
   0.2629       -    H   8  Y,   SHELL  51,   AO  116
   0.2618       -    C   3  Y,   SHELL  23,   AO   56
   0.2559       -    H   7  Y,   SHELL  46,   AO  107
   0.2556       -    F  11  Y,   SHELL  68,   AO  147
   0.2533       -    C   3 ZZ,   SHELL  26,   AO   66
   0.2529       -    C   1 YY,   SHELL   8,   AO   15
   0.2505       -    C   2 YY,   SHELL  17,   AO   40
   0.2486       -    C   1 XX,   SHELL   8,   AO   14
   0.2481       -    C   2 ZZ,   SHELL  17,   AO   41
   0.2440       -    C   3 YZ,   SHELL  26,   AO   69
   0.2425       -    C   3 XY,   SHELL  26,   AO   67
   0.2225       -    F  11 XX,   SHELL  71,   AO  158
   0.1961       -    H  10  X,   SHELL  61,   AO  133
   0.1876       -    F  11  S,   SHELL  64,   AO  140
   0.1785       -    C   1  S,   SHELL   1,   AO    1
   0.1733       -    C   3  S,   SHELL  19,   AO   51
   0.1451       -    C   2  S,   SHELL  10,   AO   26
   0.1079       -    F  11  Y,   SHELL  69,   AO  150
   0.1072       -    H   5  S,   SHELL  33,   AO   85
   0.1070       -    H   9  S,   SHELL  53,   AO  121
   0.1063       -    H  10  S,   SHELL  58,   AO  130
   0.1058       -    H   4  S,   SHELL  28,   AO   76
   0.1051       -    H   6  S,   SHELL  38,   AO   94
   0.1024       -    H   7  S,   SHELL  43,   AO  103
   0.7995E-01   -    F  11  Z,   SHELL  69,   AO  151
   0.7348E-01   -    H   8  S,   SHELL  48,   AO  112
   0.7309E-01   -    F  11  X,   SHELL  68,   AO  146
   0.6086E-01   -    C   1  S,   SHELL   2,   AO    2
   0.5830E-01   -    C   3  S,   SHELL  20,   AO   52
   0.5010E-01   -    C   2  S,   SHELL  11,   AO   27
   0.3754E-01   -    H   5  Y,   SHELL  37,   AO   92
   0.3321E-01   -    H   9  X,   SHELL  57,   AO  127
   0.3299E-01   -    F  11  S,   SHELL  65,   AO  141
   0.3102E-01   -    H  10  Z,   SHELL  62,   AO  138
   0.2721E-01   -    H   5  Z,   SHELL  37,   AO   93
   0.2532E-01   -    F  11  X,   SHELL  69,   AO  149
   0.2457E-01   -    H  10  Y,   SHELL  62,   AO  137
   0.2368E-01   -    H   6  Z,   SHELL  42,   AO  102
   0.2023E-01   -    H   6  X,   SHELL  42,   AO  100
   0.1935E-01   -    C   1 XX,   SHELL   9,   AO   20
   0.1866E-01   -    H   7  X,   SHELL  47,   AO  109
   0.1751E-01   -    H   4  X,   SHELL  32,   AO   82
   0.1743E-01   -    H   4  Y,   SHELL  32,   AO   83
   0.1635E-01   -    H   7  Z,   SHELL  47,   AO  111
   0.1624E-01   -    C   1 XY,   SHELL   9,   AO   23
   0.1473E-01   -    H   9  Y,   SHELL  57,   AO  128
   0.1367E-01   -    C   3 XX,   SHELL  27,   AO   70
   0.1327E-01   -    H   8  Z,   SHELL  52,   AO  120
   0.1193E-01   -    C   1 YY,   SHELL   9,   AO   21
   0.1163E-01   -    H  10  S,   SHELL  60,   AO  132
   0.1130E-01   -    C   1 XZ,   SHELL   9,   AO   24
   0.1036E-01   -    H   8  Y,   SHELL  52,   AO  119
   0.9834E-02   -    C   2 XX,   SHELL  18,   AO   45
   0.9823E-02   -    C   1 ZZ,   SHELL   9,   AO   22
   0.9582E-02   -    H   9  Z,   SHELL  57,   AO  129
   0.9556E-02   -    H   4  Z,   SHELL  32,   AO   84
   0.9417E-02   -    H   8  X,   SHELL  52,   AO  118
   0.9099E-02   -    C   3 XY,   SHELL  27,   AO   73
   0.8781E-02   -    C   1  X,   SHELL   7,   AO   11
   0.8741E-02   -    C   1 YZ,   SHELL   9,   AO   25
   0.8481E-02   -    C   3 YY,   SHELL  27,   AO   71
   0.7602E-02   -    C   3 XZ,   SHELL  27,   AO   74
   0.6819E-02   -    H   5  X,   SHELL  37,   AO   91
   0.6584E-02   -    H   6  Y,   SHELL  42,   AO  101
   0.6458E-02   -    C   3 ZZ,   SHELL  27,   AO   72
   0.6251E-02   -    C   3 YZ,   SHELL  27,   AO   75
   0.5971E-02   -    H  10  X,   SHELL  62,   AO  136
   0.5920E-02   -    H   7  Y,   SHELL  47,   AO  110
   0.5726E-02   -    H   5  S,   SHELL  35,   AO   87
   0.5591E-02   -    H   4  S,   SHELL  30,   AO   78
   0.5172E-02   -    C   2 XY,   SHELL  18,   AO   48
   0.4590E-02   -    C   2 XZ,   SHELL  18,   AO   49
   0.3881E-02   -    C   2 YY,   SHELL  18,   AO   46
   0.3643E-02   -    C   3  Y,   SHELL  25,   AO   62
   0.3580E-02   -    H  10  S,   SHELL  59,   AO  131
   0.3567E-02   -    H   9  S,   SHELL  55,   AO  123
   0.3533E-02   -    C   1  Y,   SHELL   7,   AO   12
   0.3364E-02   -    C   1  Z,   SHELL   7,   AO   13
   0.3315E-02   -    C   2 ZZ,   SHELL  18,   AO   47
   0.3142E-02   -    H   6  S,   SHELL  40,   AO   96
   0.3071E-02   -    F  11  S,   SHELL  66,   AO  142
   0.2790E-02   -    C   1  X,   SHELL   6,   AO    8
   0.2707E-02   -    C   3  X,   SHELL  25,   AO   61
   0.2406E-02   -    C   2  X,   SHELL  16,   AO   36
   0.2316E-02   -    C   3  Z,   SHELL  25,   AO   63
   0.2178E-02   -    C   2 YZ,   SHELL  18,   AO   50
   0.2071E-02   -    H   8  S,   SHELL  50,   AO  114
   0.2059E-02   -    H   7  S,   SHELL  45,   AO  105
   0.1387E-02   -    C   3  Y,   SHELL  24,   AO   59
   0.1159E-02   -    C   1  Y,   SHELL   6,   AO    9
   0.9934E-03   -    C   2  Y,   SHELL  15,   AO   34
   0.9743E-03   -    C   2  Y,   SHELL  16,   AO   37
   0.8406E-03   -    C   2  X,   SHELL  15,   AO   33
   0.8321E-03   -    C   3  X,   SHELL  24,   AO   58
   0.7701E-03   -    C   2  Z,   SHELL  16,   AO   38
   0.7536E-03   -    H   5  S,   SHELL  34,   AO   86
   0.6654E-03   -    H   4  S,   SHELL  29,   AO   77
   0.6453E-03   -    H   6  S,   SHELL  39,   AO   95
   0.6144E-03   -    C   1  Z,   SHELL   6,   AO   10
   0.6025E-03   -    H   9  S,   SHELL  54,   AO  122
   0.5099E-03   -    C   3  Z,   SHELL  24,   AO   60
   0.4986E-03   -    H   8  S,   SHELL  49,   AO  113
   0.4435E-03   -    C   1  S,   SHELL   3,   AO    3
   0.4336E-03   -    H   7  S,   SHELL  44,   AO  104
   0.2871E-03   -    C   2  S,   SHELL  12,   AO   28
   0.2554E-03   -    C   2  Z,   SHELL  15,   AO   35
   0.2196E-03   -    C   3  S,   SHELL  21,   AO   53
   0.2008E-03   -    C   1  S,   SHELL   4,   AO    4
   0.1198E-03   -    C   3  S,   SHELL  22,   AO   54
   0.8545E-04   -    C   2  S,   SHELL  13,   AO   29

 YOU MAY CONSIDER DROPPING ONE OR MORE AOS, STARTING FROM THE END OF THIS LIST.
 ------------------------------------------------------------------------------

 SYMMETRIES FOR INITIAL GUESS ORBITALS FOLLOW.   BOTH SET(S).
    17 ORBITALS ARE OCCUPIED (    4 CORE ORBITALS).
     5=A        6=A        7=A        8=A        9=A       10=A       11=A   
    12=A       13=A       14=A       15=A       16=A       17=A       18=A   
    19=A       20=A       21=A       22=A       23=A       24=A       25=A   
    26=A       27=A   
 ...... END OF INITIAL ORBITAL SELECTION ......

                         TIMING STATISTICS ON RANK 0:
 CPU        TIME:   STEP =      0.04 ,  TOTAL =        0.3 SECONDS (    0.0 MIN)
 WALL CLOCK TIME:   STEP =      0.36 ,  TOTAL =        1.7 SECONDS (    0.0 MIN)
 CPU UTILIZATION:   STEP =     11.15%,  TOTAL =      19.35%

          --------------------
          2 ELECTRON INTEGRALS
          --------------------

 DIRECT SCF METHOD SKIPS INTEGRAL STORAGE ON DISK.
 DIRECT TRANSFORMATION SKIPS AO INTEGRAL STORAGE ON DISK.
 SCHWARZ INEQUALITY OVERHEAD:     13366 INTEGRALS, CPU TIME=        0.00
 ...... END OF TWO-ELECTRON INTEGRALS .....

                         TIMING STATISTICS ON RANK 0:
 CPU        TIME:   STEP =      0.00 ,  TOTAL =        0.3 SECONDS (    0.0 MIN)
 WALL CLOCK TIME:   STEP =      0.01 ,  TOTAL =        1.7 SECONDS (    0.0 MIN)
 CPU UTILIZATION:   STEP =      0.00%,  TOTAL =      19.19%

          --------------------------
          R-B3LYP    SCF CALCULATION
          --------------------------

     NUCLEAR ENERGY =       118.0881279536
     MAXIT =  100     NPUNCH=    2
     EXTRAP=T  DAMP=T  SHIFT=T  RSTRCT=F  DIIS=T  DEM=F  SOSCF=F
     DENSITY CONV=  2.00E-05
     MEMORY REQUIRED FOR SCF STEP=    912929 WORDS.

 XC FUNCTIONAL: SLATER + BECKE 88 + HF EXCHANGE, LYP 88 + VWN 1 RPA CORRELATION 


 DIRECT SCF CALCULATION, SCHWRZ=T   FDIFF=F
 SCHWARZ INEQUALITY OVERHEAD:     13366 INTEGRALS, CPU TIME=        0.00

                                                                              NONZERO    BLOCKS
 ITER EX DEM  TOTAL ENERGY      E CHANGE  DENSITY CHANGE    DIIS ERROR      INTEGRALS   SKIPPED
          * * *   INITIATING DIIS PROCEDURE   * * *
   1  0  0  -217.790231824  -217.790231824   1.302119021   0.356280577       91221792     24424
   2  1  0  -218.096831263    -0.306599439   0.212425939   0.143744289       91249225     24766
   3  2  0  -218.334381389    -0.237550127   0.064602134   0.029929405       91240863     24863
   4  3  0  -218.338309277    -0.003927887   0.048344686   0.021541415       91238178     24861
   5  4  0  -218.345180684    -0.006871407   0.005578929   0.003318019       91238784     24867
   6  5  0  -218.345275337    -0.000094653   0.004418764   0.001250099       91238356     24868
   7  6  0  -218.345307991    -0.000032654   0.000645503   0.000310308       91238296     24868
   8  7  0  -218.345309925    -0.000001934   0.000161831   0.000049798       91238314     24867
   9  8  0  -218.345309964    -0.000000038   0.000031973   0.000008417       91238311     24868
  10  9  0  -218.345309965    -0.000000002   0.000013610   0.000003185       91238311     24868
  11 10  0  -218.345309965     0.000000000   0.000004093   0.000000865       91238311     24868

          -----------------
          DENSITY CONVERGED
          -----------------
     TIME TO FORM FOCK OPERATORS =       5.13 SECONDS (       0.47 SEC/ITER)
     OF THE ABOVE TIME, DFT PART =       0.97 SECONDS (       0.09 SEC/ITER)
     FOCK TIME ON FIRST ITERATION=       0.58, LAST ITERATION=       0.30
     TIME TO SOLVE SCF EQUATIONS =       0.25 SECONDS (       0.02 SEC/ITER)

 FINAL ENERGY IS     -218.3453099653 AFTER  11 ITERATIONS
 DFT EXCHANGE + CORRELATION ENERGY IS      -23.7259880986
 INTEGRATED TOTAL ELECTRON NUMBER  IS       33.9999727712


          ------------
          EIGENVECTORS
          ------------

                      1          2          3          4          5
                  -24.6494   -10.2392   -10.1981   -10.1977    -1.1143
                     A          A          A          A          A   
    1  C   1  S  -0.000007  -0.002266  -0.031212  -1.010252  -0.000140
    2  C   1  S  -0.000014   0.000957  -0.001711  -0.024142  -0.002147
    3  C   1  S   0.000592  -0.021357   0.014576   0.086251   0.027083
    4  C   1  S   0.003910  -0.016409   0.011045   0.026994   0.025475
    5  C   1  X  -0.000028  -0.000050   0.000040  -0.000011  -0.000338
    6  C   1  Y   0.000060   0.000102  -0.000113   0.000134   0.000257
    7  C   1  Z   0.000020  -0.000275   0.000193  -0.000474   0.001005
    8  C   1  X   0.000557   0.003016  -0.000350  -0.002738   0.001336
    9  C   1  Y  -0.003106  -0.013790   0.007894   0.011878  -0.015226
   10  C   1  Z   0.000076   0.020423  -0.012183  -0.021019  -0.012345
   11  C   1  X  -0.000086   0.002198  -0.000397   0.000104   0.001306
   12  C   1  Y  -0.000697  -0.000305   0.003693   0.004176  -0.003768
   13  C   1  Z  -0.001120   0.006544  -0.003251  -0.003522  -0.008478
   14  C   1 XX  -0.000027  -0.000529  -0.000177  -0.000414  -0.000183
   15  C   1 YY  -0.000037   0.000107   0.000324  -0.000106  -0.000184
   16  C   1 ZZ   0.000065   0.000422  -0.000147   0.000521   0.000367
   17  C   1 XY  -0.000019   0.000073   0.000272  -0.000053  -0.000111
   18  C   1 XZ  -0.000141   0.000133  -0.000082   0.000187  -0.001112
   19  C   1 YZ   0.000150  -0.000836  -0.000250  -0.000692   0.000914
   20  C   1 XX   0.000489   0.003323  -0.002038  -0.002713   0.003718
   21  C   1 YY  -0.000259  -0.001368  -0.000767  -0.000609  -0.001386
   22  C   1 ZZ  -0.000230  -0.001955   0.002804   0.003323  -0.002332
   23  C   1 XY  -0.000006  -0.001266  -0.000092  -0.001152  -0.001360
   24  C   1 XZ   0.000712  -0.000864   0.000958   0.000729   0.008490
   25  C   1 YZ   0.000145   0.005498  -0.002565  -0.003997  -0.003501
   26  C   2  S  -0.000109  -1.011085  -0.008070   0.003252   0.000499
   27  C   2  S  -0.000161  -0.024481  -0.000592   0.000428  -0.006474
   28  C   2  S   0.008005   0.099879   0.026455  -0.010111   0.029334
   29  C   2  S  -0.016618   0.062166   0.009178   0.007075  -0.053841
   30  C   2  X   0.000063  -0.000107   0.000493  -0.000077  -0.000580
   31  C   2  Y  -0.000045  -0.000302   0.000136  -0.000227   0.002076
   32  C   2  Z  -0.000054   0.000311   0.000390   0.000100   0.003400
   33  C   2  X  -0.004635  -0.012322  -0.018669  -0.009713  -0.032478
   34  C   2  Y  -0.002581  -0.015592  -0.001537   0.014796  -0.009362
   35  C   2  Z  -0.003174  -0.002550  -0.032095  -0.034610  -0.027408
   36  C   2  X   0.001253  -0.006961  -0.004687  -0.003982   0.005107
   37  C   2  Y   0.003502  -0.013488   0.001136  -0.000035   0.018074
   38  C   2  Z   0.002474  -0.002678  -0.009955  -0.009821   0.006647
   39  C   2 XX   0.000000   0.000424  -0.000010  -0.000380   0.000047
   40  C   2 YY  -0.000015  -0.000542   0.000686  -0.000210   0.000047
   41  C   2 ZZ   0.000015   0.000117  -0.000676   0.000590  -0.000094
   42  C   2 XY   0.000075  -0.000824  -0.000336  -0.000300   0.000739
   43  C   2 XZ   0.000111  -0.000573  -0.001116   0.000121   0.000819
   44  C   2 YZ  -0.000121  -0.000185  -0.000226  -0.000758  -0.001152
   45  C   2 XX   0.000061  -0.003546   0.002374   0.003802   0.001810
   46  C   2 YY  -0.001687  -0.005134  -0.002586  -0.002991  -0.005262
   47  C   2 ZZ   0.001626   0.008681   0.000212  -0.000811   0.003452
   48  C   2 XY  -0.000264   0.002035   0.002150   0.001118   0.005132
   49  C   2 XZ   0.002180   0.008756   0.004542   0.003766   0.019221
   50  C   2 YZ   0.000460  -0.003325   0.005306   0.007257   0.014742
   51  C   3  S   0.000024  -0.007422   1.010847  -0.030087   0.001779
   52  C   3  S   0.000034   0.000816   0.025309   0.000219  -0.004585
   53  C   3  S  -0.008534  -0.030178  -0.092931  -0.020549  -0.064958
   54  C   3  S   0.011255  -0.030591  -0.036657  -0.019347   0.024679
   55  C   3  X  -0.000083   0.000246  -0.000522   0.000213  -0.004906
   56  C   3  Y   0.000052   0.000252  -0.000846   0.000145   0.001239
   57  C   3  Z   0.000081   0.000582  -0.000005   0.000232  -0.000220
   58  C   3  X   0.001026  -0.014842  -0.016131  -0.010346  -0.011485
   59  C   3  Y  -0.002708  -0.009176  -0.005213  -0.007891   0.001841
   60  C   3  Z  -0.007504  -0.022898  -0.018705  -0.010936  -0.047589
   61  C   3  X   0.002131  -0.003341  -0.004124  -0.004806   0.002860
   62  C   3  Y  -0.000339   0.000792  -0.002530  -0.002292  -0.000646
   63  C   3  Z   0.001715  -0.008224  -0.003871  -0.004824   0.002343
   64  C   3 XX   0.000134   0.000184  -0.000235  -0.000099  -0.000801
   65  C   3 YY   0.000005  -0.000647   0.000338  -0.000222   0.000611
   66  C   3 ZZ  -0.000139   0.000463  -0.000103   0.000321   0.000190
   67  C   3 XY  -0.000037   0.000074   0.001494  -0.000598   0.001003
   68  C   3 XZ  -0.000094   0.001049   0.000507  -0.000078  -0.000094
   69  C   3 YZ  -0.000037   0.000704  -0.000851  -0.000175  -0.000790
   70  C   3 XX  -0.000476   0.000459  -0.000771  -0.000098  -0.000801
   71  C   3 YY   0.001207   0.001688   0.004284   0.000708   0.005275
   72  C   3 ZZ  -0.000731  -0.002147  -0.003513  -0.000611  -0.004474
   73  C   3 XY  -0.002188  -0.003721  -0.001333  -0.000835  -0.005018
   74  C   3 XZ  -0.001348  -0.004412  -0.007602  -0.001553  -0.005104
   75  C   3 YZ  -0.000528  -0.002393  -0.002132  -0.001591   0.000092
   76  H   4  S  -0.000049   0.000547   0.000340   0.000835  -0.000307
   77  H   4  S   0.003860  -0.009580   0.003814  -0.012195   0.036420
   78  H   4  S   0.000430  -0.002418   0.000097  -0.001033   0.005760
   79  H   4  X  -0.000014   0.000059  -0.000015   0.000869  -0.000180
   80  H   4  Y   0.000079   0.000024  -0.000108  -0.000954   0.000600
   81  H   4  Z   0.000064  -0.000408  -0.000046  -0.001274   0.000621
   82  H   4  X   0.000410  -0.000514  -0.000101  -0.001497   0.004702
   83  H   4  Y  -0.000459   0.001363  -0.000171   0.001167  -0.005583
   84  H   4  Z  -0.001097   0.001547  -0.001184   0.004295  -0.008281
   85  H   5  S   0.000007   0.000558   0.000178   0.000862  -0.001007
   86  H   5  S  -0.002789  -0.011726   0.002329  -0.013417  -0.020490
   87  H   5  S   0.000097  -0.002636   0.002241  -0.000922  -0.001829
   88  H   5  X  -0.000058  -0.000158  -0.000115  -0.001681  -0.000295
   89  H   5  Y   0.000040   0.000186  -0.000131   0.000146   0.000316
   90  H   5  Z  -0.000065  -0.000250   0.000009  -0.000314  -0.000422
   91  H   5  X   0.001244   0.002765  -0.000140   0.004646   0.008235
   92  H   5  Y   0.000052  -0.000033  -0.000311  -0.001162  -0.000395
   93  H   5  Z  -0.000169   0.001440  -0.000673   0.002680  -0.003516
   94  H   6  S  -0.000061   0.000515  -0.000242   0.000739  -0.000759
   95  H   6  S  -0.002485  -0.001677   0.004438  -0.012082  -0.025138
   96  H   6  S  -0.000748   0.001116   0.002296   0.001495  -0.003968
   97  H   6  X  -0.000004  -0.000041   0.000034   0.000702   0.000015
   98  H   6  Y   0.000022   0.000144  -0.000168   0.001535  -0.000084
   99  H   6  Z  -0.000026  -0.000174   0.000163   0.000322  -0.000245
  100  H   6  X   0.000125  -0.000525   0.000350  -0.001841  -0.001445
  101  H   6  Y  -0.000922  -0.000168   0.000752  -0.004748  -0.010140
  102  H   6  Z  -0.000161   0.000894   0.000229   0.000936  -0.000942
  103  H   7  S   0.000032   0.001011  -0.000403   0.000539  -0.001723
  104  H   7  S   0.007340  -0.006705   0.006384  -0.007160   0.026677
  105  H   7  S  -0.001608   0.006392   0.000497   0.001253  -0.010319
  106  H   7  X   0.000050  -0.000619   0.000180   0.000066   0.000397
  107  H   7  Y   0.000044  -0.001518  -0.000016  -0.000216   0.000215
  108  H   7  Z  -0.000047  -0.000001   0.000208   0.000333  -0.000532
  109  H   7  X  -0.000375   0.000164  -0.000836   0.000574  -0.002022
  110  H   7  Y  -0.001782   0.003585  -0.001852   0.002445  -0.008157
  111  H   7  Z  -0.000875  -0.000288  -0.000136  -0.000257  -0.011650
  112  H   8  S  -0.000118   0.000777  -0.002711   0.000546  -0.002101
  113  H   8  S   0.007225  -0.008754   0.016976  -0.008491   0.030126
  114  H   8  S   0.000538  -0.000285  -0.000516  -0.003730   0.001439
  115  H   8  X  -0.000187   0.000081  -0.001451   0.000308  -0.000707
  116  H   8  Y   0.000115   0.000068  -0.001683   0.000285  -0.000075
  117  H   8  Z   0.000061   0.000455   0.000179   0.000051   0.000327
  118  H   8  X   0.001697  -0.002376   0.003816  -0.001561   0.008035
  119  H   8  Y   0.002366  -0.002518   0.004753  -0.001807   0.008034
  120  H   8  Z   0.000210  -0.000591  -0.001407   0.000397   0.004130
  121  H   9  S   0.000031   0.000559  -0.001038   0.000099  -0.001986
  122  H   9  S  -0.004572  -0.010764   0.015587   0.000114  -0.031875
  123  H   9  S   0.000927  -0.003666   0.001223  -0.001824   0.000471
  124  H   9  X   0.000046   0.000291  -0.000112   0.000159   0.000114
  125  H   9  Y  -0.000003   0.000116   0.001020   0.000094   0.000419
  126  H   9  Z   0.000091   0.000386  -0.001435   0.000216  -0.000237
  127  H   9  X   0.000324  -0.000317  -0.000163   0.000700   0.000591
  128  H   9  Y   0.000867   0.001804  -0.003988   0.000486   0.007400
  129  H   9  Z  -0.001274  -0.002983   0.004343   0.000472  -0.009718
  130  H  10  S   0.002149   0.000031   0.000322  -0.000054  -0.121511
  131  H  10  S   0.009655  -0.003960   0.000663  -0.001471   0.089908
  132  H  10  S   0.000219  -0.001051  -0.000468  -0.000224   0.010305
  133  H  10  X   0.001197   0.000082  -0.000920  -0.000071  -0.024409
  134  H  10  Y  -0.000196  -0.000333   0.000493  -0.000026   0.002409
  135  H  10  Z  -0.000208  -0.000430   0.000347   0.000078   0.002466
  136  H  10  X   0.012375   0.003452  -0.002456   0.000390   0.047082
  137  H  10  Y  -0.001719  -0.001110   0.001527  -0.000627  -0.000007
  138  H  10  Z  -0.001021  -0.001632   0.002014  -0.000229   0.002432
  139  F  11  S   1.003712  -0.000011  -0.000089  -0.000003   0.004541
  140  F  11  S   0.007934  -0.000022  -0.000145  -0.000006  -0.486537
  141  F  11  S  -0.015095  -0.000215   0.000787  -0.000039  -0.529826
  142  F  11  S  -0.009464  -0.002899   0.003440  -0.000125  -0.111109
  143  F  11  X  -0.000921   0.000000  -0.000029   0.000007   0.056615
  144  F  11  Y   0.000071  -0.000045   0.000053  -0.000011  -0.006781
  145  F  11  Z   0.000113  -0.000074   0.000044  -0.000025  -0.007979
  146  F  11  X   0.004006  -0.000017  -0.000607  -0.000070   0.024816
  147  F  11  Y  -0.000375   0.000322  -0.000256   0.000070  -0.003931
  148  F  11  Z  -0.000571   0.000526  -0.000219   0.000056  -0.005129
  149  F  11  X   0.003120   0.000582  -0.001103  -0.000099   0.025219
  150  F  11  Y  -0.000016   0.000075  -0.000158   0.000058  -0.002827
  151  F  11  Z  -0.000050  -0.000098  -0.000220  -0.000143  -0.003772
  152  F  11 XX   0.000035   0.000017   0.000066   0.000009  -0.006033
  153  F  11 YY   0.000002  -0.000023  -0.000021   0.000035   0.003088
  154  F  11 ZZ  -0.000036   0.000005  -0.000045  -0.000044   0.002945
  155  F  11 XY   0.000023   0.000020  -0.000063   0.000007   0.001104
  156  F  11 XZ   0.000004   0.000038  -0.000056   0.000015   0.001225
  157  F  11 YZ  -0.000036  -0.000015  -0.000020   0.000007  -0.000260
  158  F  11 XX  -0.000923  -0.000131   0.000211   0.000015   0.003851
  159  F  11 YY   0.000412   0.000086  -0.000151  -0.000131  -0.001997
  160  F  11 ZZ   0.000511   0.000044  -0.000060   0.000116  -0.001854
  161  F  11 XY   0.000092  -0.000177   0.000230  -0.000040  -0.000845
  162  F  11 XZ   0.000183  -0.000290   0.000160  -0.000041  -0.000614
  163  F  11 YZ   0.000082   0.000125   0.000048  -0.000029   0.000470

                      6          7          8          9         10
                   -0.8266    -0.7258    -0.6039    -0.4981    -0.4861
                     A          A          A          A          A   
    1  C   1  S  -0.013721   0.017028   0.002155  -0.000427   0.000606
    2  C   1  S   0.202646  -0.300529  -0.127435   0.029418  -0.017353
    3  C   1  S  -0.028128  -0.156471   0.005723  -0.192341   0.060706
    4  C   1  S   0.094685  -0.016130   0.038443   0.073208   0.008178
    5  C   1  X  -0.010035  -0.009742   0.013197   0.096546  -0.068122
    6  C   1  Y   0.031875  -0.007550   0.103562   0.049193   0.131903
    7  C   1  Z  -0.053261  -0.019754  -0.096723   0.209722  -0.031091
    8  C   1  X   0.005022   0.011536  -0.021334  -0.002318  -0.014009
    9  C   1  Y   0.000278  -0.067231  -0.002796  -0.087436  -0.031262
   10  C   1  Z   0.024941   0.117114  -0.012924   0.090030  -0.034955
   11  C   1  X   0.002268  -0.002867  -0.002017   0.011516  -0.002712
   12  C   1  Y   0.023097  -0.016060  -0.005714   0.017467  -0.015997
   13  C   1  Z  -0.024578   0.021546   0.002101  -0.012707  -0.006870
   14  C   1 XX  -0.005927   0.000698  -0.006060   0.006915  -0.004503
   15  C   1 YY  -0.001214  -0.001277   0.001503   0.001033   0.003086
   16  C   1 ZZ   0.007142   0.000580   0.004557  -0.007948   0.001417
   17  C   1 XY  -0.001370  -0.000191  -0.000660  -0.002451  -0.003508
   18  C   1 XZ   0.002407   0.001940  -0.000505  -0.005939  -0.001292
   19  C   1 YZ  -0.008931   0.001857  -0.011795   0.005291  -0.004097
   20  C   1 XX  -0.001227   0.014889   0.002560  -0.012804   0.014181
   21  C   1 YY  -0.002577   0.000217  -0.004330   0.002150  -0.011491
   22  C   1 ZZ   0.003804  -0.015106   0.001769   0.010655  -0.002690
   23  C   1 XY   0.003610   0.003459   0.001585   0.014333   0.011344
   24  C   1 XZ   0.006879  -0.004150   0.024135   0.038584   0.014996
   25  C   1 YZ   0.007554   0.030188   0.020127   0.021138   0.006019
   26  C   2  S  -0.022912   0.000484  -0.005894   0.000337   0.000135
   27  C   2  S   0.289717   0.022332   0.262677  -0.069713   0.039615
   28  C   2  S   0.140150  -0.117747   0.363847  -0.267353   0.027730
   29  C   2  S  -0.022203   0.053437  -0.420973  -0.015363  -0.155609
   30  C   2  X  -0.042473  -0.074415   0.067582   0.108131  -0.034987
   31  C   2  Y  -0.043513   0.026581   0.135986   0.259328   0.053356
   32  C   2  Z  -0.018366  -0.176199   0.001100  -0.012018   0.154380
   33  C   2  X  -0.003249   0.063002  -0.080778   0.108239  -0.075095
   34  C   2  Y  -0.090127   0.008273  -0.072605   0.061720  -0.014492
   35  C   2  Z   0.076623   0.121293  -0.138170   0.178619   0.028709
   36  C   2  X  -0.020764  -0.007398   0.041918  -0.036752   0.013411
   37  C   2  Y  -0.005336  -0.008342   0.030277   0.004266   0.004896
   38  C   2  Z  -0.040719   0.007038   0.060729  -0.064278   0.067015
   39  C   2 XX  -0.004524   0.007441  -0.002074  -0.002891   0.004579
   40  C   2 YY  -0.005302  -0.004121   0.006946  -0.001934   0.001201
   41  C   2 ZZ   0.009826  -0.003320  -0.004872   0.004825  -0.005781
   42  C   2 XY   0.002434   0.004657   0.001283  -0.002125   0.009283
   43  C   2 XZ   0.010254   0.007607  -0.004959   0.002130   0.002735
   44  C   2 YZ  -0.002420   0.015796   0.001093  -0.003901  -0.003064
   45  C   2 XX  -0.012120  -0.012428   0.010718  -0.011830   0.004693
   46  C   2 YY  -0.022659   0.011681  -0.092198  -0.061347  -0.044127
   47  C   2 ZZ   0.034779   0.000747   0.081480   0.073177   0.039434
   48  C   2 XY  -0.018578  -0.011331  -0.073842  -0.066790   0.007922
   49  C   2 XZ  -0.001370  -0.025725   0.045587   0.017929   0.031838
   50  C   2 YZ  -0.037980  -0.054221   0.024613  -0.068230   0.037844
   51  C   3  S  -0.021599  -0.021153   0.008757  -0.004417   0.001711
   52  C   3  S   0.229855   0.249528  -0.163101   0.048028   0.022210
   53  C   3  S   0.112285   0.204946  -0.111473   0.155494  -0.212758
   54  C   3  S  -0.103957  -0.095266   0.418644  -0.155073   0.065142
   55  C   3  X   0.045278   0.003110   0.156041  -0.039918  -0.194258
   56  C   3  Y   0.006246   0.001211   0.126916   0.187605  -0.091034
   57  C   3  Z   0.074722   0.007212   0.099799  -0.263516   0.048793
   58  C   3  X   0.072697   0.161558  -0.181296   0.020121  -0.055312
   59  C   3  Y   0.027259   0.059502  -0.142309  -0.079619   0.100987
   60  C   3  Z   0.037471   0.122643  -0.065612   0.142615  -0.069014
   61  C   3  X  -0.010759   0.005578   0.040525  -0.049172   0.028195
   62  C   3  Y   0.004663   0.021490  -0.009874  -0.055842   0.052927
   63  C   3  Z  -0.022612  -0.014994   0.081722   0.011919  -0.014482
   64  C   3 XX   0.001212   0.002837   0.000596  -0.005982  -0.007473
   65  C   3 YY  -0.006093   0.000022  -0.006262   0.004541   0.006692
   66  C   3 ZZ   0.004881  -0.002859   0.005666   0.001441   0.000781
   67  C   3 XY   0.000247   0.003251   0.000313   0.002054   0.011581
   68  C   3 XZ   0.009031   0.001779   0.010992  -0.003685  -0.001830
   69  C   3 YZ   0.004827   0.003508   0.008125  -0.005378   0.001741
   70  C   3 XX   0.012096   0.019310  -0.032178   0.047538  -0.024059
   71  C   3 YY  -0.017030  -0.042910   0.054688  -0.037129  -0.008868
   72  C   3 ZZ   0.004934   0.023600  -0.022510  -0.010409   0.032927
   73  C   3 XY  -0.024345  -0.030240   0.033738   0.015238  -0.030326
   74  C   3 XZ   0.019586   0.044769  -0.060646   0.046411   0.024389
   75  C   3 YZ   0.020979   0.035533  -0.071882   0.067556  -0.006957
   76  H   4  S   0.084417  -0.160773  -0.091690   0.129590   0.043520
   77  H   4  S  -0.024718  -0.091101  -0.057496   0.096363   0.076216
   78  H   4  S   0.005628  -0.008947  -0.007690   0.009017  -0.002491
   79  H   4  X   0.004718  -0.009664  -0.004546   0.007884  -0.000944
   80  H   4  Y  -0.005219   0.009372   0.007209  -0.003497   0.003621
   81  H   4  Z  -0.010008   0.013695   0.005531  -0.001791  -0.003059
   82  H   4  X  -0.005327  -0.015021  -0.013491  -0.000224   0.003616
   83  H   4  Y  -0.000753   0.015878   0.004642  -0.011112  -0.005285
   84  H   4  Z   0.007874   0.015200   0.017143  -0.019220  -0.013924
   85  H   5  S   0.080264  -0.157276  -0.084844   0.130089  -0.082242
   86  H   5  S  -0.013916  -0.072672  -0.064278   0.034156  -0.065126
   87  H   5  S   0.000914  -0.002518  -0.004847   0.000885  -0.005900
   88  H   5  X  -0.011146   0.018971   0.009889  -0.007742   0.003992
   89  H   5  Y   0.001408  -0.002085   0.001364   0.003184   0.003565
   90  H   5  Z  -0.004223   0.003445  -0.000565   0.002988   0.000852
   91  H   5  X   0.001376   0.022887   0.026230   0.005442   0.013215
   92  H   5  Y  -0.004586  -0.000340  -0.004916  -0.001992  -0.005063
   93  H   5  Z   0.001612   0.000492  -0.000585  -0.011538  -0.003199
   94  H   6  S   0.082701  -0.141414  -0.133379  -0.067324  -0.081263
   95  H   6  S   0.041522  -0.067239  -0.018527  -0.045091  -0.113128
   96  H   6  S   0.012056  -0.017670  -0.014322   0.009262  -0.013358
   97  H   6  X   0.004771  -0.007696  -0.004761   0.001790  -0.005219
   98  H   6  Y   0.011486  -0.016337  -0.009377  -0.001334  -0.002623
   99  H   6  Z   0.000878  -0.002849  -0.004022   0.007037  -0.001788
  100  H   6  X   0.008289  -0.006633   0.002514   0.004684  -0.006177
  101  H   6  Y   0.017498  -0.018938   0.004854   0.005820  -0.034762
  102  H   6  Z   0.005671  -0.003135  -0.001396   0.003349   0.003185
  103  H   7  S   0.111437   0.003991   0.255066   0.172271   0.061597
  104  H   7  S   0.115716   0.013616   0.333536   0.192522   0.152182
  105  H   7  S   0.007961   0.011371  -0.005050   0.025040   0.002901
  106  H   7  X  -0.006521  -0.002488  -0.006150  -0.001671  -0.003184
  107  H   7  Y  -0.013453  -0.000272  -0.016833  -0.003607  -0.001419
  108  H   7  Z  -0.000745  -0.003678  -0.000590  -0.000674   0.002372
  109  H   7  X  -0.012013  -0.000288  -0.009614  -0.002362  -0.019959
  110  H   7  Y  -0.022534  -0.007976  -0.054691  -0.019911  -0.026335
  111  H   7  Z   0.005178   0.018487  -0.009881   0.006976  -0.031892
  112  H   8  S   0.121027   0.158220  -0.256346  -0.065278   0.180969
  113  H   8  S   0.116378   0.249997  -0.423998  -0.169732   0.337769
  114  H   8  S   0.000645   0.037861  -0.021981  -0.062903   0.060568
  115  H   8  X   0.010752   0.010730  -0.009724  -0.003304   0.001546
  116  H   8  Y   0.010948   0.012462  -0.012286   0.002560   0.006974
  117  H   8  Z   0.002225  -0.000573   0.004000  -0.006723   0.001589
  118  H   8  X   0.015282   0.039403  -0.067701  -0.015235   0.050184
  119  H   8  Y   0.010532   0.028369  -0.040481  -0.045573   0.047013
  120  H   8  Z   0.009917   0.014513  -0.030354   0.033690   0.013524
  121  H   9  S   0.081357   0.128312  -0.107113   0.288123  -0.055774
  122  H   9  S   0.013366   0.080428  -0.094346   0.421178  -0.185335
  123  H   9  S  -0.013585  -0.018703   0.032205   0.040800  -0.029562
  124  H   9  X   0.001957   0.000308   0.003225   0.000226  -0.004904
  125  H   9  Y  -0.006716  -0.010076   0.010084  -0.006440  -0.000759
  126  H   9  Z   0.011392   0.013486  -0.007162   0.009123  -0.000881
  127  H   9  X   0.004909   0.012196  -0.018892   0.009178   0.015792
  128  H   9  Y   0.003753   0.001264  -0.011527  -0.043431   0.036838
  129  H   9  Z  -0.004179   0.015051  -0.015507   0.069357  -0.036874
  130  H  10  S   0.029764   0.029729  -0.003560  -0.047285  -0.300749
  131  H  10  S  -0.041177  -0.035207   0.017212  -0.006064  -0.036042
  132  H  10  S   0.001015   0.012614  -0.000326   0.010727   0.003421
  133  H  10  X  -0.002753  -0.002727   0.001924  -0.000901  -0.027170
  134  H  10  Y   0.002661   0.002774   0.001339   0.001023  -0.002253
  135  H  10  Z   0.002738   0.001380   0.001564  -0.004798  -0.000984
  136  H  10  X  -0.003465  -0.002400  -0.005609  -0.011074   0.010233
  137  H  10  Y  -0.003232  -0.004234  -0.002716   0.000895   0.008245
  138  H  10  Z  -0.007217  -0.003688  -0.000805   0.002545   0.009087
  139  F  11  S  -0.000351  -0.000225   0.000178   0.000292   0.000490
  140  F  11  S  -0.025743  -0.014333  -0.000649   0.013569   0.092110
  141  F  11  S  -0.028480  -0.017518  -0.001788   0.020510   0.144558
  142  F  11  S   0.017076   0.022554  -0.005132   0.026165   0.058171
  143  F  11  X  -0.011772  -0.015118   0.003477   0.056214   0.406751
  144  F  11  Y   0.004193   0.003793   0.007273   0.003333  -0.062169
  145  F  11  Z   0.005068   0.000394   0.006422  -0.020337  -0.065136
  146  F  11  X  -0.005335  -0.008153   0.003297   0.030819   0.212829
  147  F  11  Y   0.001558   0.002309   0.003007   0.001306  -0.034245
  148  F  11  Z   0.003081   0.000699   0.001938  -0.011794  -0.036042
  149  F  11  X  -0.009069  -0.011521   0.009758  -0.001933   0.031221
  150  F  11  Y   0.002365   0.001811   0.003590   0.006487  -0.002575
  151  F  11  Z   0.002247   0.004497   0.004643  -0.000109  -0.000376
  152  F  11 XX   0.000636   0.000858  -0.000375  -0.001384  -0.009211
  153  F  11 YY  -0.000387  -0.000307   0.000198   0.000898   0.004730
  154  F  11 ZZ  -0.000249  -0.000551   0.000177   0.000486   0.004481
  155  F  11 XY  -0.000429  -0.000343  -0.000212  -0.000036   0.002281
  156  F  11 XZ  -0.000390  -0.000101  -0.000248   0.000761   0.002388
  157  F  11 YZ   0.000202   0.000052   0.000399   0.000002  -0.000396
  158  F  11 XX  -0.000865  -0.000421  -0.000201  -0.000440   0.006383
  159  F  11 YY   0.000546  -0.000048   0.000153  -0.000085  -0.003571
  160  F  11 ZZ   0.000319   0.000469   0.000048   0.000525  -0.002811
  161  F  11 XY   0.000930   0.000509   0.000341   0.000471  -0.001688
  162  F  11 XZ   0.000383  -0.000085   0.000719  -0.000356  -0.001298
  163  F  11 YZ  -0.000422  -0.000122  -0.001124  -0.000184   0.000494

                     11         12         13         14         15
                   -0.4620    -0.4387    -0.3987    -0.3881    -0.3589
                     A          A          A          A          A   
    1  C   1  S  -0.000195   0.001157  -0.002144  -0.001034   0.000212
    2  C   1  S  -0.018718  -0.003782   0.013131   0.039110  -0.004227
    3  C   1  S   0.106809  -0.070928   0.215321   0.185246  -0.010751
    4  C   1  S  -0.141693  -0.015778   0.056779  -0.069524   0.003042
    5  C   1  X   0.138377  -0.332285  -0.231730   0.009897  -0.050316
    6  C   1  Y   0.202108   0.183101  -0.166072   0.264833   0.010976
    7  C   1  Z  -0.086437   0.176377  -0.258632  -0.178700   0.021826
    8  C   1  X  -0.027073   0.019708   0.012059  -0.034501   0.000646
    9  C   1  Y   0.000873  -0.039133   0.151855   0.064411  -0.000145
   10  C   1  Z  -0.106473   0.036455  -0.136720  -0.177722  -0.003051
   11  C   1  X  -0.010585   0.018587   0.014946   0.005857   0.004581
   12  C   1  Y  -0.016573  -0.035633   0.044181  -0.033262  -0.002972
   13  C   1  Z   0.026545  -0.010214  -0.000498   0.007562   0.001323
   14  C   1 XX   0.000133  -0.010037  -0.013605  -0.002344  -0.002052
   15  C   1 YY  -0.001085   0.004494   0.019058  -0.012608   0.000527
   16  C   1 ZZ   0.000951   0.005543  -0.005453   0.014952   0.001525
   17  C   1 XY  -0.001586  -0.007933   0.012056  -0.008586   0.000699
   18  C   1 XZ  -0.002246  -0.008623  -0.002367   0.001900  -0.003207
   19  C   1 YZ  -0.010841   0.008873  -0.008579  -0.003908   0.001534
   20  C   1 XX  -0.020430   0.045660   0.030919  -0.006939   0.005001
   21  C   1 YY  -0.003744  -0.014528  -0.052524   0.016146  -0.006100
   22  C   1 ZZ   0.024174  -0.031132   0.021606  -0.009207   0.001099
   23  C   1 XY   0.009586   0.034550  -0.056754   0.011373   0.003932
   24  C   1 XZ  -0.003119   0.030949  -0.032313   0.020749  -0.000845
   25  C   1 YZ   0.029770  -0.022514  -0.037307  -0.010687  -0.003500
   26  C   2  S  -0.000570   0.000683   0.000473   0.002505  -0.001227
   27  C   2  S   0.001733  -0.012876   0.005328   0.018751  -0.014866
   28  C   2  S  -0.073863  -0.008689  -0.099252   0.062364  -0.017295
   29  C   2  S   0.125964  -0.131775  -0.004416   0.244267  -0.089902
   30  C   2  X   0.184760  -0.113777   0.126395  -0.045237   0.042347
   31  C   2  Y   0.029323   0.060728   0.056140  -0.308131  -0.012583
   32  C   2  Z   0.246786   0.031127   0.214308   0.154229  -0.011841
   33  C   2  X   0.029305  -0.025346  -0.095565   0.087653   0.023869
   34  C   2  Y   0.022085   0.021240  -0.037600   0.083662  -0.016825
   35  C   2  Z   0.002131   0.111416  -0.164602   0.070859  -0.021245
   36  C   2  X  -0.016371   0.036718  -0.016537   0.018329   0.006343
   37  C   2  Y  -0.116156   0.027233   0.018238   0.047564   0.014367
   38  C   2  Z   0.076038   0.049912  -0.052664  -0.010695   0.016265
   39  C   2 XX   0.000913  -0.001281  -0.006545  -0.007820  -0.000071
   40  C   2 YY   0.005605  -0.007438   0.016092  -0.019233  -0.000579
   41  C   2 ZZ  -0.006518   0.008720  -0.009548   0.027053   0.000650
   42  C   2 XY   0.002463   0.006610   0.002820  -0.016578   0.000094
   43  C   2 XZ  -0.000720  -0.012719  -0.013317   0.003017  -0.005929
   44  C   2 YZ   0.003437   0.004296  -0.016483  -0.012397   0.003234
   45  C   2 XX   0.029355  -0.023792   0.023003   0.001764   0.003344
   46  C   2 YY  -0.090321   0.013899  -0.012822   0.057933  -0.006557
   47  C   2 ZZ   0.060965   0.009893  -0.010181  -0.059697   0.003213
   48  C   2 XY  -0.006473   0.006879   0.042844   0.023226   0.002413
   49  C   2 XZ   0.049822  -0.042487   0.037319  -0.007590  -0.010304
   50  C   2 YZ   0.050630  -0.004137   0.091459   0.030915   0.004279
   51  C   3  S  -0.001868  -0.000506   0.001511  -0.001547   0.000599
   52  C   3  S  -0.032339  -0.013207  -0.047933   0.018451  -0.002453
   53  C   3  S  -0.338085   0.127435  -0.321260   0.175784  -0.020726
   54  C   3  S  -0.120567   0.153305  -0.115757  -0.039349   0.059853
   55  C   3  X  -0.201963  -0.013785  -0.108936   0.106115   0.005431
   56  C   3  Y  -0.232729   0.008190   0.050124   0.163586  -0.035176
   57  C   3  Z  -0.110885   0.039990  -0.241050  -0.138373  -0.022368
   58  C   3  X   0.019562  -0.005476  -0.115060   0.009961   0.003707
   59  C   3  Y   0.009818   0.027235  -0.015873  -0.074957  -0.000847
   60  C   3  Z  -0.091276   0.050993  -0.145376   0.102822  -0.019292
   61  C   3  X   0.022922   0.019985  -0.044335  -0.040771   0.009139
   62  C   3  Y   0.086532   0.014118  -0.027029  -0.088628   0.001947
   63  C   3  Z  -0.061694   0.036594  -0.003252   0.036607   0.011530
   64  C   3 XX   0.003197  -0.003044  -0.006252  -0.009158   0.002864
   65  C   3 YY   0.007801   0.000162   0.003830  -0.011049  -0.000258
   66  C   3 ZZ  -0.010998   0.002882   0.002422   0.020207  -0.002605
   67  C   3 XY   0.004937   0.000245   0.001182  -0.019241   0.000947
   68  C   3 XZ  -0.008490  -0.003076  -0.004914   0.002865  -0.000370
   69  C   3 YZ  -0.000984   0.004692  -0.006218  -0.018308  -0.000946
   70  C   3 XX  -0.011200  -0.013379   0.015291   0.036039  -0.004757
   71  C   3 YY  -0.038647   0.019434   0.008416  -0.008655   0.003553
   72  C   3 ZZ   0.049847  -0.006056  -0.023707  -0.027384   0.001204
   73  C   3 XY  -0.055898   0.004703   0.010816   0.045231  -0.002808
   74  C   3 XZ   0.040797   0.003742   0.006346   0.005019   0.001448
   75  C   3 YZ  -0.006113   0.008669   0.026601   0.047782   0.000437
   76  H   4  S  -0.043589   0.325820  -0.149572   0.011682   0.043351
   77  H   4  S  -0.028863   0.364348  -0.180955   0.142169   0.053040
   78  H   4  S  -0.019461   0.041076  -0.012383   0.023093   0.005468
   79  H   4  X   0.003319  -0.000996  -0.011782   0.000460  -0.000477
   80  H   4  Y   0.008080  -0.003330  -0.001926   0.009206  -0.000748
   81  H   4  Z  -0.000192  -0.012912  -0.000124  -0.004782  -0.001581
   82  H   4  X  -0.005830   0.030093  -0.001677   0.017835   0.003903
   83  H   4  Y   0.002514  -0.022811   0.024494  -0.016565  -0.001292
   84  H   4  Z  -0.001315  -0.050399   0.029424  -0.031095  -0.008798
   85  H   5  S   0.060292  -0.259437  -0.243409  -0.034625  -0.044659
   86  H   5  S   0.104519  -0.278911  -0.263380   0.023229  -0.035772
   87  H   5  S  -0.002663  -0.027889  -0.018487  -0.004376  -0.011551
   88  H   5  X   0.001188   0.006478   0.007989   0.003833   0.001140
   89  H   5  Y   0.007224   0.003327  -0.008200   0.008670  -0.000089
   90  H   5  Z  -0.002672   0.011107  -0.002359  -0.004699   0.001581
   91  H   5  X  -0.021749   0.045987   0.047028  -0.007715   0.004157
   92  H   5  Y  -0.002147  -0.012053   0.002830   0.004451  -0.001427
   93  H   5  Z   0.003146   0.004953   0.025730  -0.010215  -0.000448
   94  H   6  S  -0.198854  -0.049124   0.270881  -0.198749   0.004878
   95  H   6  S  -0.183511  -0.074567   0.477987  -0.243944   0.011882
   96  H   6  S  -0.022496  -0.029142   0.050566  -0.026999   0.000265
   97  H   6  X  -0.002774  -0.011982  -0.002211  -0.003657  -0.001692
   98  H   6  Y  -0.009395   0.002954   0.009104  -0.003229   0.000541
   99  H   6  Z  -0.003901   0.005617  -0.008086  -0.004468   0.000761
  100  H   6  X  -0.012430  -0.001026   0.033176  -0.017348   0.000675
  101  H   6  Y  -0.039890  -0.015397   0.089939  -0.046143   0.001187
  102  H   6  Z   0.016619  -0.007448  -0.007425  -0.002339  -0.000853
  103  H   7  S   0.097027  -0.000423   0.106703  -0.282474  -0.002264
  104  H   7  S   0.167715  -0.031290   0.185085  -0.521966   0.025733
  105  H   7  S   0.075200  -0.022218  -0.004218  -0.050946  -0.006840
  106  H   7  X   0.001777  -0.003591   0.000753   0.005645   0.001221
  107  H   7  Y  -0.002906   0.001168  -0.004473   0.005315   0.000150
  108  H   7  Z   0.004760   0.000255   0.006904   0.003816  -0.000174
  109  H   7  X  -0.030062   0.007720  -0.028488   0.048427  -0.004370
  110  H   7  Y  -0.010189   0.007068  -0.048568   0.099480  -0.004034
  111  H   7  Z  -0.032295   0.000129  -0.017490  -0.003667   0.001679
  112  H   8  S   0.237040  -0.004425  -0.017573  -0.188921   0.018602
  113  H   8  S   0.441402  -0.061165  -0.070512  -0.411124   0.035451
  114  H   8  S   0.083247   0.021653  -0.039286  -0.079896   0.002510
  115  H   8  X   0.003117  -0.001216  -0.005228  -0.002332   0.000681
  116  H   8  Y   0.004500   0.000099  -0.000042  -0.001100  -0.000443
  117  H   8  Z  -0.004467   0.002319  -0.006333  -0.006689  -0.000589
  118  H   8  X   0.056114  -0.025752  -0.004090  -0.044722   0.005325
  119  H   8  Y   0.051611  -0.006113  -0.016292  -0.064967   0.006336
  120  H   8  Z   0.014548   0.001193   0.016062   0.014756   0.001363
  121  H   9  S  -0.052367  -0.030993   0.180345   0.219924  -0.006245
  122  H   9  S  -0.115833  -0.012561   0.192789   0.433578  -0.023074
  123  H   9  S  -0.064943   0.006967   0.018919   0.080926   0.000353
  124  H   9  X  -0.005213  -0.000305  -0.002188   0.004117   0.000312
  125  H   9  Y  -0.004895   0.001272  -0.005771  -0.000656  -0.001014
  126  H   9  Z  -0.004343  -0.001541   0.003106   0.004694  -0.000954
  127  H   9  X   0.025247   0.000731   0.012360  -0.000603   0.001881
  128  H   9  Y   0.031867  -0.009766  -0.018771  -0.051538   0.002953
  129  H   9  Z  -0.009104  -0.006520   0.025155   0.081463  -0.005449
  130  H  10  S   0.146377   0.108863   0.008748  -0.019086  -0.005922
  131  H  10  S  -0.013620   0.042658  -0.024950   0.014210  -0.017388
  132  H  10  S   0.014001   0.006968   0.021951  -0.005570   0.017060
  133  H  10  X   0.019981   0.016353   0.006558  -0.005451   0.000410
  134  H  10  Y  -0.006880  -0.002920  -0.003508   0.003878   0.015717
  135  H  10  Z  -0.004516  -0.005632  -0.006682   0.000830   0.011462
  136  H  10  X  -0.014630  -0.015925  -0.001305  -0.001437  -0.001979
  137  H  10  Y  -0.011867   0.004799  -0.004696   0.004492   0.022182
  138  H  10  Z  -0.005348   0.010996  -0.021832   0.010200   0.014559
  139  F  11  S  -0.000092   0.000812   0.000211   0.000055  -0.000423
  140  F  11  S  -0.044027  -0.023488  -0.003225   0.004584  -0.000669
  141  F  11  S  -0.070436  -0.046227  -0.007299   0.006923   0.002644
  142  F  11  S   0.005736  -0.007122   0.019566  -0.008979   0.018651
  143  F  11  X  -0.239439  -0.208047  -0.041207   0.061645   0.135453
  144  F  11  Y   0.024148   0.011917   0.000549   0.003543   0.518328
  145  F  11  Z   0.039831  -0.019739  -0.014058  -0.012351   0.371597
  146  F  11  X  -0.129418  -0.114103  -0.023344   0.037523   0.084944
  147  F  11  Y   0.014645   0.005074   0.000653   0.001712   0.333309
  148  F  11  Z   0.023513  -0.016035  -0.004747  -0.008935   0.239291
  149  F  11  X  -0.038342  -0.027591  -0.012295   0.011951   0.013395
  150  F  11  Y   0.008374   0.002369   0.003063  -0.001819   0.080969
  151  F  11  Z   0.006362  -0.002999   0.009830  -0.008652   0.061225
  152  F  11 XX   0.004937   0.004188   0.000644  -0.000876  -0.001917
  153  F  11 YY  -0.002541  -0.001731  -0.000216   0.000429   0.001061
  154  F  11 ZZ  -0.002396  -0.002457  -0.000428   0.000447   0.000856
  155  F  11 XY  -0.000697  -0.000607  -0.000042  -0.000111  -0.004293
  156  F  11 XZ  -0.001129  -0.000308   0.000500   0.000187  -0.002975
  157  F  11 YZ   0.000317  -0.000148  -0.000055  -0.000129   0.000924
  158  F  11 XX  -0.004549  -0.002324  -0.002267   0.000210  -0.004363
  159  F  11 YY   0.002090   0.000581   0.000690  -0.000283   0.002093
  160  F  11 ZZ   0.002459   0.001744   0.001578   0.000073   0.002270
  161  F  11 XY  -0.000433   0.000709   0.000192   0.000443  -0.010512
  162  F  11 XZ  -0.000092   0.001657  -0.002000   0.000493  -0.007596
  163  F  11 YZ  -0.000504   0.000123   0.000013   0.000347   0.003156

                     16         17         18         19         20
                   -0.3575    -0.2907    -0.0505    -0.0141     0.0063
                     A          A          A          A          A   
    1  C   1  S  -0.000249   0.000191   0.000316   0.000475  -0.000469
    2  C   1  S   0.005619  -0.010847   0.006657  -0.094508  -0.070678
    3  C   1  S   0.044314   0.010743   0.036226  -0.381655  -0.217965
    4  C   1  S  -0.002662  -0.036261   0.128220  -2.174474   0.003011
    5  C   1  X   0.026895  -0.096980  -0.026645   0.014458   0.016320
    6  C   1  Y  -0.010028   0.031665  -0.000347   0.022110   0.045757
    7  C   1  Z  -0.014320   0.069109   0.017450  -0.060717  -0.031971
    8  C   1  X   0.013620   0.029554   0.021831   0.012742  -0.000589
    9  C   1  Y   0.007159  -0.004326  -0.023040   0.087616   0.204233
   10  C   1  Z  -0.017304  -0.016220  -0.003350  -0.239131  -0.184710
   11  C   1  X   0.004691   0.006430  -0.085039   0.197753  -0.125110
   12  C   1  Y  -0.003779  -0.014384   0.034631  -0.045252   0.497553
   13  C   1  Z  -0.011324   0.000081   0.020854   0.127866  -0.372608
   14  C   1 XX   0.000723  -0.008785  -0.007974   0.001712  -0.003900
   15  C   1 YY  -0.000895  -0.002427  -0.012844  -0.005374   0.004513
   16  C   1 ZZ   0.000171   0.011211   0.020817   0.003662  -0.000614
   17  C   1 XY   0.000401   0.006502   0.011478   0.000078   0.001111
   18  C   1 XZ   0.000968  -0.017232  -0.026514  -0.000072  -0.001029
   19  C   1 YZ  -0.001007   0.006631   0.006914   0.002969  -0.007252
   20  C   1 XX  -0.003604   0.017833   0.013204  -0.013748  -0.026073
   21  C   1 YY   0.004551  -0.014554  -0.013134  -0.004645   0.014879
   22  C   1 ZZ  -0.000947  -0.003279  -0.000070   0.018393   0.011194
   23  C   1 XY  -0.000546   0.016125   0.017651  -0.019960  -0.007784
   24  C   1 XZ   0.004135   0.003402  -0.001355   0.004607  -0.028354
   25  C   1 YZ  -0.003066  -0.017930  -0.007837  -0.021669  -0.049722
   26  C   2  S   0.000499  -0.001701  -0.000733   0.000596   0.001586
   27  C   2  S   0.005995   0.005017   0.042765  -0.030023   0.053060
   28  C   2  S   0.026610   0.060193   0.135627  -0.168209   0.172407
   29  C   2  S   0.007370  -0.103677   0.076342   0.990842   0.550841
   30  C   2  X  -0.000656   0.303457   0.380788   0.006531   0.026865
   31  C   2  Y  -0.007587  -0.092001  -0.185331  -0.090775   0.057822
   32  C   2  Z   0.001870  -0.130840  -0.210427  -0.009799   0.043716
   33  C   2  X  -0.023019   0.102228   0.312149  -0.042474  -0.032399
   34  C   2  Y   0.000652  -0.102466  -0.176555  -0.048926   0.164277
   35  C   2  Z  -0.038435  -0.146012  -0.192955  -0.173265  -0.131993
   36  C   2  X  -0.000277   0.040945   0.360461  -0.295857   0.040482
   37  C   2  Y  -0.003173  -0.010570  -0.179377  -0.716049   0.628772
   38  C   2  Z   0.003716   0.033145  -0.243505   0.147298  -0.835375
   39  C   2 XX  -0.000230  -0.017561   0.017590   0.005373   0.002365
   40  C   2 YY   0.000295   0.006565  -0.009292   0.001949  -0.007291
   41  C   2 ZZ  -0.000065   0.010996  -0.008297  -0.007322   0.004926
   42  C   2 XY   0.001513   0.008487  -0.001978  -0.002920  -0.003973
   43  C   2 XZ   0.001526  -0.011811   0.006528  -0.003480   0.004047
   44  C   2 YZ  -0.000618   0.016025  -0.014319   0.003880   0.004400
   45  C   2 XX   0.008647  -0.001578   0.009437   0.020593   0.027386
   46  C   2 YY  -0.007825  -0.011468   0.000606  -0.025974   0.045398
   47  C   2 ZZ  -0.000822   0.013046  -0.010043   0.005381  -0.072785
   48  C   2 XY   0.004725   0.017386   0.013097  -0.013554   0.046337
   49  C   2 XZ   0.008927   0.006526   0.006745   0.015940  -0.010900
   50  C   2 YZ   0.009246   0.042482   0.009656   0.030063   0.026043
   51  C   3  S   0.000270  -0.000843   0.003033   0.003102  -0.000607
   52  C   3  S  -0.002307   0.001235  -0.000996  -0.066954   0.038371
   53  C   3  S  -0.047614  -0.080656  -0.080566  -0.453493   0.145729
   54  C   3  S   0.000871   0.113545  -0.130270  -1.466290  -0.128429
   55  C   3  X   0.004271   0.256132  -0.236676   0.006378  -0.002821
   56  C   3  Y  -0.019517  -0.260277   0.175773   0.026055   0.060155
   57  C   3  Z   0.014086  -0.171535   0.119817   0.056831  -0.075197
   58  C   3  X  -0.009102   0.145821  -0.231052  -0.012171  -0.002643
   59  C   3  Y  -0.006748  -0.140244   0.197780  -0.007406   0.143468
   60  C   3  Z  -0.027747  -0.180048   0.091878   0.055959  -0.233732
   61  C   3  X   0.000452   0.051398  -0.298328  -0.022845  -0.222630
   62  C   3  Y   0.001145  -0.006488   0.200604   0.208066   0.041298
   63  C   3  Z  -0.002800  -0.000013   0.129751  -0.067983  -0.549366
   64  C   3 XX   0.000996   0.017176   0.024118   0.000919  -0.000874
   65  C   3 YY  -0.000801  -0.000451  -0.006440  -0.000619  -0.000966
   66  C   3 ZZ  -0.000196  -0.016725  -0.017678  -0.000300   0.001840
   67  C   3 XY   0.000512  -0.001713   0.009100  -0.007079  -0.000074
   68  C   3 XZ  -0.001043   0.003044   0.014769  -0.001326   0.000010
   69  C   3 YZ   0.000731  -0.002945  -0.015289  -0.006304   0.001789
   70  C   3 XX  -0.000553   0.001917   0.018790   0.001702   0.008719
   71  C   3 YY   0.003543   0.016223  -0.003356  -0.009846   0.011233
   72  C   3 ZZ  -0.002991  -0.018140  -0.015434   0.008144  -0.019952
   73  C   3 XY  -0.001841  -0.007223   0.010098  -0.028431   0.017522
   74  C   3 XZ  -0.006200  -0.007600   0.021238  -0.019673  -0.007554
   75  C   3 YZ  -0.011434   0.000273  -0.003382  -0.001994   0.000313
   76  H   4  S  -0.024482   0.129031   0.110470   0.005266  -0.019820
   77  H   4  S  -0.005853   0.207152   0.194276   0.396414   0.145073
   78  H   4  S   0.007754   0.029914   0.162080   0.835355   0.616303
   79  H   4  X  -0.000104  -0.000673  -0.001444  -0.004264  -0.001844
   80  H   4  Y   0.000467  -0.000800  -0.002069   0.005463   0.002145
   81  H   4  Z   0.000932  -0.002035   0.003308   0.006352   0.006167
   82  H   4  X  -0.000433   0.018080   0.002382   0.011460   0.013010
   83  H   4  Y  -0.003401  -0.011522  -0.019647  -0.015564  -0.035320
   84  H   4  Z   0.002790  -0.024368   0.009244  -0.018487  -0.010971
   85  H   5  S   0.023803  -0.110999  -0.094338   0.003189  -0.009133
   86  H   5  S  -0.009961  -0.165243  -0.175319   0.271094   0.252362
   87  H   5  S   0.002044  -0.024240  -0.124916   0.065758   0.624377
   88  H   5  X  -0.000801   0.000668  -0.002262   0.007348   0.004038
   89  H   5  Y  -0.000082   0.000198   0.001490   0.000261  -0.000390
   90  H   5  Z  -0.001091   0.003968  -0.001855   0.000274   0.002376
   91  H   5  X   0.007551   0.026509   0.005055  -0.017591  -0.043057
   92  H   5  Y  -0.000682  -0.006724   0.002797   0.020410  -0.021177
   93  H   5  Z   0.004411   0.006866  -0.018082   0.013063   0.015523
   94  H   6  S   0.002501   0.001354  -0.014553  -0.019198   0.011348
   95  H   6  S   0.005454   0.015014  -0.060209   0.289186   0.274752
   96  H   6  S  -0.000295  -0.012234  -0.044764   0.349283   1.503149
   97  H   6  X   0.001008  -0.003318  -0.001101  -0.003409  -0.003241
   98  H   6  Y   0.000263   0.000715   0.002062  -0.006116  -0.008132
   99  H   6  Z  -0.000367   0.001222   0.002376  -0.003240   0.000801
  100  H   6  X   0.002115   0.007114  -0.004351  -0.009579  -0.001492
  101  H   6  Y   0.003378  -0.000960  -0.001561   0.018934  -0.019775
  102  H   6  Z  -0.000478  -0.007178   0.002900   0.012332   0.007994
  103  H   7  S  -0.001491   0.048783  -0.041047  -0.025666  -0.023387
  104  H   7  S   0.005947   0.093301  -0.072872   0.184031  -0.469521
  105  H   7  S  -0.000956   0.007073  -0.081353   0.870836  -1.576226
  106  H   7  X   0.000100   0.010314   0.017499   0.003714  -0.002513
  107  H   7  Y   0.000324  -0.004947  -0.009792   0.005542  -0.008735
  108  H   7  Z   0.000065  -0.005452  -0.011187   0.000785   0.003373
  109  H   7  X  -0.003570  -0.000220   0.030135   0.001903   0.020185
  110  H   7  Y  -0.000791  -0.015154  -0.014878   0.002908   0.013324
  111  H   7  Z  -0.003662  -0.016451  -0.032050   0.011789   0.065526
  112  H   8  S   0.009879   0.024595   0.061746  -0.034938  -0.008437
  113  H   8  S   0.011638   0.038020   0.073614   0.230145   0.059198
  114  H   8  S   0.000688   0.032824   0.028040   0.572703  -0.011610
  115  H   8  X   0.000706   0.010371  -0.011633  -0.005430   0.000757
  116  H   8  Y  -0.000006  -0.009982   0.011044  -0.004158   0.001083
  117  H   8  Z   0.000234  -0.005540   0.006982   0.003953  -0.002667
  118  H   8  X   0.003062   0.007244  -0.032098   0.014456   0.019781
  119  H   8  Y   0.003042   0.002852   0.019600   0.009705  -0.001697
  120  H   8  Z  -0.005673  -0.000623   0.021392  -0.001325   0.052379
  121  H   9  S  -0.022226  -0.037683   0.011346   0.010400   0.015119
  122  H   9  S  -0.043392  -0.067962   0.002598   0.253108  -0.384265
  123  H   9  S  -0.000787  -0.000421  -0.003824   0.369524  -1.485513
  124  H   9  X   0.000235   0.008932  -0.011155  -0.000801  -0.000611
  125  H   9  Y   0.000049  -0.008749   0.007548   0.006873  -0.005670
  126  H   9  Z  -0.000725  -0.006814   0.007762  -0.003782   0.005653
  127  H   9  X  -0.001522   0.009235  -0.016377   0.000166  -0.015326
  128  H   9  Y   0.004444  -0.001909   0.020780  -0.000110   0.001529
  129  H   9  Z  -0.007577  -0.017173   0.011298   0.025458  -0.044269
  130  H  10  S  -0.000558   0.016027  -0.104571   0.036171  -0.009869
  131  H  10  S   0.001510  -0.015798  -0.093983   0.092774  -0.021259
  132  H  10  S  -0.008576  -0.020317  -0.088152  -0.004192  -0.030256
  133  H  10  X  -0.000894  -0.032658   0.022922  -0.002073   0.000765
  134  H  10  Y   0.010874   0.009076   0.001035  -0.001271   0.000681
  135  H  10  Z  -0.014873   0.008368   0.006453   0.001778  -0.000597
  136  H  10  X  -0.002719  -0.006113   0.046961   0.006120   0.000903
  137  H  10  Y   0.019173  -0.005346   0.017811  -0.021202  -0.019842
  138  H  10  Z  -0.021579   0.003074   0.025148   0.001419   0.024415
  139  F  11  S   0.000099  -0.001843   0.002149  -0.001657   0.000320
  140  F  11  S   0.000770  -0.017569   0.023160  -0.031889   0.009046
  141  F  11  S   0.000838  -0.022445   0.034264  -0.066364   0.021315
  142  F  11  S  -0.000827   0.018762   0.001388  -0.086553   0.001866
  143  F  11  X  -0.019126   0.217447  -0.106222   0.036588  -0.009658
  144  F  11  Y   0.390470  -0.108919  -0.032902  -0.002646   0.026055
  145  F  11  Z  -0.532059  -0.088960  -0.051012  -0.018713  -0.017888
  146  F  11  X  -0.012137   0.131978  -0.072588   0.033290  -0.007560
  147  F  11  Y   0.250676  -0.070855  -0.024244  -0.000127   0.019972
  148  F  11  Z  -0.342519  -0.058969  -0.038112  -0.011824  -0.012629
  149  F  11  X  -0.002722   0.029912  -0.044523   0.019798  -0.002151
  150  F  11  Y   0.058037  -0.017991  -0.021919   0.007074  -0.005124
  151  F  11  Z  -0.082639  -0.015344  -0.032548  -0.022403  -0.017335
  152  F  11 XX   0.000313  -0.001512  -0.002193  -0.000024  -0.000004
  153  F  11 YY   0.000624   0.000862   0.000994  -0.000020   0.000144
  154  F  11 ZZ  -0.000936   0.000650   0.001200   0.000045  -0.000140
  155  F  11 XY  -0.003366   0.000455   0.000122   0.000233  -0.000063
  156  F  11 XZ   0.004447   0.000372  -0.000322  -0.000104  -0.000047
  157  F  11 YZ  -0.000040   0.000118   0.000513   0.000056   0.000063
  158  F  11 XX   0.001009   0.003884  -0.003965  -0.001474   0.000373
  159  F  11 YY   0.002297  -0.002178   0.001807   0.000460  -0.001182
  160  F  11 ZZ  -0.003306  -0.001706   0.002158   0.001014   0.000809
  161  F  11 XY  -0.007965   0.001544   0.000805  -0.000122  -0.000902
  162  F  11 XZ   0.011205   0.001409   0.000983   0.001101   0.000740
  163  F  11 YZ  -0.000178  -0.000192   0.002148  -0.000663  -0.000171

                     21         22         23         24         25
                    0.0075     0.0236     0.0347     0.0417     0.0454
                     A          A          A          A          A   
    1  C   1  S  -0.000665  -0.000450  -0.003090  -0.001813  -0.004020
    2  C   1  S  -0.022372   0.021009   0.016955   0.000118  -0.007787
    3  C   1  S  -0.063895   0.154998   0.126990   0.106559   0.129399
    4  C   1  S   0.270339  -0.797991   0.565616   0.689829   4.620210
    5  C   1  X  -0.034940   0.104493   0.015625  -0.065448   0.073872
    6  C   1  Y  -0.057067  -0.056558   0.063685  -0.083132  -0.012916
    7  C   1  Z  -0.064233  -0.030420   0.006255  -0.029832  -0.006895
    8  C   1  X  -0.040649   0.225456  -0.013181  -0.138222   0.133598
    9  C   1  Y  -0.016979  -0.235834  -0.075081  -0.227066  -0.041728
   10  C   1  Z  -0.154799  -0.162605   0.256806  -0.030906   0.028596
   11  C   1  X   0.100766   0.924053   0.106206  -1.110303   0.575350
   12  C   1  Y   0.147953  -1.069283   0.937845  -1.431574   0.431069
   13  C   1  Z  -0.395579  -0.558991   0.237014  -0.896134  -1.511750
   14  C   1 XX  -0.002108   0.003582   0.006473   0.001494  -0.001006
   15  C   1 YY   0.000397   0.000330  -0.000218   0.000461   0.000913
   16  C   1 ZZ   0.001711  -0.003912  -0.006255  -0.001955   0.000092
   17  C   1 XY   0.002228   0.001711   0.002477   0.000069  -0.003402
   18  C   1 XZ   0.001443   0.002440  -0.002841  -0.000335  -0.011233
   19  C   1 YZ   0.001655  -0.001228   0.012687   0.005862   0.005074
   20  C   1 XX  -0.012622  -0.017172   0.021784   0.060397  -0.019748
   21  C   1 YY  -0.005246   0.056369  -0.012639  -0.000169   0.005951
   22  C   1 ZZ   0.017868  -0.039197  -0.009145  -0.060228   0.013797
   23  C   1 XY  -0.024770  -0.017609   0.000520  -0.008730   0.009944
   24  C   1 XZ   0.003348   0.027462   0.015983  -0.080430   0.017266
   25  C   1 YZ  -0.022627   0.002056   0.089241  -0.029340   0.012971
   26  C   2  S  -0.001981   0.000536  -0.005024  -0.000948   0.001085
   27  C   2  S  -0.045312  -0.001563  -0.080005  -0.000793  -0.019809
   28  C   2  S  -0.056296   0.024085  -0.062921   0.046143  -0.263255
   29  C   2  S   0.272671  -0.506041  -1.660650  -3.106745  -4.212418
   30  C   2  X  -0.009447  -0.008967   0.008658   0.012658   0.044159
   31  C   2  Y  -0.066737   0.029491  -0.026966   0.038652   0.015993
   32  C   2  Z   0.018606  -0.000272  -0.032565  -0.026195   0.004027
   33  C   2  X  -0.197042   0.035746  -0.079236  -0.085280   0.065779
   34  C   2  Y  -0.110325   0.078586  -0.207816  -0.118690  -0.066688
   35  C   2  Z  -0.277516  -0.028462  -0.017177  -0.044256   0.135607
   36  C   2  X  -0.708500   0.199439  -0.827678   1.015864  -0.172823
   37  C   2  Y  -0.463233  -0.341585  -2.058599   0.987606   2.506411
   38  C   2  Z  -0.977904   1.214877   0.317133   1.844917  -1.490576
   39  C   2 XX  -0.000359  -0.007969  -0.001512   0.003869   0.007437
   40  C   2 YY   0.004280   0.005140  -0.003736  -0.000846  -0.002124
   41  C   2 ZZ  -0.003922   0.002829   0.005248  -0.003023  -0.005312
   42  C   2 XY   0.005474  -0.005320  -0.001994  -0.004256  -0.010209
   43  C   2 XZ   0.003094   0.001691   0.004065  -0.004886   0.001170
   44  C   2 YZ   0.004424   0.003521  -0.004431  -0.003910  -0.002441
   45  C   2 XX   0.018035  -0.001627  -0.022551   0.000192   0.013085
   46  C   2 YY  -0.057146  -0.002892  -0.144462   0.002111   0.036578
   47  C   2 ZZ   0.039111   0.004519   0.167013  -0.002303  -0.049664
   48  C   2 XY  -0.014143  -0.008575  -0.121427  -0.011404  -0.020625
   49  C   2 XZ   0.058181  -0.007590   0.063085  -0.017143  -0.053676
   50  C   2 YZ  -0.001084   0.013053  -0.099336   0.022074   0.016260
   51  C   3  S  -0.000154  -0.001297  -0.001378   0.000425  -0.004659
   52  C   3  S   0.068178   0.005970   0.018755  -0.013401  -0.009094
   53  C   3  S   0.170261   0.033543  -0.011681  -0.194200   0.185069
   54  C   3  S  -0.365952   1.504142  -0.087299   2.793012   0.784415
   55  C   3  X  -0.029376   0.083243   0.004812  -0.030634  -0.118164
   56  C   3  Y  -0.044692  -0.037951   0.093889   0.072274   0.048159
   57  C   3  Z  -0.036077  -0.061550  -0.022999  -0.022675   0.037920
   58  C   3  X  -0.249387   0.107771  -0.011829  -0.008482  -0.086060
   59  C   3  Y  -0.232661   0.057351   0.092693   0.181485   0.078150
   60  C   3  Z  -0.249630  -0.092018  -0.192228  -0.110200   0.168471
   61  C   3  X  -0.512871   0.915443   0.669114   0.681022  -1.261272
   62  C   3  Y  -0.463723   0.827802   1.790722   1.110499  -1.025823
   63  C   3  Z  -0.530527   0.104596  -1.084490   0.073578   0.753420
   64  C   3 XX  -0.001577   0.001176   0.002906   0.005706   0.003303
   65  C   3 YY   0.001766   0.000113   0.004281  -0.003705   0.003083
   66  C   3 ZZ  -0.000189  -0.001290  -0.007186  -0.002001  -0.006387
   67  C   3 XY  -0.001495  -0.003028  -0.001679  -0.002576  -0.004862
   68  C   3 XZ  -0.004164  -0.000399  -0.006258  -0.000384  -0.005848
   69  C   3 YZ  -0.006308   0.005273  -0.002514   0.009154   0.001676
   70  C   3 XX  -0.009405  -0.050604  -0.046458  -0.007633   0.052837
   71  C   3 YY   0.012647   0.017387  -0.038435   0.008816  -0.005720
   72  C   3 ZZ  -0.003243   0.033217   0.084893  -0.001183  -0.047117
   73  C   3 XY  -0.024892   0.000200  -0.118264  -0.014649   0.022182
   74  C   3 XZ  -0.013505  -0.011955  -0.024818  -0.037535   0.024203
   75  C   3 YZ  -0.048383  -0.052300  -0.122095  -0.022647   0.073462
   76  H   4  S  -0.009514  -0.021241   0.015735   0.008338   0.036771
   77  H   4  S   0.120384   0.458699  -0.411698   0.054643   0.059114
   78  H   4  S   1.079582   3.367379  -2.363635   1.583589   2.326430
   79  H   4  X  -0.003251  -0.000314  -0.000160  -0.004165  -0.001930
   80  H   4  Y   0.001936   0.001700   0.005035   0.001005   0.003962
   81  H   4  Z   0.004149   0.001832  -0.004917  -0.000129   0.003540
   82  H   4  X   0.027717  -0.002532  -0.052222   0.081563  -0.075889
   83  H   4  Y   0.033272  -0.044934   0.042313   0.060959   0.006684
   84  H   4  Z   0.015083  -0.048783   0.027113   0.019731   0.000804
   85  H   5  S  -0.015215   0.025917   0.005740  -0.001770  -0.012040
   86  H   5  S   0.050302  -0.307353  -0.232577   0.124413  -0.255161
   87  H   5  S   0.418908  -2.683880  -1.022338   2.573513  -2.271843
   88  H   5  X   0.004725  -0.005281   0.000709   0.003979  -0.004662
   89  H   5  Y  -0.001505   0.000169   0.005790  -0.002799  -0.002252
   90  H   5  Z   0.000784  -0.003609  -0.005257  -0.001678  -0.005725
   91  H   5  X   0.009365   0.002563   0.057006  -0.006601   0.031328
   92  H   5  Y   0.042749   0.039383   0.000284   0.070453  -0.006692
   93  H   5  Z   0.017153   0.050493  -0.026125   0.053771  -0.068457
   94  H   6  S   0.018573   0.005587   0.004383   0.011994  -0.016613
   95  H   6  S   0.058949  -0.384525  -0.078183  -0.385202  -0.138243
   96  H   6  S  -0.322413  -1.577556   1.535796  -5.546030   1.189987
   97  H   6  X   0.001599   0.002939  -0.003219   0.000554   0.003192
   98  H   6  Y   0.002726  -0.000417  -0.001346   0.006326  -0.004762
   99  H   6  Z  -0.001597  -0.002673  -0.005457  -0.002896  -0.000840
  100  H   6  X   0.010433  -0.122477  -0.028114   0.008958   0.008914
  101  H   6  Y   0.039974  -0.027164  -0.048415  -0.028404  -0.003607
  102  H   6  Z   0.035027   0.049523  -0.010554  -0.092467  -0.025869
  103  H   7  S   0.019075   0.007266  -0.018830  -0.005745  -0.014734
  104  H   7  S   0.443602  -0.161494   0.807318   0.303188   0.223115
  105  H   7  S   1.782328  -0.036587   3.903282  -1.748043  -2.047822
  106  H   7  X   0.004278  -0.005241   0.004642  -0.000542  -0.002782
  107  H   7  Y   0.006641   0.001235   0.006667  -0.003517  -0.000775
  108  H   7  Z   0.003277   0.002300   0.001129   0.001844  -0.001510
  109  H   7  X  -0.000572  -0.031793  -0.010444  -0.011190  -0.013754
  110  H   7  Y  -0.034372   0.056295  -0.091930  -0.137235  -0.114309
  111  H   7  Z   0.067448   0.021401   0.005788  -0.018853  -0.049554
  112  H   8  S   0.011509  -0.008927  -0.012174  -0.025924   0.000211
  113  H   8  S  -0.577117   0.139368   0.457906   0.325440  -0.136270
  114  H   8  S  -2.151385   2.315300   2.953985   3.491872  -4.079790
  115  H   8  X   0.006604   0.001644  -0.003970  -0.006598  -0.002403
  116  H   8  Y   0.006737  -0.002773  -0.000437   0.002141   0.005266
  117  H   8  Z  -0.000807  -0.003420   0.001658  -0.003281   0.003215
  118  H   8  X  -0.057285  -0.012520   0.004020   0.052740   0.093001
  119  H   8  Y  -0.045133   0.048007  -0.002911   0.060277  -0.013561
  120  H   8  Z   0.037035  -0.050527  -0.032544  -0.035533   0.056156
  121  H   9  S   0.021886  -0.013076  -0.002221  -0.030980  -0.021522
  122  H   9  S  -0.193414  -0.405985  -0.684344  -0.319367   0.281710
  123  H   9  S  -0.649768  -0.692896  -4.348321  -2.073125   0.756379
  124  H   9  X   0.001459   0.001772   0.003176  -0.003833  -0.004206
  125  H   9  Y  -0.003515  -0.002112   0.001512  -0.003598   0.001814
  126  H   9  Z   0.005636   0.000272   0.008886   0.002436   0.004008
  127  H   9  X   0.036567  -0.030909   0.026029  -0.009224   0.069433
  128  H   9  Y   0.056237  -0.002607   0.087877  -0.032088  -0.013681
  129  H   9  Z  -0.002029  -0.046953  -0.022444  -0.017203   0.018728
  130  H  10  S  -0.023025  -0.007909   0.028837   0.061124   0.088340
  131  H  10  S  -0.102512  -0.085115   0.078057   0.148798   0.303580
  132  H  10  S  -0.385951  -0.989014   0.155415   1.475950   3.243547
  133  H  10  X   0.001132  -0.005933  -0.000984  -0.002755  -0.002353
  134  H  10  Y   0.000540   0.002572  -0.000574  -0.000270  -0.003497
  135  H  10  Z   0.000068   0.002475   0.000792  -0.001963   0.001324
  136  H  10  X   0.022125  -0.045270   0.053422   0.006004  -0.002891
  137  H  10  Y   0.026026   0.007418  -0.028685  -0.024812  -0.016429
  138  H  10  Z   0.013538  -0.023642   0.005127   0.006337  -0.014411
  139  F  11  S   0.000731   0.001219  -0.001187  -0.002550  -0.003883
  140  F  11  S   0.015340   0.037021  -0.017288  -0.041439  -0.066700
  141  F  11  S   0.032997   0.091976  -0.034500  -0.086120  -0.141956
  142  F  11  S   0.034410   0.109864  -0.197757  -0.101394  -0.191896
  143  F  11  X  -0.037884   0.016398   0.014898   0.032616   0.064228
  144  F  11  Y  -0.016794   0.001234   0.003842   0.009046   0.022615
  145  F  11  Z  -0.017711   0.009085  -0.021080  -0.007952   0.012844
  146  F  11  X  -0.032488  -0.002048   0.019942   0.036258   0.068181
  147  F  11  Y  -0.014411   0.001037   0.003202   0.005495   0.008844
  148  F  11  Z  -0.009217   0.013152  -0.018879  -0.007753  -0.000723
  149  F  11  X  -0.008908   0.049858   0.062975  -0.017990  -0.019643
  150  F  11  Y  -0.010851  -0.014337   0.018173   0.052234   0.103202
  151  F  11  Z  -0.039571  -0.062646  -0.004264   0.028683   0.118089
  152  F  11 XX  -0.000059   0.000519   0.000318   0.000596   0.000491
  153  F  11 YY  -0.000014  -0.000530  -0.000283  -0.000499  -0.000326
  154  F  11 ZZ   0.000073   0.000011  -0.000036  -0.000097  -0.000165
  155  F  11 XY  -0.000175  -0.000368   0.000183   0.000138   0.000317
  156  F  11 XZ  -0.000140  -0.000339  -0.000117   0.000109  -0.000158
  157  F  11 YZ  -0.000059  -0.000023  -0.000178  -0.000076  -0.000189
  158  F  11 XX   0.001222   0.002916  -0.000644   0.000139  -0.002663
  159  F  11 YY  -0.000675  -0.000599   0.002467  -0.001006   0.001483
  160  F  11 ZZ  -0.000547  -0.002317  -0.001823   0.000866   0.001180
  161  F  11 XY   0.001192   0.000117   0.000268  -0.001364  -0.001453
  162  F  11 XZ   0.000889  -0.001870   0.000193   0.000939  -0.002671
  163  F  11 YZ   0.000314  -0.000022   0.001355   0.002536   0.000266

                     26         27         28         29         30
                    0.0659     0.0768     0.0844     0.0942     0.1008
                     A          A          A          A          A   
    1  C   1  S   0.005433   0.009215   0.017000  -0.005013  -0.022032
    2  C   1  S   0.027901   0.043908   0.093447  -0.089001  -0.134342
    3  C   1  S  -0.148388  -0.275313  -0.533804  -0.026075   0.582563
    4  C   1  S  -5.207646  -5.602146  -7.235170 -11.849897   1.827370
    5  C   1  X   0.023565  -0.022473   0.016523   0.028544   0.016796
    6  C   1  Y  -0.029679  -0.030619  -0.007954   0.011166  -0.001344
    7  C   1  Z  -0.014889   0.042819   0.026493   0.020837  -0.047769
    8  C   1  X   0.277346   0.270183  -0.480354  -0.165003   0.053599
    9  C   1  Y   0.101968   0.015715  -0.258261  -0.089084  -0.500592
   10  C   1  Z   0.017503  -0.053450  -0.071636   0.076395   0.921456
   11  C   1  X   1.057574   2.552084  -1.260107  -0.707837  -0.219857
   12  C   1  Y  -0.308080  -0.740700  -1.329948  -2.458242  -1.523548
   13  C   1  Z   2.287446   1.667514   2.748775   3.924862   2.796197
   14  C   1 XX  -0.010822  -0.017570   0.007073  -0.000660   0.004227
   15  C   1 YY   0.001378   0.002501  -0.008024   0.011078  -0.009263
   16  C   1 ZZ   0.009444   0.015070   0.000951  -0.010418   0.005036
   17  C   1 XY   0.006028  -0.008739  -0.006436   0.007110  -0.005417
   18  C   1 XZ   0.001089  -0.008236   0.005782  -0.000030  -0.001730
   19  C   1 YZ  -0.002900  -0.004555  -0.024302  -0.008538   0.005525
   20  C   1 XX   0.027952   0.066153  -0.140918   0.023445   0.078714
   21  C   1 YY  -0.041400  -0.043660   0.101435  -0.099505   0.098384
   22  C   1 ZZ   0.013448  -0.022492   0.039483   0.076060  -0.177099
   23  C   1 XY  -0.058392  -0.089650   0.029961   0.013580   0.047008
   24  C   1 XZ   0.028108   0.101904  -0.023876  -0.024782  -0.063950
   25  C   1 YZ   0.020383  -0.090055   0.011487   0.125883   0.130802
   26  C   2  S   0.000639  -0.000910   0.002620  -0.001956  -0.031854
   27  C   2  S   0.040417   0.056855   0.049913   0.039962  -0.054778
   28  C   2  S   0.142942   0.103128   0.013898   0.252225   1.391946
   29  C   2  S   8.739697  15.708569  13.148810   3.734619   5.213152
   30  C   2  X  -0.040589   0.069798  -0.044174   0.019557  -0.016665
   31  C   2  Y  -0.034620  -0.013553   0.070023   0.065275  -0.085100
   32  C   2  Z  -0.020735  -0.009151   0.084607   0.040258   0.053590
   33  C   2  X  -0.002382   0.076911   0.101864  -0.165416   0.019959
   34  C   2  Y   0.033751   0.027193   0.227536  -0.182013  -0.294370
   35  C   2  Z   0.085237  -0.232254   0.005274  -0.079055   0.455429
   36  C   2  X  -0.746598  -4.787919  -1.132415   2.805379   0.339388
   37  C   2  Y  -2.647229  -3.411105  -5.364208  -5.033990  -0.755456
   38  C   2  Z   0.743010  -1.182839  -1.543958   8.828156   0.532313
   39  C   2 XX   0.003350  -0.001060   0.001887   0.008033   0.005641
   40  C   2 YY  -0.000100   0.002932  -0.006411  -0.012026   0.003496
   41  C   2 ZZ  -0.003250  -0.001872   0.004524   0.003993  -0.009137
   42  C   2 XY   0.004634  -0.009193  -0.000711  -0.005531  -0.006348
   43  C   2 XZ   0.009660  -0.002932  -0.005702   0.005391  -0.005799
   44  C   2 YZ  -0.008556   0.007406  -0.003139   0.010856   0.001599
   45  C   2 XX   0.018899  -0.127561  -0.076794   0.012041  -0.070662
   46  C   2 YY  -0.002912  -0.017191  -0.100174  -0.282432   0.168190
   47  C   2 ZZ  -0.015987   0.144752   0.176968   0.270391  -0.097528
   48  C   2 XY   0.074565  -0.108444  -0.115610  -0.012637   0.098380
   49  C   2 XZ   0.053834   0.112460  -0.009999   0.180565  -0.020158
   50  C   2 YZ  -0.023421  -0.039971  -0.229526   0.229436  -0.107482
   51  C   3  S   0.008268   0.014326   0.006683   0.004838  -0.026858
   52  C   3  S   0.034083   0.036333   0.015414   0.080259  -0.134305
   53  C   3  S  -0.341338  -0.531157  -0.343730  -0.311771   0.918279
   54  C   3  S  -4.427282 -11.979640  -9.017056   7.357332   3.530421
   55  C   3  X  -0.057041  -0.032390   0.016841   0.016032  -0.041881
   56  C   3  Y   0.075519   0.004779  -0.046435   0.019932   0.028432
   57  C   3  Z   0.062073  -0.038702  -0.066176  -0.070323   0.066616
   58  C   3  X   0.289662  -0.305272   0.264422  -0.470567  -0.392697
   59  C   3  Y  -0.036260  -0.036780  -0.053346  -0.318740   0.090985
   60  C   3  Z   0.001114   0.041294   0.066283  -0.088231  -0.442781
   61  C   3  X  -0.057806  -2.646364  -1.375204   0.816214  -0.167479
   62  C   3  Y  -0.479494  -0.173253   1.652887   2.084032   0.244488
   63  C   3  Z  -2.052294  -3.920978  -2.144565   1.488805  -0.867784
   64  C   3 XX  -0.008597   0.005870   0.007514   0.009656  -0.000740
   65  C   3 YY  -0.002627   0.001297  -0.005460  -0.009479  -0.002125
   66  C   3 ZZ   0.011224  -0.007168  -0.002055  -0.000177   0.002865
   67  C   3 XY   0.014872  -0.009234   0.004998  -0.009437  -0.019168
   68  C   3 XZ   0.013847   0.007477  -0.008105  -0.004335  -0.009703
   69  C   3 YZ  -0.004781   0.013383   0.008516   0.013888  -0.002799
   70  C   3 XX   0.072799   0.010516  -0.093507  -0.066148  -0.021340
   71  C   3 YY  -0.045210  -0.134797  -0.099913   0.033090   0.099815
   72  C   3 ZZ  -0.027589   0.124281   0.193419   0.033057  -0.078475
   73  C   3 XY  -0.113457  -0.068077  -0.203355  -0.003117   0.130087
   74  C   3 XZ   0.027052   0.055004   0.031815  -0.006900  -0.064489
   75  C   3 YZ   0.151946  -0.004064  -0.052130  -0.051502  -0.106409
   76  H   4  S  -0.011083   0.047973  -0.061697  -0.046043  -0.008247
   77  H   4  S   0.170337   0.757956   0.091045  -0.502069  -1.179633
   78  H   4  S   0.156187  -0.427529  -0.473742  -3.042148  -2.327268
   79  H   4  X   0.004689   0.006296   0.001463  -0.003414  -0.009722
   80  H   4  Y  -0.002034  -0.004511  -0.017263   0.004676   0.007396
   81  H   4  Z   0.005989  -0.005640  -0.001971   0.002010   0.015492
   82  H   4  X   0.045407   0.087303   0.001524  -0.052455  -0.134827
   83  H   4  Y  -0.059118  -0.090310  -0.067102   0.083116   0.133404
   84  H   4  Z  -0.016765   0.004556  -0.095538   0.114878   0.236609
   85  H   5  S  -0.041764  -0.081605   0.058918  -0.004453  -0.001106
   86  H   5  S  -0.512386  -0.741433   1.471590   0.292982  -0.890266
   87  H   5  S  -2.831014  -1.953383   0.714457  -2.067750  -1.492698
   88  H   5  X  -0.005350  -0.004607  -0.014701   0.003951   0.013314
   89  H   5  Y   0.002969  -0.008759  -0.003717   0.004426  -0.002220
   90  H   5  Z   0.000954   0.003770  -0.000582  -0.001902   0.003514
   91  H   5  X   0.070863   0.103663  -0.268430  -0.022156   0.198581
   92  H   5  Y  -0.007523  -0.003144   0.045187  -0.014556  -0.031086
   93  H   5  Z   0.050784   0.029907  -0.042798   0.047263   0.031068
   94  H   6  S   0.028857  -0.007104  -0.068386   0.056492  -0.044973
   95  H   6  S   0.712201   0.687887  -0.705937   0.255144  -1.452669
   96  H   6  S   0.721453   1.676189  -2.005565  -1.281255  -1.925559
   97  H   6  X   0.005117   0.012463   0.000950  -0.004183  -0.005276
   98  H   6  Y   0.005511   0.005997   0.006656  -0.010133  -0.011411
   99  H   6  Z   0.002791   0.004681   0.008309   0.004587  -0.002926
  100  H   6  X   0.007165   0.102199  -0.075639   0.026599  -0.135379
  101  H   6  Y   0.105335   0.109204  -0.071725  -0.049579  -0.272558
  102  H   6  Z   0.053954   0.036078   0.109061   0.140944  -0.093454
  103  H   7  S  -0.000324  -0.013812   0.002052  -0.029042  -0.010701
  104  H   7  S  -0.334377  -0.090240  -0.124467   0.704107  -1.161898
  105  H   7  S   3.215667   5.189978   5.375041   3.509151   1.607640
  106  H   7  X   0.005263  -0.008051  -0.002551   0.001964   0.004551
  107  H   7  Y  -0.001915  -0.002602  -0.007411  -0.012937   0.009099
  108  H   7  Z   0.002763   0.003527  -0.007771   0.014413  -0.001404
  109  H   7  X  -0.025809   0.089727   0.018635  -0.137926   0.091439
  110  H   7  Y   0.124618  -0.030022   0.082475  -0.138769   0.283606
  111  H   7  Z  -0.017704   0.009569   0.172554  -0.199593   0.060982
  112  H   8  S   0.015917  -0.016058   0.028164  -0.052828  -0.060289
  113  H   8  S   0.641777   0.434648   1.190360  -1.050729  -1.596415
  114  H   8  S   0.807867  -1.291425   1.778734   0.523678   0.607173
  115  H   8  X  -0.002667   0.001151  -0.002603   0.001219  -0.006385
  116  H   8  Y  -0.000163   0.006522   0.002840   0.008543  -0.004256
  117  H   8  Z  -0.003822  -0.009719  -0.004352  -0.000197   0.003348
  118  H   8  X   0.011854   0.116316   0.047961  -0.135069  -0.237414
  119  H   8  Y   0.092793  -0.055212   0.172582  -0.111295  -0.206767
  120  H   8  Z   0.117992  -0.081664  -0.108952  -0.071614   0.007453
  121  H   9  S   0.028259  -0.051731  -0.037543  -0.018481   0.000393
  122  H   9  S   0.543291   0.228161  -0.189325   0.169410  -1.411256
  123  H   9  S  -1.326653  -2.913228  -3.281549   2.050419  -2.720616
  124  H   9  X  -0.000950  -0.006409   0.004761  -0.005837  -0.002830
  125  H   9  Y  -0.003721  -0.006079  -0.001502  -0.015517   0.009979
  126  H   9  Z  -0.002969   0.006902   0.005828   0.008602  -0.012516
  127  H   9  X  -0.004032   0.032798   0.087700   0.087686  -0.130540
  128  H   9  Y   0.012056   0.009784   0.000444  -0.138901   0.178142
  129  H   9  Z   0.123659   0.126590  -0.005121   0.137990  -0.309208
  130  H  10  S  -0.098221   0.023275   0.044759   0.044396   0.128067
  131  H  10  S  -0.101314  -0.044595   0.281812   0.039560  -0.050197
  132  H  10  S   0.196291   0.834266   0.419111   0.954584  -0.219977
  133  H  10  X   0.014628  -0.001182   0.000244  -0.005598  -0.018841
  134  H  10  Y  -0.007441  -0.000341   0.006113   0.001686   0.001612
  135  H  10  Z  -0.006410   0.004012  -0.000997   0.000346   0.003797
  136  H  10  X   0.496103  -0.318292   0.215545  -0.088309  -0.186408
  137  H  10  Y  -0.098396   0.041217  -0.072736   0.038549   0.028295
  138  H  10  Z  -0.046123   0.024240  -0.139624  -0.026479   0.015547
  139  F  11  S   0.003897  -0.000662  -0.003094  -0.001523  -0.005304
  140  F  11  S   0.027314   0.000504  -0.024227  -0.011749  -0.042344
  141  F  11  S   0.008843   0.022670  -0.031225  -0.009541  -0.047212
  142  F  11  S  -0.856224   0.585434  -0.876204   0.077556   0.122353
  143  F  11  X  -0.068910   0.036780  -0.009797   0.006755   0.116790
  144  F  11  Y   0.009667   0.051777  -0.042621   0.000444  -0.019126
  145  F  11  Z   0.052600  -0.018408   0.036280  -0.004752  -0.010634
  146  F  11  X  -0.012929   0.008669   0.027517   0.003667   0.067848
  147  F  11  Y   0.008228   0.035875  -0.032722  -0.011639  -0.010209
  148  F  11  Z   0.029784  -0.017662   0.041351   0.004515  -0.011400
  149  F  11  X   0.203214  -0.231974   0.259132  -0.058217   0.090773
  150  F  11  Y  -0.044045   0.098098  -0.075834   0.090902  -0.123805
  151  F  11  Z  -0.063450   0.075694  -0.131280  -0.052494  -0.030442
  152  F  11 XX  -0.002374   0.000446   0.001297   0.001342   0.001154
  153  F  11 YY   0.001312  -0.000543  -0.000117  -0.001124  -0.000830
  154  F  11 ZZ   0.001062   0.000098  -0.001180  -0.000218  -0.000324
  155  F  11 XY   0.001113  -0.000379   0.000113  -0.000240  -0.000431
  156  F  11 XZ   0.000249   0.000017   0.000126  -0.000067  -0.000630
  157  F  11 YZ   0.000159  -0.000208   0.000422   0.000393   0.000085
  158  F  11 XX  -0.002792   0.001595  -0.001755   0.002144   0.008400
  159  F  11 YY   0.001736  -0.001205   0.001941  -0.002629  -0.003818
  160  F  11 ZZ   0.001055  -0.000390  -0.000186   0.000485  -0.004582
  161  F  11 XY  -0.000538  -0.000202  -0.001762   0.001289   0.002043
  162  F  11 XZ   0.001814  -0.003648  -0.001369  -0.002132  -0.000844
  163  F  11 YZ   0.001168   0.000974  -0.001370   0.001380   0.000488

                     31         32         33         34         35
                    0.1022     0.1061     0.1158     0.1225     0.1290
                     A          A          A          A          A   
    1  C   1  S  -0.011819   0.006073   0.003835  -0.010834   0.003107
    2  C   1  S  -0.019094  -0.019459   0.034344  -0.082361   0.045800
    3  C   1  S   0.539776  -0.549892   0.197041   0.021870   0.089573
    4  C   1  S   2.860318  -2.195745  -4.771736  -2.577556   5.495451
    5  C   1  X   0.038519  -0.021256  -0.117668  -0.050917   0.006420
    6  C   1  Y   0.077116   0.067962   0.018296   0.105540   0.129654
    7  C   1  Z   0.043528  -0.040190   0.057329   0.050354  -0.009422
    8  C   1  X  -0.129965   0.197313   0.765661   0.161394   0.158176
    9  C   1  Y  -0.020818  -0.543647   0.361140  -1.098846   0.015004
   10  C   1  Z  -0.410606   0.600194  -0.854190   0.072380  -0.262780
   11  C   1  X   0.292104   1.868585   3.253899  -0.334892  -0.728754
   12  C   1  Y   1.709548  -1.761588   0.406393  -5.704294  -2.591023
   13  C   1  Z  -2.067735   2.643194   0.684903  -1.852255  -2.263281
   14  C   1 XX   0.004566  -0.004311  -0.008308   0.004054   0.000546
   15  C   1 YY   0.005517   0.007454   0.008924  -0.003010   0.004889
   16  C   1 ZZ  -0.010083  -0.003143  -0.000617  -0.001045  -0.005434
   17  C   1 XY   0.002099   0.005355   0.001832  -0.009687   0.006973
   18  C   1 XZ  -0.005877  -0.002870   0.010586  -0.003115   0.005502
   19  C   1 YZ   0.004350   0.003161  -0.004699   0.002478   0.003715
   20  C   1 XX  -0.054573   0.101506   0.088971   0.088591  -0.016115
   21  C   1 YY   0.010523  -0.039673  -0.092259   0.283251   0.153691
   22  C   1 ZZ   0.044050  -0.061833   0.003288  -0.371842  -0.137575
   23  C   1 XY  -0.037082  -0.024524  -0.047714   0.136187   0.087831
   24  C   1 XZ   0.108284   0.150213   0.100222   0.022134  -0.086065
   25  C   1 YZ  -0.009488   0.165067  -0.208897  -0.019061  -0.155528
   26  C   2  S  -0.003238   0.004932  -0.004315   0.003511   0.001368
   27  C   2  S   0.032111   0.019471  -0.042041   0.018828  -0.072067
   28  C   2  S   0.565257  -0.299006   0.355428  -0.243264  -0.522141
   29  C   2  S   5.195265  -7.384767   1.426940   1.338214  -2.192697
   30  C   2  X   0.029218   0.077149  -0.081562  -0.028522  -0.059143
   31  C   2  Y   0.141100   0.055668   0.043621  -0.020515  -0.083211
   32  C   2  Z  -0.034534   0.045067   0.070959   0.018781  -0.029772
   33  C   2  X  -0.671766   0.297408  -0.484545   0.557358   0.266731
   34  C   2  Y  -0.089827  -0.451579   0.274356   0.092680   0.169307
   35  C   2  Z  -1.229969   0.888150  -0.942451   0.924221   0.457648
   36  C   2  X  -3.133301   0.100070   1.933712   1.506540   3.196992
   37  C   2  Y  -2.606189  -0.136176  -2.436145  -0.788156   8.726045
   38  C   2  Z  -5.373320   2.533535   0.011696   5.399146  -2.260448
   39  C   2 XX   0.007496  -0.004940   0.002830   0.006899  -0.013429
   40  C   2 YY  -0.016495  -0.005480  -0.002463  -0.003696  -0.011518
   41  C   2 ZZ   0.008999   0.010420  -0.000368  -0.003203   0.024947
   42  C   2 XY  -0.009465  -0.007462   0.005624   0.005254  -0.006011
   43  C   2 XZ   0.005597  -0.000755   0.001327  -0.005519   0.008478
   44  C   2 YZ  -0.002204  -0.014521   0.008249   0.002372  -0.005575
   45  C   2 XX   0.065313  -0.094910   0.153908  -0.138299   0.032723
   46  C   2 YY  -0.292135  -0.097902  -0.009906   0.182135   0.420678
   47  C   2 ZZ   0.226821   0.192813  -0.144002  -0.043836  -0.453401
   48  C   2 XY  -0.091029  -0.230885   0.193675  -0.109763   0.296051
   49  C   2 XZ   0.296361   0.005470   0.109845  -0.193870  -0.265998
   50  C   2 YZ   0.122778  -0.274486   0.334557  -0.309189   0.028175
   51  C   3  S  -0.003227   0.000175  -0.001110   0.001137  -0.000008
   52  C   3  S  -0.079174   0.034977  -0.000074   0.023290   0.044323
   53  C   3  S  -0.637624   0.397131  -0.442446   0.369607   0.870361
   54  C   3  S  -7.355287   6.522947   3.344919   1.888916   1.821161
   55  C   3  X  -0.008839  -0.049831  -0.060643  -0.058912   0.134308
   56  C   3  Y   0.140653   0.103437   0.026639  -0.053221   0.103368
   57  C   3  Z   0.029831  -0.073232   0.041891   0.047604  -0.091065
   58  C   3  X  -1.044295   0.306753  -0.545925   0.871191   0.150469
   59  C   3  Y  -0.920510  -0.231415   0.033612   0.514571  -0.011977
   60  C   3  Z  -0.668455   0.615671  -0.705733   0.547151   0.694698
   61  C   3  X  -2.750359   4.203997  -0.219250   2.981815  -3.840468
   62  C   3  Y  -3.181931  -0.468145   1.156854   3.131685  -5.521315
   63  C   3  Z  -2.434296   5.402657   1.468125  -1.419728   3.329358
   64  C   3 XX   0.003792   0.002295   0.002489  -0.009371   0.000769
   65  C   3 YY   0.007604   0.009162   0.004236  -0.002080   0.002730
   66  C   3 ZZ  -0.011396  -0.011457  -0.006725   0.011451  -0.003499
   67  C   3 XY   0.008903   0.008081  -0.024364   0.006624   0.001895
   68  C   3 XZ  -0.010703  -0.002902  -0.011619   0.011097   0.002763
   69  C   3 YZ   0.009124   0.003751   0.005032  -0.005750  -0.003138
   70  C   3 XX  -0.004676   0.033922  -0.014970  -0.065144   0.216279
   71  C   3 YY   0.123932  -0.039386   0.149730  -0.147122   0.038461
   72  C   3 ZZ  -0.119257   0.005465  -0.134760   0.212266  -0.254740
   73  C   3 XY  -0.067091  -0.036267   0.111851  -0.172629   0.322661
   74  C   3 XZ  -0.201364  -0.014270  -0.140306   0.116877   0.164968
   75  C   3 YZ  -0.155317   0.013874  -0.073814  -0.040835   0.392841
   76  H   4  S   0.031036   0.004208   0.010665   0.087764  -0.009506
   77  H   4  S   0.216766   0.272052   1.993296   1.607727   0.883116
   78  H   4  S   1.565318  -0.121187   3.386732   4.581858   4.271803
   79  H   4  X  -0.000418   0.003372   0.014261  -0.001713   0.007219
   80  H   4  Y  -0.000013  -0.001048  -0.010234  -0.003468  -0.002884
   81  H   4  Z  -0.004163   0.000469  -0.006885  -0.006777  -0.009788
   82  H   4  X   0.033513  -0.028517   0.261952   0.161710   0.165284
   83  H   4  Y  -0.024758   0.058578  -0.246570  -0.162447  -0.044419
   84  H   4  Z   0.021784  -0.079188  -0.442960  -0.169485  -0.233129
   85  H   5  S   0.018245  -0.046684  -0.065469   0.001435  -0.006569
   86  H   5  S  -0.072091  -0.740064  -1.490303  -0.747351   0.181245
   87  H   5  S   0.722120  -1.532053  -5.272324  -0.541365   0.859199
   88  H   5  X   0.001118   0.005424   0.010960   0.014455  -0.004406
   89  H   5  Y   0.003447  -0.000884   0.003603  -0.006280   0.002754
   90  H   5  Z  -0.005255   0.005146   0.005409  -0.006021  -0.000114
   91  H   5  X   0.012106   0.174830   0.242113   0.212499  -0.058685
   92  H   5  Y   0.030853   0.078537  -0.059801   0.003550   0.097878
   93  H   5  Z   0.037717  -0.099388   0.225654   0.208816  -0.013411
   94  H   6  S   0.010511   0.010359   0.050145  -0.065721  -0.004190
   95  H   6  S  -0.605525  -0.120919   1.165153  -2.693251  -0.557907
   96  H   6  S   1.403972  -3.603316   2.609402  -7.736366  -2.888666
   97  H   6  X  -0.005599  -0.001459   0.003831  -0.005155  -0.005980
   98  H   6  Y  -0.009111  -0.004317   0.007741  -0.020907  -0.007140
   99  H   6  Z  -0.010800  -0.004732  -0.001729  -0.003863  -0.000586
  100  H   6  X  -0.103736  -0.076577   0.046518  -0.261450  -0.096115
  101  H   6  Y  -0.179534  -0.065768   0.155023  -0.501150  -0.109782
  102  H   6  Z   0.173703  -0.002182   0.082353  -0.028819  -0.186005
  103  H   7  S  -0.036128  -0.025513   0.009836   0.009964  -0.020244
  104  H   7  S   0.887366   1.357558  -0.730474  -0.618330  -1.515706
  105  H   7  S   4.338482   0.179733  -0.025272   0.337642  -7.124642
  106  H   7  X  -0.003190  -0.005721   0.008619   0.003532   0.005880
  107  H   7  Y  -0.015173  -0.008177  -0.002215   0.000184   0.014239
  108  H   7  Z  -0.003582  -0.003928  -0.000758   0.000698  -0.000503
  109  H   7  X  -0.123310  -0.074075  -0.043938   0.094711   0.064791
  110  H   7  Y  -0.262864  -0.378699   0.263422   0.123171   0.270225
  111  H   7  Z  -0.003628   0.047163   0.059604   0.033872   0.064571
  112  H   8  S  -0.030687   0.026176  -0.036779   0.039440  -0.050099
  113  H   8  S  -2.313265  -0.225594  -0.974321   2.161095  -1.421981
  114  H   8  S  -6.491411   3.670477   0.386471   7.005479  -6.897809
  115  H   8  X  -0.013731  -0.002601   0.001670   0.005571  -0.006918
  116  H   8  Y  -0.013068  -0.005294   0.009482   0.003542  -0.011975
  117  H   8  Z   0.002873   0.004934   0.000854  -0.001835  -0.002038
  118  H   8  X  -0.461063  -0.123201  -0.036046   0.262214  -0.021720
  119  H   8  Y  -0.349103  -0.000496  -0.049820   0.365312  -0.269413
  120  H   8  Z  -0.039064  -0.136269   0.023606  -0.101182   0.209588
  121  H   9  S  -0.018087   0.018029  -0.038298   0.044763   0.000285
  122  H   9  S   0.137078   0.810656  -0.939200  -0.377259   2.087563
  123  H   9  S   0.935245   4.155169   0.503460  -2.624156   5.905467
  124  H   9  X   0.000522   0.008061  -0.004920  -0.000280  -0.001363
  125  H   9  Y  -0.002146  -0.002758   0.004132   0.003815  -0.010695
  126  H   9  Z   0.003569   0.019713   0.002040  -0.007681   0.013817
  127  H   9  X   0.021109  -0.079416  -0.108973  -0.029410   0.112121
  128  H   9  Y   0.044626  -0.116550   0.051273   0.083620  -0.305276
  129  H   9  Z   0.083523   0.192865  -0.143441  -0.077551   0.393003
  130  H  10  S   0.072564   0.009621   0.181150  -0.063530  -0.056044
  131  H  10  S  -0.160111  -0.161032   0.509088   0.046856   0.177957
  132  H  10  S  -2.410451  -0.675190  -1.129579  -1.119392   1.944902
  133  H  10  X  -0.012658  -0.001728  -0.016172   0.010041   0.007645
  134  H  10  Y  -0.006180  -0.005116  -0.001751  -0.002439  -0.000049
  135  H  10  Z   0.000930   0.000637   0.002093   0.003435   0.002236
  136  H  10  X   0.138103   0.157170  -0.008563   0.284097  -0.231868
  137  H  10  Y  -0.006029  -0.008527  -0.062006  -0.059979   0.099316
  138  H  10  Z  -0.098453  -0.003200  -0.026764  -0.129050   0.079759
  139  F  11  S  -0.001916   0.001069  -0.007135   0.000878   0.002336
  140  F  11  S  -0.020686   0.000691  -0.072732  -0.000783   0.023591
  141  F  11  S  -0.041102  -0.021626  -0.115292  -0.021148   0.048758
  142  F  11  S  -0.274639  -0.137005  -0.735967  -0.636319   0.548447
  143  F  11  X   0.073133   0.024209   0.107130  -0.053025  -0.053682
  144  F  11  Y   0.007362   0.014918  -0.010999   0.012395   0.013499
  145  F  11  Z  -0.029257   0.005243  -0.035332  -0.060711  -0.008366
  146  F  11  X   0.050051   0.017140   0.102111  -0.020991  -0.042327
  147  F  11  Y   0.003956   0.010981   0.003705   0.011335   0.007728
  148  F  11  Z  -0.006375   0.000314  -0.013901  -0.043383  -0.011561
  149  F  11  X   0.226560   0.079020   0.391624   0.317137  -0.273897
  150  F  11  Y  -0.036235   0.038506  -0.216811  -0.069855   0.006105
  151  F  11  Z  -0.183937   0.064809  -0.358460  -0.151471   0.046377
  152  F  11 XX   0.000444  -0.000371   0.003071  -0.001530  -0.000031
  153  F  11 YY  -0.000787   0.000301  -0.001609  -0.000292   0.000391
  154  F  11 ZZ   0.000343   0.000070  -0.001462   0.001822  -0.000360
  155  F  11 XY  -0.000115   0.000147  -0.000462   0.000327  -0.000083
  156  F  11 XZ  -0.000045  -0.000155  -0.000906   0.001063  -0.000244
  157  F  11 YZ  -0.000243  -0.000698   0.000766  -0.000437   0.000515
  158  F  11 XX   0.007081   0.001057   0.002971  -0.006778  -0.004091
  159  F  11 YY  -0.001596  -0.000665   0.000865   0.005302   0.002893
  160  F  11 ZZ  -0.005485  -0.000392  -0.003836   0.001476   0.001198
  161  F  11 XY   0.002412   0.000316   0.003033   0.000671   0.004775
  162  F  11 XZ  -0.000830  -0.003334   0.001809   0.000349   0.001247
  163  F  11 YZ  -0.001622   0.001264  -0.003793  -0.002715   0.000915

                     36         37         38         39         40
                    0.1349     0.1467     0.1579     0.1828     0.2018
                     A          A          A          A          A   
    1  C   1  S  -0.010567   0.015954  -0.001883   0.020499   0.019498
    2  C   1  S  -0.076646   0.058804  -0.017298   0.056474   0.056815
    3  C   1  S  -0.153326  -0.518928  -0.088520  -0.975434  -0.830907
    4  C   1  S  14.673476  -7.623856   5.892748 -13.360321 -28.418670
    5  C   1  X  -0.058662   0.109675   0.261175  -0.053793   0.031215
    6  C   1  Y   0.050191   0.159070  -0.031630  -0.099835   0.053128
    7  C   1  Z  -0.000708   0.176012  -0.066357   0.052766  -0.051309
    8  C   1  X   0.442428  -0.292776   0.406025  -0.213597   0.231866
    9  C   1  Y  -0.833515   0.380610  -0.199570  -0.028004  -0.272997
   10  C   1  Z   1.328031  -0.873789   0.438855  -0.656181   0.325684
   11  C   1  X   1.859850  -1.865804  -2.174288  -0.728663   2.045262
   12  C   1  Y   2.749753  -4.391697   1.294235  -2.796933  -3.472991
   13  C   1  Z  -2.325426   0.133441  -0.798664   3.000462   8.220145
   14  C   1 XX   0.006181  -0.030163  -0.038112   0.014543   0.012607
   15  C   1 YY   0.003636   0.027021   0.024783  -0.042381  -0.001230
   16  C   1 ZZ  -0.009817   0.003142   0.013330   0.027838  -0.011377
   17  C   1 XY   0.008293   0.040599  -0.011170  -0.012902  -0.003095
   18  C   1 XZ   0.015112   0.013954  -0.010369   0.001935   0.003550
   19  C   1 YZ   0.007081  -0.016218   0.029858  -0.004589   0.038284
   20  C   1 XX   0.215876  -0.152892   0.193086  -0.183656   0.206540
   21  C   1 YY  -0.080044   0.062200  -0.124847   0.129714   0.027828
   22  C   1 ZZ  -0.135833   0.090692  -0.068239   0.053942  -0.234368
   23  C   1 XY  -0.009134  -0.193926   0.214722  -0.097645   0.051713
   24  C   1 XZ   0.048793  -0.137353  -0.216505   0.196980  -0.181944
   25  C   1 YZ   0.272401  -0.286100  -0.099349  -0.054075  -0.028861
   26  C   2  S   0.009057   0.005009   0.004337   0.004366  -0.036290
   27  C   2  S   0.089744   0.019626  -0.001796   0.002381  -0.189796
   28  C   2  S  -0.378171   0.316657  -0.080627   0.186566  -0.256657
   29  C   2  S  -9.448294 -16.382680  -2.957442  -6.093035  46.804686
   30  C   2  X  -0.026504   0.078452  -0.076798  -0.023564   0.026851
   31  C   2  Y   0.022043  -0.041169   0.037618  -0.072439   0.063926
   32  C   2  Z  -0.020455   0.040987   0.045557  -0.000690  -0.094964
   33  C   2  X   0.102633  -1.147393  -0.282081  -0.506506   0.776147
   34  C   2  Y  -0.953856  -0.561391  -0.391028  -0.446580   0.848941
   35  C   2  Z   1.373430  -1.730941   0.318846  -0.697827   0.947130
   36  C   2  X  -1.892446   4.543440   0.655604   3.761198  -4.024689
   37  C   2  Y   0.914154   2.355241   0.179669  -1.905290 -13.126061
   38  C   2  Z  -5.991640   9.787549  -3.339336   8.385788   4.385250
   39  C   2 XX  -0.020617   0.000722  -0.018248  -0.009212   0.003870
   40  C   2 YY   0.009680  -0.014366   0.020381   0.038140   0.000249
   41  C   2 ZZ   0.010937   0.013644  -0.002133  -0.028928  -0.004119
   42  C   2 XY   0.019301   0.008487  -0.009514   0.022904  -0.005568
   43  C   2 XZ  -0.002423   0.027811   0.022383  -0.001647  -0.012598
   44  C   2 YZ  -0.000387   0.022076   0.008446  -0.000186  -0.005574
   45  C   2 XX  -0.152761   0.230669  -0.141020   0.212439  -0.346567
   46  C   2 YY  -0.192646  -0.287131   0.026252  -0.274827   0.395458
   47  C   2 ZZ   0.345407   0.056462   0.114768   0.062388  -0.048891
   48  C   2 XY  -0.260864   0.064435  -0.048143  -0.120268   0.379101
   49  C   2 XZ  -0.076751   0.375454  -0.148768   0.360568  -0.088020
   50  C   2 YZ  -0.546458   0.288677  -0.198470   0.147066  -0.361301
   51  C   3  S  -0.015305  -0.008842   0.010818  -0.005637  -0.012789
   52  C   3  S  -0.072502  -0.033921   0.042645  -0.059102  -0.055101
   53  C   3  S   0.927654  -0.451537   0.134404  -0.159395   1.014854
   54  C   3  S  -3.730805  22.975049  -4.206626  16.058804 -18.261346
   55  C   3  X   0.198463  -0.003121   0.015713   0.005614   0.062964
   56  C   3  Y  -0.133465  -0.021083  -0.024866  -0.033590  -0.034409
   57  C   3  Z  -0.024999   0.147021   0.021645   0.028377   0.045140
   58  C   3  X   0.457631  -1.152557  -0.036484  -0.822278   0.517770
   59  C   3  Y  -0.120914  -0.248206  -0.051497  -0.572639   0.021290
   60  C   3  Z   0.432639  -1.563193   0.288894  -0.602517   0.481995
   61  C   3  X  -3.337434   4.900787  -1.144505   2.708527  -1.627804
   62  C   3  Y  -0.068754   3.242221   0.482570   0.925252   1.794371
   63  C   3  Z  -0.717215   3.134768  -0.492763   4.344185  -5.271627
   64  C   3 XX  -0.011096  -0.000682  -0.015884  -0.021750  -0.008147
   65  C   3 YY   0.003614   0.010661   0.017119   0.011070   0.016916
   66  C   3 ZZ   0.007482  -0.009978  -0.001235   0.010680  -0.008769
   67  C   3 XY   0.024630  -0.016644  -0.006376  -0.021446   0.018945
   68  C   3 XZ   0.014558  -0.017307   0.010692   0.009629  -0.026657
   69  C   3 YZ  -0.017269  -0.014402  -0.000580  -0.025211  -0.032385
   70  C   3 XX   0.024976  -0.091528   0.027752  -0.021638   0.152885
   71  C   3 YY  -0.173499   0.132170  -0.024619   0.076071  -0.225962
   72  C   3 ZZ   0.148524  -0.040642  -0.003134  -0.054433   0.073077
   73  C   3 XY  -0.099294   0.020022  -0.086884   0.212763  -0.094249
   74  C   3 XZ   0.256705  -0.228837  -0.055229  -0.087274   0.394633
   75  C   3 YZ   0.046466  -0.361742  -0.034854  -0.141202   0.376776
   76  H   4  S  -0.022970  -0.081650   0.096447   0.036034   0.039979
   77  H   4  S  -1.131370   1.171505   0.051218   1.864033   0.735323
   78  H   4  S   1.403909   1.448884  -1.610685  -0.841276  -2.166211
   79  H   4  X  -0.000767   0.023496  -0.001031   0.000463   0.001978
   80  H   4  Y   0.004665  -0.013806   0.013819  -0.018442   0.010761
   81  H   4  Z   0.004045  -0.008136   0.013342   0.000990  -0.012616
   82  H   4  X  -0.099936   0.510501   0.176280   0.056618   0.184548
   83  H   4  Y   0.169977  -0.096387   0.401645  -0.480983   0.111471
   84  H   4  Z   0.060667  -0.386330   0.252643  -0.283620   0.024458
   85  H   5  S   0.017883  -0.063151  -0.113573   0.073206   0.021666
   86  H   5  S  -2.094757   1.713039  -1.029262   1.464329   0.087839
   87  H   5  S  -3.272581   2.408364   3.327276  -0.440444  -2.937776
   88  H   5  X   0.018688  -0.024453  -0.015215  -0.007388  -0.004065
   89  H   5  Y  -0.000289   0.010319  -0.004025  -0.003336   0.008095
   90  H   5  Z   0.006142   0.013445  -0.003227  -0.000381  -0.009633
   91  H   5  X   0.476426  -0.524731  -0.086419  -0.071167  -0.122457
   92  H   5  Y   0.018190   0.426566  -0.129044   0.033746  -0.069802
   93  H   5  Z   0.142411  -0.069503  -0.018535  -0.091764   0.238684
   94  H   6  S   0.022816   0.091090   0.029905  -0.168221   0.022754
   95  H   6  S  -0.602984   1.019449   0.064704   0.237885   0.143801
   96  H   6  S   2.065458  -6.114938  -1.048274  -1.829646  -0.261369
   97  H   6  X  -0.006508  -0.008069   0.008732   0.000323   0.003506
   98  H   6  Y  -0.006781  -0.014049  -0.007804   0.019752   0.011488
   99  H   6  Z  -0.005429   0.007576  -0.007376   0.005435  -0.022831
  100  H   6  X  -0.160523  -0.176615   0.359886   0.018441  -0.113001
  101  H   6  Y  -0.139476  -0.019951  -0.185612   0.406544  -0.198487
  102  H   6  Z  -0.091341  -0.112386  -0.412104  -0.084759  -0.146753
  103  H   7  S   0.033844  -0.019103   0.038488   0.188417   0.020717
  104  H   7  S   2.708640   2.291518   1.142105   1.915552  -4.021830
  105  H   7  S   1.536044  -2.598507  -0.027836   0.690159   8.373192
  106  H   7  X  -0.005527  -0.000681   0.000436   0.003969   0.002452
  107  H   7  Y  -0.008232  -0.003467  -0.001285   0.006739   0.002129
  108  H   7  Z  -0.000032   0.006704   0.001919   0.000817  -0.002949
  109  H   7  X  -0.218784  -0.174973  -0.252945  -0.059106   0.262556
  110  H   7  Y  -0.624295  -0.612611  -0.186282   0.015920   0.938532
  111  H   7  Z   0.046224   0.090818   0.195569  -0.096402   0.120126
  112  H   8  S   0.029085  -0.005577  -0.010794  -0.073325   0.071428
  113  H   8  S   0.676402  -1.627912   0.301014  -2.318220   0.237371
  114  H   8  S  -3.215741   5.208820   0.939038   0.763410   1.479630
  115  H   8  X  -0.006347   0.005272   0.003592   0.005578   0.003222
  116  H   8  Y  -0.015283   0.003654   0.003220  -0.003548  -0.011858
  117  H   8  Z   0.000014   0.006962   0.001289   0.008706   0.021077
  118  H   8  X   0.137508  -0.160269   0.155278  -0.092345  -0.206269
  119  H   8  Y  -0.177072  -0.283815  -0.158621  -0.315598  -0.368955
  120  H   8  Z   0.142526   0.189521  -0.187934   0.100695   0.476653
  121  H   9  S   0.090529   0.011159   0.029578   0.151128   0.105960
  122  H   9  S   0.426807  -2.510806   0.571232  -0.336495   0.936217
  123  H   9  S  -2.799196  -1.118327  -0.952253   2.799441  -2.563351
  124  H   9  X   0.003636   0.001761   0.000854  -0.002331   0.012679
  125  H   9  Y   0.005159   0.013552   0.000609   0.001202   0.013625
  126  H   9  Z  -0.010956  -0.006762   0.001154  -0.006316  -0.005477
  127  H   9  X   0.191481  -0.043136  -0.101564  -0.249736   0.229943
  128  H   9  Y   0.131315   0.433063  -0.004823   0.325132   0.189367
  129  H   9  Z  -0.136406  -0.460557   0.127201  -0.206677  -0.057719
  130  H  10  S  -0.224675   0.041788   0.010026  -0.023104  -0.043209
  131  H  10  S   0.220153  -0.011635   0.697807  -0.556412   0.393951
  132  H  10  S   3.031631   0.765915  -0.137268   0.509427  -0.623452
  133  H  10  X   0.028109  -0.008497   0.011732  -0.003137   0.014603
  134  H  10  Y  -0.001144   0.000825  -0.008230  -0.018831   0.004017
  135  H  10  Z  -0.000954  -0.008676   0.003117   0.002701   0.004680
  136  H  10  X   0.177016  -0.155451   0.004364  -0.360487   0.502023
  137  H  10  Y   0.106840   0.075322  -0.090584   0.172889  -0.065424
  138  H  10  Z   0.024807   0.295930   0.100588   0.205449  -0.090259
  139  F  11  S   0.005181   0.000915   0.001789  -0.002674   0.000611
  140  F  11  S   0.064351   0.001608   0.005044   0.015820  -0.006506
  141  F  11  S   0.128597  -0.008988  -0.002168   0.107531  -0.033799
  142  F  11  S  -0.382368   0.538176  -0.405414   0.694505  -1.770564
  143  F  11  X  -0.187201   0.044325  -0.021162   0.023286  -0.065114
  144  F  11  Y   0.033682   0.002957   0.052514   0.131250  -0.022511
  145  F  11  Z   0.028376   0.066082  -0.031970  -0.029031  -0.000154
  146  F  11  X  -0.106728   0.020986   0.018101   0.004443  -0.001069
  147  F  11  Y   0.005000  -0.002733   0.070329   0.135936  -0.040090
  148  F  11  Z   0.012322   0.044512  -0.052287  -0.055970   0.005830
  149  F  11  X  -0.072840  -0.215439   0.195287  -0.587541   0.837950
  150  F  11  Y   0.110466   0.098710  -0.226986  -0.333980  -0.155034
  151  F  11  Z   0.030740   0.002334   0.058781   0.264360  -0.571918
  152  F  11 XX  -0.002489   0.000842   0.002391  -0.001496  -0.000121
  153  F  11 YY   0.000688   0.000182  -0.000904   0.001418  -0.000290
  154  F  11 ZZ   0.001801  -0.001024  -0.001488   0.000078   0.000411
  155  F  11 XY  -0.000181  -0.000495  -0.000003  -0.002022   0.000059
  156  F  11 XZ   0.000131  -0.002033  -0.000859  -0.000169  -0.001045
  157  F  11 YZ  -0.000710  -0.000984   0.000301  -0.000007   0.000930
  158  F  11 XX  -0.016203   0.006395  -0.008103   0.004181  -0.009180
  159  F  11 YY   0.011209  -0.004530   0.003536  -0.005741   0.006041
  160  F  11 ZZ   0.004994  -0.001865   0.004566   0.001560   0.003139
  161  F  11 XY   0.003799  -0.000420   0.004527   0.014003  -0.000126
  162  F  11 XZ   0.002918   0.008875   0.000050   0.002238   0.000987
  163  F  11 YZ   0.000342   0.004654  -0.006424   0.001699  -0.003632

                     41         42         43         44         45
                    0.2062     0.2110     0.2243     0.2288     0.2526
                     A          A          A          A          A   
    1  C   1  S   0.015081   0.002110  -0.008766  -0.017256  -0.004766
    2  C   1  S   0.076341   0.022854  -0.101044  -0.070763   0.002124
    3  C   1  S  -0.561587   0.189857  -0.319665   1.191837   0.499936
    4  C   1  S -15.360223   0.123642   6.912598 -12.914592   1.062509
    5  C   1  X   0.047023   0.048183   0.048228   0.017381  -0.079399
    6  C   1  Y  -0.123374   0.065419  -0.117657  -0.005339   0.057281
    7  C   1  Z  -0.003260  -0.093896   0.229869   0.074477  -0.110340
    8  C   1  X  -0.072120   0.064953  -0.140955  -0.108928  -0.684551
    9  C   1  Y   0.115645  -0.412634  -0.028519   1.391044   0.305829
   10  C   1  Z  -1.059175   0.190376   0.050891  -1.614260  -0.434841
   11  C   1  X  -0.307959  -0.413682   1.075753   0.637358  -1.082790
   12  C   1  Y  -4.848833   0.209285   2.997868  -1.154107  -1.152992
   13  C   1  Z   2.628779   0.354731  -2.141935   3.493619  -1.494079
   14  C   1 XX  -0.029175  -0.006453  -0.030677   0.000921   0.009739
   15  C   1 YY   0.012610   0.011591   0.007794  -0.002936  -0.016245
   16  C   1 ZZ   0.016566  -0.005139   0.022883   0.002015   0.006506
   17  C   1 XY  -0.039696  -0.009880  -0.013364   0.014619  -0.015585
   18  C   1 XZ  -0.012929  -0.008915   0.018155  -0.014044   0.010817
   19  C   1 YZ  -0.008249   0.028330  -0.015400  -0.013766   0.020646
   20  C   1 XX  -0.012961   0.332812   0.079885  -0.313821  -0.161545
   21  C   1 YY  -0.313220  -0.135242  -0.094248   0.245376  -0.065658
   22  C   1 ZZ   0.326181  -0.197570   0.014364   0.068445   0.227203
   23  C   1 XY   0.355203   0.200387   0.307792  -0.398570   0.006030
   24  C   1 XZ   0.089058   0.043647  -0.197558   0.260261  -0.188049
   25  C   1 YZ  -0.256436   0.056599  -0.234541  -0.588473   0.030463
   26  C   2  S   0.019853  -0.025233   0.005218  -0.008348   0.002587
   27  C   2  S   0.103417  -0.109379   0.066182   0.022961  -0.033882
   28  C   2  S  -0.246356   1.084460  -0.089258   1.031298   0.092736
   29  C   2  S -18.378051   1.784317  12.155692  11.736366 -13.687362
   30  C   2  X  -0.046463  -0.042811  -0.004494   0.002852   0.004731
   31  C   2  Y   0.000597   0.038133  -0.184396   0.019120  -0.006091
   32  C   2  Z  -0.011851  -0.032942   0.114720   0.008813  -0.067121
   33  C   2  X  -0.246106  -0.596935   0.266369  -0.874881  -0.790145
   34  C   2  Y   0.579596  -0.420019   0.320565   0.552612  -0.489774
   35  C   2  Z  -0.543470  -0.274582   0.589482  -2.944078  -0.846351
   36  C   2  X   8.026247  -0.104666  -4.786326  -0.041467   2.052683
   37  C   2  Y   1.484861  -2.029594   0.089134  -2.678513   1.316447
   38  C   2  Z  14.762858  -0.878064  -9.991268   2.110286   4.256465
   39  C   2 XX   0.000431  -0.003161   0.033334   0.029923  -0.028422
   40  C   2 YY  -0.000839  -0.008002   0.000077  -0.026122   0.036027
   41  C   2 ZZ   0.000408   0.011163  -0.033411  -0.003801  -0.007605
   42  C   2 XY  -0.017594   0.024392   0.017281  -0.005407   0.005369
   43  C   2 XZ  -0.015369   0.015616  -0.009574   0.009487  -0.001727
   44  C   2 YZ  -0.007531  -0.014683   0.045353   0.018792  -0.022160
   45  C   2 XX   0.002779  -0.232780  -0.128273   0.292604   0.261813
   46  C   2 YY  -0.118821  -0.163623   0.411331   0.465310  -0.304590
   47  C   2 ZZ   0.116043   0.396403  -0.283058  -0.757914   0.042776
   48  C   2 XY  -0.034134  -0.168533   0.202463   0.234709  -0.025069
   49  C   2 XZ  -0.118041   0.191498  -0.459052   0.523886   0.209967
   50  C   2 YZ   0.301646   0.078290   0.022042   0.988036   0.277461
   51  C   3  S  -0.038479   0.022400   0.006691  -0.000576   0.008533
   52  C   3  S  -0.145197   0.098615   0.004960   0.032050  -0.000259
   53  C   3  S   1.624750  -1.001696  -0.145359  -1.115068  -1.496613
   54  C   3  S  34.770710  -2.430371 -20.280329   2.834217   9.294219
   55  C   3  X   0.085615   0.040206  -0.066142   0.056152  -0.071059
   56  C   3  Y  -0.008752  -0.023669  -0.038820  -0.103967   0.051172
   57  C   3  Z  -0.021155  -0.007277   0.034900  -0.037045  -0.030103
   58  C   3  X  -0.402811  -0.814051   0.664509  -0.996312  -0.393156
   59  C   3  Y  -0.271528   0.086631  -0.071124  -0.467313  -0.501877
   60  C   3  Z  -0.430813  -0.624464   1.050550  -1.772724  -0.415906
   61  C   3  X   6.694381  -1.928917  -4.145091   0.993675   1.228667
   62  C   3  Y   2.645369   1.296154  -4.513693   0.138565   1.642868
   63  C   3  Z   7.872810  -0.963399  -1.501048   0.986278   0.846375
   64  C   3 XX   0.006366   0.002114  -0.010620  -0.030302  -0.007838
   65  C   3 YY  -0.003853  -0.002095  -0.044208   0.025506   0.023601
   66  C   3 ZZ  -0.002513  -0.000018   0.054828   0.004796  -0.015763
   67  C   3 XY   0.022552   0.005265  -0.032186  -0.039310  -0.018387
   68  C   3 XZ   0.004847  -0.023153   0.004922   0.017775   0.022896
   69  C   3 YZ   0.015366   0.001344  -0.027248   0.011152  -0.001356
   70  C   3 XX  -0.213701  -0.164370   0.191207   0.279147   0.221432
   71  C   3 YY   0.108628   0.102479   0.173129   0.119589  -0.066102
   72  C   3 ZZ   0.105072   0.061892  -0.364336  -0.398737  -0.155330
   73  C   3 XY   0.035392   0.033705   0.070183   0.454858   0.018270
   74  C   3 XZ  -0.048504  -0.070423   0.093515  -0.800268  -0.294881
   75  C   3 YZ  -0.288943  -0.153634   0.395192  -0.193997  -0.097129
   76  H   4  S   0.080242   0.045643   0.004726   0.001632   0.067483
   77  H   4  S   2.359238   0.392218  -0.241489   1.839760  -0.392709
   78  H   4  S   0.053222  -0.599129   1.272457  -0.598570   0.499744
   79  H   4  X   0.003549  -0.001756   0.006669   0.003674  -0.001540
   80  H   4  Y  -0.001104   0.014000  -0.000223  -0.008762   0.001241
   81  H   4  Z  -0.001513   0.004891   0.008565   0.005879  -0.001754
   82  H   4  X   0.075225   0.044541   0.157109   0.075399  -0.149730
   83  H   4  Y   0.176720   0.172173   0.204871  -0.465396   0.232708
   84  H   4  Z  -0.401341  -0.037535   0.062414  -0.140000   0.045387
   85  H   5  S  -0.078106  -0.031755  -0.015934   0.000650   0.087278
   86  H   5  S   1.132382  -0.824636   0.283535   0.963853   1.816597
   87  H   5  S  -1.264091   0.508516   0.892000  -0.570705   0.560665
   88  H   5  X  -0.017193  -0.003458  -0.007025  -0.001718   0.005832
   89  H   5  Y  -0.014665  -0.000697  -0.011757   0.007129  -0.004121
   90  H   5  Z  -0.000283  -0.012255   0.013649  -0.006127   0.005008
   91  H   5  X  -0.476887   0.039775  -0.462312   0.079637  -0.211632
   92  H   5  Y  -0.422508  -0.091162  -0.260747   0.396710  -0.048211
   93  H   5  Z  -0.299827   0.060067   0.295515  -0.156982   0.081907
   94  H   6  S  -0.084962   0.017290  -0.015531   0.071304  -0.084444
   95  H   6  S   0.387310  -0.457286  -0.879763   1.591633   0.027053
   96  H   6  S  -3.204546  -0.240345   2.307911  -0.257563  -1.336223
   97  H   6  X   0.022107   0.005422   0.008943  -0.005119   0.000971
   98  H   6  Y   0.000788  -0.001679  -0.009471   0.001016   0.002098
   99  H   6  Z   0.008427  -0.012386   0.000161   0.003207  -0.007248
  100  H   6  X   0.580841   0.276236   0.207341  -0.113625  -0.029952
  101  H   6  Y   0.083800  -0.329226  -0.355165   0.067108   0.067541
  102  H   6  Z   0.063176  -0.130424  -0.012465   0.044652  -0.374253
  103  H   7  S  -0.064500   0.039005   0.078025  -0.090165   0.124084
  104  H   7  S   0.031393   1.061938  -1.912465  -2.619741   2.688876
  105  H   7  S  -3.607411   1.706579   0.518395   0.631572  -0.613041
  106  H   7  X  -0.002032   0.010218   0.008846   0.000685  -0.002558
  107  H   7  Y  -0.006738   0.005956  -0.003523  -0.009580   0.005845
  108  H   7  Z  -0.004417  -0.007427   0.013737  -0.003763  -0.008865
  109  H   7  X  -0.028763   0.302316   0.533950   0.288011  -0.371263
  110  H   7  Y  -0.104934  -0.083720   0.534471   0.126302  -0.220954
  111  H   7  Z  -0.087101  -0.124974   0.333705  -0.056601  -0.309260
  112  H   8  S   0.052750  -0.005913  -0.123365  -0.073034  -0.025824
  113  H   8  S  -2.485497   0.111341  -0.002956  -3.111192  -0.587830
  114  H   8  S   3.575032  -0.455543  -4.950935   0.532537   1.270393
  115  H   8  X  -0.014441   0.009135   0.007307   0.024144   0.002662
  116  H   8  Y  -0.019286   0.005453   0.012600   0.010475   0.008756
  117  H   8  Z  -0.004898  -0.002113   0.009615  -0.002504  -0.004221
  118  H   8  X  -0.729969   0.171831   0.022273   0.307583   0.208563
  119  H   8  Y  -0.413551   0.249370   0.436820  -0.598874  -0.363678
  120  H   8  Z  -0.218837   0.103234   0.221423  -0.516034  -0.054201
  121  H   9  S  -0.013994  -0.068469   0.182475  -0.007251  -0.030971
  122  H   9  S  -2.340581  -1.032927   3.378467  -1.167188   0.965303
  123  H   9  S   3.889288  -1.823225   1.726873   0.092430  -0.593521
  124  H   9  X   0.003246   0.006222  -0.011572  -0.010350  -0.016828
  125  H   9  Y   0.005040  -0.005393  -0.006499   0.001106   0.003228
  126  H   9  Z  -0.006452   0.004621  -0.006955  -0.002140   0.005609
  127  H   9  X   0.130726   0.259244  -0.033800  -0.797551  -0.181961
  128  H   9  Y   0.248104  -0.011940  -0.735422   0.082698  -0.216357
  129  H   9  Z  -0.490703  -0.157946   0.005807  -0.088286   0.641495
  130  H  10  S  -0.099831  -0.129918   0.018084  -0.175263   0.068054
  131  H  10  S  -0.690088  -2.799755  -0.086129  -1.536717   0.325263
  132  H  10  S   0.066121   1.311612  -0.599861   0.440693   1.171361
  133  H  10  X  -0.002847  -0.018608  -0.001838  -0.008269  -0.002377
  134  H  10  Y   0.006063   0.001402   0.001590  -0.006211  -0.000841
  135  H  10  Z  -0.008195  -0.014427   0.007065   0.004207  -0.004341
  136  H  10  X   0.219478  -0.954489   0.356585   0.489530   0.161605
  137  H  10  Y  -0.071400   0.298328  -0.235096  -0.672569  -0.635495
  138  H  10  Z   0.062788   0.205489  -0.190479  -0.263844   0.423480
  139  F  11  S   0.003024  -0.010047   0.000438  -0.002812   0.003623
  140  F  11  S   0.017044   0.022017  -0.001111   0.045812   0.021848
  141  F  11  S  -0.001556   0.246065  -0.023342   0.185050   0.008088
  142  F  11  S   0.067064   2.687467  -0.638912  -0.814350   0.026090
  143  F  11  X  -0.067842   0.056423   0.003579  -0.109660   0.049398
  144  F  11  Y  -0.060517   0.007015  -0.059653  -0.031111  -0.092360
  145  F  11  Z   0.004437   0.058794   0.005553  -0.051170   0.076200
  146  F  11  X  -0.074331  -0.042097   0.020257  -0.082679   0.064152
  147  F  11  Y  -0.083147   0.000986  -0.078200   0.000218  -0.115578
  148  F  11  Z  -0.000507   0.066523   0.034310  -0.067559   0.086097
  149  F  11  X   0.025135  -2.397448   0.205348   0.012370  -0.092062
  150  F  11  Y   0.358263   0.187478   0.413876   0.419171   1.232122
  151  F  11  Z   0.048656   0.050659  -0.325275   0.378416  -0.566431
  152  F  11 XX  -0.001917  -0.011582  -0.000334  -0.002860   0.002505
  153  F  11 YY   0.001571   0.005782  -0.000799   0.001309  -0.002668
  154  F  11 ZZ   0.000347   0.005800   0.001132   0.001551   0.000164
  155  F  11 XY   0.001950   0.000524   0.003260   0.007578   0.008875
  156  F  11 XZ   0.000683   0.001577  -0.000628   0.003188  -0.006141
  157  F  11 YZ  -0.000012  -0.000279   0.000256  -0.001055  -0.000954
  158  F  11 XX  -0.000019   0.023429   0.004655  -0.004721   0.004292
  159  F  11 YY  -0.002871  -0.007867   0.003544   0.004495  -0.006466
  160  F  11 ZZ   0.002889  -0.015561  -0.008198   0.000226   0.002174
  161  F  11 XY  -0.004218   0.003372  -0.008921  -0.015460  -0.023102
  162  F  11 XZ   0.003356   0.002319  -0.008163  -0.007346   0.007772
  163  F  11 YZ  -0.003407  -0.003735  -0.002686   0.010702  -0.001486

                     46         47         48         49         50
                    0.2679     0.2782     0.2914     0.2930     0.3104
                     A          A          A          A          A   
    1  C   1  S   0.003429  -0.009572   0.044086  -0.019770  -0.007217
    2  C   1  S   0.062681   0.053352   0.056544  -0.082628   0.030280
    3  C   1  S   0.516915   1.166923  -3.391433   0.708246  -0.282470
    4  C   1  S  -7.289615  -0.502073   5.716944   0.839442   7.417668
    5  C   1  X   0.023202   0.052337  -0.007837   0.113469   0.004900
    6  C   1  Y   0.053076   0.051033  -0.075339  -0.131236  -0.046583
    7  C   1  Z  -0.073130  -0.114882  -0.061968  -0.020909   0.012396
    8  C   1  X  -0.654210   0.148956   0.070231   0.413767   0.131290
    9  C   1  Y  -0.671103   0.035097  -1.729647   0.372096  -0.274282
   10  C   1  Z   0.118548  -1.098653   2.361557  -1.553729   0.618383
   11  C   1  X   0.726426   1.220052   0.209004   1.846124   1.769506
   12  C   1  Y  -0.947446  -0.390740  -1.801490   0.020510   2.955970
   13  C   1  Z   2.019492  -0.091901  -0.528957  -2.814412  -1.138315
   14  C   1 XX   0.005336  -0.009462   0.026032  -0.003367   0.008652
   15  C   1 YY  -0.007688  -0.013520   0.005127  -0.033780   0.013903
   16  C   1 ZZ   0.002352   0.022982  -0.031159   0.037147  -0.022555
   17  C   1 XY   0.006686   0.021433   0.024980   0.022510  -0.017122
   18  C   1 XZ  -0.000899   0.006690  -0.027654  -0.008897  -0.027487
   19  C   1 YZ   0.016548   0.002597   0.032646  -0.028696  -0.030289
   20  C   1 XX  -0.100770   0.215857  -0.147399  -0.248178  -0.018125
   21  C   1 YY   0.190735  -0.044902   0.739687   0.347358  -0.158904
   22  C   1 ZZ  -0.089965  -0.170955  -0.592288  -0.099180   0.177029
   23  C   1 XY   0.011851  -0.304019   0.130727  -0.556323   0.281454
   24  C   1 XZ   0.000150   0.214820   0.160018   0.463484   0.648133
   25  C   1 YZ   0.312095  -0.093108   0.389130  -0.462933   0.374773
   26  C   2  S  -0.022842  -0.019836  -0.003156   0.023141  -0.027014
   27  C   2  S  -0.071581  -0.124567  -0.055631   0.086739  -0.143248
   28  C   2  S   2.273528   0.600179  -0.791631  -0.996059   1.117099
   29  C   2  S   3.125501  -6.004235 -16.182977   8.457805   1.403773
   30  C   2  X  -0.030041  -0.042136  -0.061995  -0.067756   0.105352
   31  C   2  Y  -0.125936  -0.037559   0.094273  -0.017711  -0.047861
   32  C   2  Z  -0.157384   0.049040  -0.098091   0.170538   0.126798
   33  C   2  X  -0.251312  -1.068613   1.146002   0.346978  -0.519690
   34  C   2  Y  -0.256000  -0.813289  -1.233959   0.838940  -0.108888
   35  C   2  Z  -1.028120  -1.748984   2.696921  -1.076132  -0.917591
   36  C   2  X  -0.478433  -1.541072   0.037590  -2.001533  -3.517708
   37  C   2  Y  -6.109324  -1.887844   4.278711   0.880171  -3.051022
   38  C   2  Z   3.141119   3.226739  -0.460722  -2.187442  -4.904382
   39  C   2 XX  -0.017631   0.003219   0.000250   0.018897   0.001472
   40  C   2 YY   0.015496   0.003269  -0.012044   0.001168  -0.015284
   41  C   2 ZZ   0.002135  -0.006488   0.011793  -0.020065   0.013812
   42  C   2 XY   0.010328   0.024413   0.010707   0.007257   0.034143
   43  C   2 XZ   0.018157   0.016561   0.037195   0.014377   0.037725
   44  C   2 YZ  -0.007254  -0.030504   0.028480   0.001075   0.029179
   45  C   2 XX  -0.091043   0.021870  -0.467299   0.095968  -0.247312
   46  C   2 YY  -0.278888  -0.424272   0.366309   0.225981  -0.658444
   47  C   2 ZZ   0.369931   0.402402   0.100990  -0.321949   0.905756
   48  C   2 XY  -0.084446  -0.142497  -0.755372  -0.011222  -0.769087
   49  C   2 XZ   0.254537   0.602876  -0.650546   0.263493   0.594810
   50  C   2 YZ  -0.094100   0.663885  -1.908396   0.379307  -0.544266
   51  C   3  S  -0.003605   0.004958  -0.007914   0.003802   0.007745
   52  C   3  S   0.069085   0.039989   0.010427  -0.000220   0.132712
   53  C   3  S   0.432698  -2.271874   3.284117   0.370746   0.313727
   54  C   3  S   8.392909   5.241881   6.822254  -9.671771  -5.952447
   55  C   3  X   0.037920  -0.012590   0.050242   0.012300   0.131176
   56  C   3  Y   0.010572   0.047387   0.092513   0.035602   0.003523
   57  C   3  Z  -0.055241   0.017951   0.161774   0.004289   0.092203
   58  C   3  X  -1.057860  -1.067966   1.513172  -1.295911  -0.775200
   59  C   3  Y  -0.546475  -0.474999   0.603250  -0.085527  -1.608905
   60  C   3  Z  -1.063870  -1.268477   1.945946   0.350575  -1.157085
   61  C   3  X   4.287723   1.134209   1.934662  -3.423531  -1.384113
   62  C   3  Y   2.410402   1.284744   0.607733  -1.459667  -0.946405
   63  C   3  Z   0.568098  -0.379736   2.625463  -2.237955  -2.888852
   64  C   3 XX   0.015705   0.003661   0.006283  -0.035806   0.003105
   65  C   3 YY  -0.022639  -0.004701  -0.014018   0.024382   0.042747
   66  C   3 ZZ   0.006934   0.001040   0.007735   0.011424  -0.045852
   67  C   3 XY  -0.014075  -0.005124  -0.002022   0.011431  -0.005903
   68  C   3 XZ   0.013628  -0.041510   0.005277  -0.018551  -0.033708
   69  C   3 YZ   0.032493   0.008111   0.004662  -0.015919  -0.024448
   70  C   3 XX  -0.544695  -0.139785  -0.082027  -0.035000  -0.054571
   71  C   3 YY   0.506829   0.295779  -0.349331  -0.265725  -0.387379
   72  C   3 ZZ   0.037866  -0.155994   0.431357   0.300726   0.441951
   73  C   3 XY   0.077379  -0.136134  -0.305375   0.287863  -0.689884
   74  C   3 XZ  -0.412288  -0.272063   0.278567   0.144468  -0.540428
   75  C   3 YZ  -0.679484  -0.225177  -0.129232   0.014716  -0.579514
   76  H   4  S   0.025803   0.001216   0.066114   0.054559  -0.055034
   77  H   4  S  -0.577132   0.975262   0.984732   2.334754  -0.781050
   78  H   4  S  -0.709887  -0.152451   0.946773   2.030473   0.054312
   79  H   4  X   0.000139   0.006780  -0.004377   0.000400  -0.013385
   80  H   4  Y   0.003212  -0.001699  -0.006773  -0.015509  -0.002984
   81  H   4  Z  -0.003701   0.007669  -0.001898   0.019005  -0.000214
   82  H   4  X  -0.058056   0.470838  -0.239354   0.076828  -0.822631
   83  H   4  Y  -0.041743  -0.485376   0.014220  -0.889436  -0.055416
   84  H   4  Z   0.153059   0.331254  -0.229615   0.543083  -0.269452
   85  H   5  S  -0.019695  -0.051495  -0.000229  -0.023271  -0.050626
   86  H   5  S   0.724790  -1.309275   0.810298  -0.830739  -1.959311
   87  H   5  S  -0.678789  -1.641680   0.343858  -0.356018  -1.515003
   88  H   5  X   0.002788  -0.005849  -0.003099   0.003157   0.007102
   89  H   5  Y   0.007154   0.007889   0.004420   0.005052  -0.010728
   90  H   5  Z  -0.004171  -0.000027  -0.014384   0.000725  -0.011265
   91  H   5  X  -0.411835   0.130357   0.207215   0.112597   0.255047
   92  H   5  Y   0.121280   0.280188   0.500074   0.489261  -0.450646
   93  H   5  Z  -0.053525   0.144829  -0.990683  -0.079467  -0.335953
   94  H   6  S  -0.018246  -0.033725   0.040890  -0.031588  -0.035410
   95  H   6  S  -2.380105  -0.093098  -1.667365   0.204893  -0.719815
   96  H   6  S  -1.150567  -0.062157  -2.231385   1.664811   2.739352
   97  H   6  X   0.001870  -0.006972  -0.001655  -0.002456   0.008074
   98  H   6  Y  -0.002922  -0.002211   0.010126   0.002482   0.002365
   99  H   6  Z  -0.011784  -0.005201  -0.004662   0.005170   0.013944
  100  H   6  X  -0.349932  -0.101233  -0.472915  -0.633642   0.464436
  101  H   6  Y  -0.550763   0.056313   0.208299   0.209602   0.148544
  102  H   6  Z   0.269962   0.089017  -0.415538   0.201145   0.760215
  103  H   7  S   0.101916   0.140649   0.063654  -0.025254   0.053087
  104  H   7  S  -0.180038   3.065969   3.064098  -1.624339   2.651395
  105  H   7  S   3.231764   2.077202  -1.353363  -0.358276   3.389039
  106  H   7  X   0.007684  -0.000373  -0.000406  -0.002204   0.025261
  107  H   7  Y   0.018912   0.010553  -0.005884   0.000249   0.013920
  108  H   7  Z  -0.006178  -0.005317   0.023370   0.009326   0.023031
  109  H   7  X   0.193425   0.158889   0.311433   0.211046   0.306098
  110  H   7  Y   0.601759  -0.279835  -0.853627   0.166687  -0.467803
  111  H   7  Z   0.307653  -0.653178   1.604958  -0.267770   0.376457
  112  H   8  S  -0.080049  -0.041748  -0.020624   0.029417  -0.015457
  113  H   8  S  -3.172123  -0.703980   2.278756  -1.665171  -1.028119
  114  H   8  S   3.554467   0.207979   2.129969  -3.055159  -2.320364
  115  H   8  X   0.006007  -0.001765  -0.005790   0.011399  -0.006415
  116  H   8  Y   0.009347   0.010940  -0.008906  -0.010751  -0.009769
  117  H   8  Z  -0.013049   0.002669   0.003180   0.003101   0.003905
  118  H   8  X  -0.670170   0.012282   0.002053  -0.081263  -0.106292
  119  H   8  Y   0.114162   0.194239   0.169877  -1.126273  -0.246705
  120  H   8  Z  -0.735225   0.169078  -0.219891   0.122887  -0.257715
  121  H   9  S  -0.122606  -0.071518   0.025860   0.082733  -0.016486
  122  H   9  S  -3.586502  -0.855867  -0.374611   1.259960  -1.941884
  123  H   9  S  -0.459899  -0.987105  -0.509165   0.384383  -1.582210
  124  H   9  X   0.002073   0.002363  -0.003736   0.010970   0.010830
  125  H   9  Y  -0.011812  -0.005012   0.005837   0.005820   0.013771
  126  H   9  Z   0.005527   0.009330  -0.003185   0.002163   0.019677
  127  H   9  X  -0.436029   0.424605  -0.038868   0.423568   0.108119
  128  H   9  Y  -0.305789  -0.196444  -0.108331  -0.038502   1.192176
  129  H   9  Z  -0.511064   0.013126  -0.488022   0.423188   0.280302
  130  H  10  S  -0.192849   0.055983   0.056860  -0.071726   0.013774
  131  H  10  S   0.063561   0.741128   0.291661  -0.731432   0.596667
  132  H  10  S  -4.129983   1.534360   1.239404  -0.805576  -1.221196
  133  H  10  X  -0.001507  -0.007522  -0.005074   0.003130  -0.001422
  134  H  10  Y   0.001833   0.002425   0.007482   0.000949  -0.003316
  135  H  10  Z  -0.002084  -0.010334   0.002496  -0.013551  -0.000939
  136  H  10  X   0.386925   0.644016  -0.408359  -1.380461   0.973329
  137  H  10  Y   0.048375  -0.206123  -0.041197   0.244124  -0.287197
  138  H  10  Z  -0.123729  -0.669084   0.016824   0.157707  -0.065645
  139  F  11  S  -0.000181   0.006568   0.000429  -0.007268   0.003897
  140  F  11  S  -0.011227   0.034778  -0.004873  -0.051250   0.031833
  141  F  11  S  -0.035684  -0.005361  -0.025752  -0.023745   0.034004
  142  F  11  S  -1.320032  -1.353306   1.034581   2.700685  -2.142555
  143  F  11  X  -0.177885  -0.000202   0.033732  -0.032930  -0.024877
  144  F  11  Y   0.071274  -0.065581  -0.027584  -0.016364   0.007609
  145  F  11  Z   0.096446  -0.071281  -0.004281   0.095973   0.044220
  146  F  11  X  -0.177709   0.057501  -0.006253  -0.155434   0.057558
  147  F  11  Y   0.074931  -0.106681  -0.046766  -0.021829  -0.001098
  148  F  11  Z   0.144855  -0.116368   0.002677   0.159257   0.047502
  149  F  11  X   1.451287   0.759870  -0.293031  -0.796873   1.031516
  150  F  11  Y  -0.639390   0.705966   0.541100   0.279375   0.069255
  151  F  11  Z  -0.904312   1.096875   0.502788  -0.707455  -0.574439
  152  F  11 XX  -0.000407   0.005527   0.002174  -0.001927   0.002323
  153  F  11 YY  -0.000371  -0.002627  -0.000144  -0.000266  -0.002457
  154  F  11 ZZ   0.000779  -0.002900  -0.002031   0.002194   0.000134
  155  F  11 XY  -0.002567   0.002356   0.002169   0.000457   0.001372
  156  F  11 XZ  -0.001744   0.007980   0.001342  -0.001813  -0.002564
  157  F  11 YZ   0.000248  -0.002188  -0.001543   0.000274  -0.000548
  158  F  11 XX  -0.015342   0.003527   0.002926  -0.006717  -0.000692
  159  F  11 YY   0.005385   0.002351  -0.016987   0.004346   0.003083
  160  F  11 ZZ   0.009957  -0.005878   0.014061   0.002371  -0.002391
  161  F  11 XY   0.013799  -0.014447  -0.004880   0.004375  -0.003467
  162  F  11 XZ   0.008237  -0.013473  -0.000835   0.012432   0.006725
  163  F  11 YZ  -0.006341  -0.001081  -0.000044   0.002144  -0.000288

                     51         52         53         54         55
                    0.3201     0.3225     0.3367     0.3451     0.3534
                     A          A          A          A          A   
    1  C   1  S  -0.003277  -0.003203   0.015187   0.000919   0.010712
    2  C   1  S   0.051546   0.015303   0.138814   0.114624  -0.024343
    3  C   1  S  -0.237499  -0.115009  -0.524633   1.015705  -2.236412
    4  C   1  S   2.021581   3.532961  15.391298  19.142645  -9.057695
    5  C   1  X  -0.125644  -0.068531   0.051355   0.067250   0.095420
    6  C   1  Y  -0.080197  -0.017290   0.128093  -0.045839  -0.019354
    7  C   1  Z  -0.021676   0.141912   0.051151   0.009316   0.062873
    8  C   1  X  -1.718377  -0.216575   0.472943   1.731667   1.112234
    9  C   1  Y  -1.733322   0.333134  -0.393017  -0.394991  -1.132022
   10  C   1  Z   0.596772   0.532173   3.499982   1.697716   0.441739
   11  C   1  X  -3.410786  -1.052144   1.222443   0.730376   1.725904
   12  C   1  Y  -2.123023   2.485467   4.228748   0.112088  -1.307256
   13  C   1  Z  -1.208521  -0.099477  -0.386924  -3.952797   1.053393
   14  C   1 XX  -0.026623  -0.016592   0.024159   0.021356   0.009548
   15  C   1 YY   0.012409  -0.009323   0.000901  -0.015629  -0.035269
   16  C   1 ZZ   0.014214   0.025916  -0.025060  -0.005727   0.025720
   17  C   1 XY   0.007539   0.009969  -0.009098  -0.000601   0.007424
   18  C   1 XZ   0.044426  -0.003922  -0.008314  -0.007104   0.011445
   19  C   1 YZ   0.019512  -0.005994   0.007686   0.020675  -0.002844
   20  C   1 XX   0.050844  -0.295469   0.470586   0.577626   0.298330
   21  C   1 YY   0.677793   0.175941  -0.585962   0.383854   0.207793
   22  C   1 ZZ  -0.728637   0.119528   0.115377  -0.961480  -0.506123
   23  C   1 XY   0.629087  -0.354868  -0.107427   0.089562  -0.333810
   24  C   1 XZ  -0.658721  -0.359014   0.350209  -0.306834   0.437822
   25  C   1 YZ  -0.266677   0.154796   1.028380   0.037219   0.029459
   26  C   2  S  -0.001853  -0.023203  -0.002720  -0.028038   0.012902
   27  C   2  S   0.014546  -0.054975  -0.036780  -0.025198   0.023064
   28  C   2  S  -0.157503   0.792717  -1.241849   2.295216  -0.969606
   29  C   2  S   8.503143   9.843423  -3.292780 -13.796549  13.281493
   30  C   2  X   0.043528   0.000502  -0.200930   0.091556  -0.113571
   31  C   2  Y   0.041722  -0.083926   0.034476   0.275673  -0.068832
   32  C   2  Z  -0.022212   0.072288  -0.100887  -0.046903   0.028812
   33  C   2  X   0.823973  -0.629927   1.328751   0.606960   1.091144
   34  C   2  Y   0.435232  -0.554087  -0.666957  -0.317874   1.194056
   35  C   2  Z   1.169868  -1.104649   3.626921   2.398349   1.695324
   36  C   2  X  -0.226125  -3.089443  -4.316211   1.691113  -2.524559
   37  C   2  Y  -0.705483  -4.705087   0.985600   8.722715  -7.092468
   38  C   2  Z   0.504285  -3.609640  -5.870473  -3.238647   3.096567
   39  C   2 XX   0.007960  -0.016676  -0.002131  -0.010731   0.015371
   40  C   2 YY  -0.018923   0.021885   0.010056  -0.012049   0.013650
   41  C   2 ZZ   0.010963  -0.005209  -0.007925   0.022780  -0.029021
   42  C   2 XY   0.014688  -0.027936   0.007464  -0.003746  -0.003413
   43  C   2 XZ   0.004987   0.009956  -0.024267   0.008851  -0.040452
   44  C   2 YZ   0.000057   0.027182  -0.037139  -0.015901   0.009276
   45  C   2 XX  -0.757855   0.214656  -0.676144   0.109142  -0.481863
   46  C   2 YY   0.714096  -0.448839  -0.253885   1.211468   0.058201
   47  C   2 ZZ   0.043759   0.234183   0.930029  -1.320610   0.423662
   48  C   2 XY  -0.242880   0.169367  -0.747503   0.693921  -0.914935
   49  C   2 XZ  -0.579639   0.301028  -0.047033  -0.766598  -0.005584
   50  C   2 YZ  -0.991228  -0.185302  -0.883002  -0.188200  -1.331691
   51  C   3  S  -0.005209   0.009213  -0.004834  -0.017315  -0.001537
   52  C   3  S  -0.006973   0.042931  -0.067360   0.031355  -0.075088
   53  C   3  S   1.738746  -0.419850   0.875965   2.367606  -0.447102
   54  C   3  S  -7.087616 -12.617280 -13.177502   4.739592  -8.008117
   55  C   3  X  -0.022315   0.073895  -0.051565   0.050783   0.088839
   56  C   3  Y   0.163327   0.044118  -0.004689  -0.053784   0.132933
   57  C   3  Z   0.019643  -0.105219   0.100710  -0.089931  -0.177854
   58  C   3  X   0.440767  -0.485719   0.737096   1.552616   2.898751
   59  C   3  Y   1.505923  -0.606041   0.185624   1.217277   0.933813
   60  C   3  Z   1.066381  -1.176838   3.230253  -0.204274   0.972849
   61  C   3  X  -0.691516  -2.004632  -2.538975  -0.073486   3.442537
   62  C   3  Y   2.364283   1.325080  -1.633464  -1.971147   5.578286
   63  C   3  Z  -3.648441  -4.887804  -0.475841   0.824578  -3.878993
   64  C   3 XX  -0.007229   0.002776  -0.020070  -0.009059   0.020602
   65  C   3 YY   0.023264   0.010670   0.003488  -0.009653  -0.021155
   66  C   3 ZZ  -0.016035  -0.013446   0.016583   0.018712   0.000554
   67  C   3 XY   0.010327   0.012630   0.011676  -0.017494   0.011815
   68  C   3 XZ   0.001132  -0.007092   0.041581  -0.001493   0.033259
   69  C   3 YZ   0.012105  -0.010294   0.016280  -0.015933   0.020419
   70  C   3 XX  -0.140700  -0.123822  -0.002543   0.524107  -0.138700
   71  C   3 YY  -0.513053   0.203944  -0.618160   0.392948  -0.803249
   72  C   3 ZZ   0.653754  -0.080122   0.620703  -0.917055   0.941949
   73  C   3 XY  -0.116000  -0.511590   0.229116   0.763292  -1.099875
   74  C   3 XZ   0.181418  -0.025368   0.352684  -0.011719   0.145350
   75  C   3 YZ  -0.313515  -0.327769   0.014916   0.866060  -0.475996
   76  H   4  S  -0.094387  -0.055610  -0.105131  -0.038698  -0.015879
   77  H   4  S  -1.018576  -2.505835  -5.785495  -0.726065   2.505551
   78  H   4  S  -0.648808  -1.654338  -2.759779   2.124146   0.676467
   79  H   4  X   0.015676   0.001581  -0.010042  -0.005981   0.003196
   80  H   4  Y   0.010423  -0.008268   0.006378   0.000094  -0.006665
   81  H   4  Z   0.004413   0.001349  -0.012594   0.002378   0.006475
   82  H   4  X   0.582625   0.496542  -0.857438   0.156782   0.052835
   83  H   4  Y   0.344802  -0.323522   0.351425  -0.352172  -1.064454
   84  H   4  Z   0.301738   0.220702   0.477594  -0.035150  -0.287070
   85  H   5  S  -0.031552  -0.097311  -0.051068  -0.059990   0.013707
   86  H   5  S   2.653494  -0.343150  -3.861856  -4.514912  -2.764480
   87  H   5  S   2.726233   0.706667  -0.351995  -0.615710  -1.333578
   88  H   5  X  -0.005224   0.002653   0.002591   0.000737   0.003047
   89  H   5  Y   0.002097   0.002764   0.001251  -0.001198   0.005280
   90  H   5  Z   0.011271   0.004617  -0.020275  -0.001661  -0.001452
   91  H   5  X  -0.967689   0.169013   0.475021   0.290843   0.364418
   92  H   5  Y   0.150807   0.104727  -0.027469  -0.195645   0.534129
   93  H   5  Z   0.816995   0.069327  -0.451026   0.212523   0.383060
   94  H   6  S  -0.012089  -0.046461  -0.044431  -0.107462  -0.031112
   95  H   6  S  -5.825351   0.200454   1.323259  -2.067960  -0.317600
   96  H   6  S  -2.872493   1.674600   2.785997  -0.667744  -1.109539
   97  H   6  X   0.000887  -0.003481   0.004237  -0.003794  -0.007643
   98  H   6  Y   0.001212   0.003489   0.003212   0.009353   0.010890
   99  H   6  Z  -0.020724   0.004109   0.008066  -0.012255   0.000024
  100  H   6  X  -0.026708  -0.101202   0.420015  -0.313277  -0.180840
  101  H   6  Y  -0.955848   0.500253   0.444140   0.341575  -0.150574
  102  H   6  Z  -0.791924  -0.003675   0.450197  -0.802418  -0.063368
  103  H   7  S  -0.059339   0.003385   0.038240  -0.055243  -0.010932
  104  H   7  S  -2.256944   1.165853   2.734303  -4.672105  -0.846523
  105  H   7  S   0.514223   3.687438   0.669674  -5.498730   3.453833
  106  H   7  X   0.012879  -0.002494  -0.001107  -0.012147   0.012835
  107  H   7  Y  -0.009087   0.006849   0.015366  -0.019004   0.011638
  108  H   7  Z   0.015713   0.015030  -0.010960  -0.004037   0.015041
  109  H   7  X   0.831858  -0.958520   0.391255   0.279482   0.839216
  110  H   7  Y  -0.074120   0.183481  -0.616282   0.575275   0.235398
  111  H   7  Z   0.520876   0.476086  -0.540813   0.087836   0.440033
  112  H   8  S   0.050246   0.045201   0.050616  -0.048324   0.013664
  113  H   8  S   3.268957  -0.213531   1.831025  -0.528375   8.179288
  114  H   8  S   1.866356  -0.647864  -2.185208  -0.089785   6.966450
  115  H   8  X  -0.006617  -0.004522   0.003629   0.021760  -0.031290
  116  H   8  Y  -0.009576  -0.006527  -0.004140   0.006242  -0.018081
  117  H   8  Z  -0.005246  -0.000699  -0.006169   0.013080  -0.017922
  118  H   8  X   0.830240  -0.812272   0.434709   0.341099   0.402799
  119  H   8  Y  -0.236165  -0.252338  -0.206628   0.434315   0.997831
  120  H   8  Z  -0.623484   0.017027  -0.880845   1.214714  -0.808233
  121  H   9  S  -0.014684   0.001018   0.096950  -0.017161  -0.062356
  122  H   9  S  -2.027619  -0.980259   3.448039   0.601468  -2.545124
  123  H   9  S  -3.091147  -3.356971   0.476281   0.068791  -4.447988
  124  H   9  X   0.006039   0.007754  -0.004563  -0.014744   0.000024
  125  H   9  Y   0.005267   0.000152   0.001610  -0.002061   0.000390
  126  H   9  Z   0.010756   0.011029   0.000158  -0.027196   0.014504
  127  H   9  X   0.057679   0.359267  -0.181652  -0.672791  -0.192323
  128  H   9  Y   0.418589   0.016930  -0.202775  -0.479120   0.365870
  129  H   9  Z  -0.298029   0.086345   0.359347  -0.181893  -0.181557
  130  H  10  S  -0.012082  -0.104234   0.041391  -0.030583   0.089106
  131  H  10  S   0.360103  -2.008592  -0.271089  -0.153436   0.964918
  132  H  10  S   0.173833   0.050531   1.322475  -0.233576  -0.822931
  133  H  10  X   0.004772  -0.009127  -0.001581  -0.001506   0.012892
  134  H  10  Y  -0.001463   0.006295  -0.004443  -0.001545  -0.002841
  135  H  10  Z   0.003150   0.017497   0.007302   0.001442   0.006410
  136  H  10  X  -0.597215  -0.169438  -1.360842   0.041964   1.340556
  137  H  10  Y  -0.058325  -0.187476   0.056602  -0.115438  -0.088679
  138  H  10  Z  -0.132518   0.148908   0.289118   0.283065   0.326291
  139  F  11  S  -0.004911  -0.002111  -0.004898   0.001876   0.003812
  140  F  11  S  -0.005989  -0.022470  -0.058659   0.000201   0.034507
  141  F  11  S   0.086316  -0.065006  -0.118348  -0.032792   0.048117
  142  F  11  S   0.284468   1.426466   3.056618   0.310857  -3.246204
  143  F  11  X   0.002337  -0.037685   0.025730  -0.036511   0.049489
  144  F  11  Y   0.028167  -0.013675  -0.023324   0.006053  -0.005538
  145  F  11  Z   0.008540  -0.072297  -0.049790   0.003073  -0.025509
  146  F  11  X  -0.003840  -0.121149  -0.101991  -0.055320   0.194721
  147  F  11  Y   0.046354  -0.025179  -0.031724   0.007357  -0.012704
  148  F  11  Z  -0.003988  -0.067227  -0.039853  -0.013057  -0.068191
  149  F  11  X  -0.113976  -0.935262  -1.003852   0.061925   0.780620
  150  F  11  Y  -0.102404   0.453416   0.755889   0.086048  -0.373691
  151  F  11  Z   0.124358   0.228593   0.391517  -0.254720  -0.725553
  152  F  11 XX   0.001170  -0.007672   0.000042  -0.001125  -0.000410
  153  F  11 YY  -0.001788   0.003473  -0.001685  -0.000517  -0.001081
  154  F  11 ZZ   0.000618   0.004199   0.001643   0.001642   0.001491
  155  F  11 XY   0.001167   0.004222   0.003442   0.001860  -0.001666
  156  F  11 XZ   0.001980   0.000520  -0.000288  -0.002402  -0.005629
  157  F  11 YZ  -0.000943   0.000422  -0.001299  -0.000305   0.000484
  158  F  11 XX  -0.005194   0.009473   0.002198   0.004182   0.000761
  159  F  11 YY   0.019860  -0.016345   0.004631   0.002205   0.007414
  160  F  11 ZZ  -0.014666   0.006871  -0.006829  -0.006386  -0.008175
  161  F  11 XY   0.003093  -0.001926  -0.001323   0.001265  -0.004279
  162  F  11 XZ  -0.003130  -0.005451  -0.007278   0.005301   0.000974
  163  F  11 YZ   0.001313  -0.015303   0.003396  -0.007132  -0.004219

                     56         57         58         59         60
                    0.3647     0.3663     0.3836     0.4062     0.4155
                     A          A          A          A          A   
    1  C   1  S  -0.005271  -0.005677  -0.000063  -0.009325  -0.028677
    2  C   1  S   0.047806   0.052913   0.023020  -0.019221   0.033857
    3  C   1  S   0.728112   0.977351   0.649085   1.140465   2.353058
    4  C   1  S   7.143120  -2.198003   3.574135 -10.782305  -2.880433
    5  C   1  X  -0.034382   0.048605   0.100055   0.013980   0.018851
    6  C   1  Y  -0.073808  -0.119926   0.017920   0.142559   0.151576
    7  C   1  Z  -0.039117  -0.088050   0.025578  -0.127902  -0.033451
    8  C   1  X  -0.900274   1.577382   2.983501  -0.466423   1.038171
    9  C   1  Y  -1.621095  -2.525331  -0.518388   2.081550   0.701837
   10  C   1  Z   0.784274  -0.557263  -0.010193  -2.482562   1.155593
   11  C   1  X  -0.031246   1.094660   2.771806   0.431278   0.809080
   12  C   1  Y  -0.901457  -3.528390   1.580025  -0.111753   1.781851
   13  C   1  Z  -1.902814  -0.807394  -0.244078   1.312054   1.877437
   14  C   1 XX  -0.010460   0.014259   0.023268  -0.019234   0.007147
   15  C   1 YY   0.000043   0.001203  -0.012155   0.014441  -0.002699
   16  C   1 ZZ   0.010417  -0.015462  -0.011113   0.004793  -0.004448
   17  C   1 XY   0.027056   0.029651   0.002579   0.013625  -0.006427
   18  C   1 XZ  -0.030065   0.030694  -0.000529  -0.002464  -0.010656
   19  C   1 YZ   0.021446  -0.005592  -0.013447  -0.016632  -0.003607
   20  C   1 XX  -0.114534   0.334774   0.364734  -0.307420  -0.505335
   21  C   1 YY   0.464641   0.380383  -0.296633  -0.079285   1.089848
   22  C   1 ZZ  -0.350107  -0.715158  -0.068100   0.386705  -0.584512
   23  C   1 XY  -0.248910   0.105941   0.276021   0.091831   0.466333
   24  C   1 XZ  -0.059953   0.266862   0.048774   0.167661  -0.296210
   25  C   1 YZ   0.543125  -0.143583   0.030650  -0.249031  -0.264728
   26  C   2  S  -0.012141   0.010718  -0.004205   0.006761   0.006716
   27  C   2  S  -0.022820   0.002754   0.025722   0.013450  -0.015298
   28  C   2  S   0.676013  -1.385056   0.251332   0.536449  -0.085455
   29  C   2  S   5.649034   5.372088   9.733576  17.995535  15.959102
   30  C   2  X  -0.006442  -0.025863   0.218064   0.048277   0.034488
   31  C   2  Y   0.101065  -0.065565  -0.109642   0.072394   0.046050
   32  C   2  Z  -0.032970  -0.074159  -0.147289  -0.014852   0.046017
   33  C   2  X   0.612426   0.029297   1.039746   0.735833   0.614517
   34  C   2  Y  -0.014311  -1.008341  -0.375923   2.434882   0.692510
   35  C   2  Z   1.221251   0.538060   0.390457  -1.378680   2.127780
   36  C   2  X  -0.563530  -0.496064  -0.555218  -1.616259  -1.986453
   37  C   2  Y   2.056097  -2.371249  -2.806887  -2.253074  -2.733642
   38  C   2  Z  -3.486279   1.291179  -4.818343   0.763941  -3.032119
   39  C   2 XX   0.000744  -0.012093  -0.015617  -0.012422  -0.017846
   40  C   2 YY   0.007309  -0.003826   0.011727   0.011890  -0.023636
   41  C   2 ZZ  -0.008053   0.015919   0.003890   0.000532   0.041482
   42  C   2 XY  -0.029442  -0.010779  -0.017660   0.011848  -0.017774
   43  C   2 XZ  -0.001125  -0.021617   0.006033   0.022901   0.013746
   44  C   2 YZ  -0.014163  -0.004180  -0.002046  -0.008912   0.005393
   45  C   2 XX  -0.082672  -0.053515   0.090993   0.252429   0.062735
   46  C   2 YY   0.061988   0.100061  -0.036847   0.200146   0.962100
   47  C   2 ZZ   0.020684  -0.046546  -0.054146  -0.452575  -1.024835
   48  C   2 XY   0.039591  -0.139198   0.458669   0.673833   0.388253
   49  C   2 XZ   0.150199  -0.096493  -0.352588   0.195547  -0.725111
   50  C   2 YZ  -0.386801  -0.367909   0.138703   1.260125  -0.940571
   51  C   3  S  -0.006611   0.008125   0.001784   0.013646  -0.022464
   52  C   3  S  -0.030152  -0.027307  -0.034656   0.012319   0.013724
   53  C   3  S   0.142251  -0.567105  -0.848862  -2.690464   4.168325
   54  C   3  S  -7.364047  -4.170509 -11.971832  -9.629702 -10.679867
   55  C   3  X  -0.089286   0.020593  -0.125060   0.210763   0.044876
   56  C   3  Y  -0.148602  -0.137239   0.132134  -0.014350   0.047216
   57  C   3  Z   0.083259  -0.019893   0.073559   0.073280   0.141780
   58  C   3  X   0.202409   0.876308   0.252021   1.952007   0.852749
   59  C   3  Y  -0.982101  -1.424862   1.961839   1.215589  -0.687240
   60  C   3  Z   1.120632   1.132608   0.282628  -0.691464   2.551415
   61  C   3  X  -2.795560   0.640073  -3.323533   0.582008  -1.784776
   62  C   3  Y  -3.668297  -0.547272   0.920568  -0.280426  -1.592547
   63  C   3  Z   0.218701   0.317505  -1.375977  -1.514698  -0.645715
   64  C   3 XX   0.017861   0.014648  -0.000485   0.005119   0.010092
   65  C   3 YY  -0.010970  -0.004127  -0.002512  -0.016979  -0.006671
   66  C   3 ZZ  -0.006891  -0.010521   0.002998   0.011860  -0.003421
   67  C   3 XY   0.019369   0.005361   0.001010  -0.012374   0.007494
   68  C   3 XZ  -0.006565   0.027232  -0.000333   0.007413   0.009872
   69  C   3 YZ   0.013698   0.013926  -0.003315  -0.008134   0.011695
   70  C   3 XX  -0.073790   0.442738  -0.150749  -0.273788   1.089664
   71  C   3 YY   0.281378  -0.310919   0.185178   0.648389   0.079367
   72  C   3 ZZ  -0.207588  -0.131820  -0.034429  -0.374600  -1.169032
   73  C   3 XY  -0.214341  -0.044663   0.153787   0.222761   0.481707
   74  C   3 XZ   0.103875  -0.133902   0.289105  -0.064465   0.129794
   75  C   3 YZ   0.214220   0.231433   0.333177   0.113885   0.290360
   76  H   4  S   0.037476  -0.072379  -0.020009   0.003435  -0.041894
   77  H   4  S  -1.498446   4.291197   2.378551   0.533407  -1.136069
   78  H   4  S   1.792887   2.889385   1.888818  -0.434169  -1.576721
   79  H   4  X   0.003545   0.004139  -0.004728   0.007140  -0.003914
   80  H   4  Y   0.004904  -0.005253  -0.001574   0.003794   0.004874
   81  H   4  Z   0.006961  -0.011092  -0.009537   0.004194  -0.007106
   82  H   4  X  -0.091724   0.748172  -0.202707  -0.257101  -0.930952
   83  H   4  Y  -0.514686  -0.164917  -0.282791  -0.355681  -0.881471
   84  H   4  Z   0.396982  -0.681133  -1.254665   0.469181   0.695958
   85  H   5  S  -0.093250   0.000847  -0.030217  -0.014687  -0.042702
   86  H   5  S  -0.214274  -4.020748  -6.113229   1.643415  -1.188171
   87  H   5  S  -0.037938  -1.056963  -3.651805   0.277313  -0.962611
   88  H   5  X  -0.001266   0.005763   0.012103  -0.003282   0.008924
   89  H   5  Y   0.008232   0.012717  -0.001852   0.003891  -0.000012
   90  H   5  Z  -0.012463   0.001986   0.000633  -0.001605  -0.005468
   91  H   5  X   0.030441   0.850061   1.268397  -0.170451   0.687189
   92  H   5  Y   1.095117   0.367621  -0.438818   0.057690  -0.727951
   93  H   5  Z   0.001892   0.822036   0.960927   0.337873   0.757079
   94  H   6  S  -0.016591  -0.000407  -0.015454   0.105768   0.086050
   95  H   6  S  -4.071039  -4.088092   0.581698   2.478575  -1.621245
   96  H   6  S  -1.426734  -3.961231   2.133373   1.150119   2.366502
   97  H   6  X  -0.003646  -0.011232  -0.011833  -0.005109   0.002401
   98  H   6  Y  -0.002830   0.001502   0.004657  -0.011838   0.010390
   99  H   6  Z  -0.003766  -0.001654   0.001585   0.002819   0.004553
  100  H   6  X  -0.036529  -0.849453   0.005957   0.769758  -0.356176
  101  H   6  Y  -0.697324  -0.461886   0.223656   0.318069  -0.476803
  102  H   6  Z   0.112916   0.236940   0.323077   0.698058  -0.900447
  103  H   7  S  -0.058638  -0.005791  -0.022468   0.042118  -0.054540
  104  H   7  S  -1.220071   1.898439  -1.748284  -6.403088  -4.887277
  105  H   7  S  -0.805716   2.009731   0.926233   0.159192   1.260529
  106  H   7  X  -0.007479  -0.004304   0.003676  -0.004605  -0.003429
  107  H   7  Y  -0.001177  -0.004234  -0.001541   0.006854  -0.015675
  108  H   7  Z  -0.003441  -0.000499  -0.008095  -0.007853   0.011117
  109  H   7  X  -0.320460  -0.626233  -0.949645   0.344226   0.361379
  110  H   7  Y   0.037362  -0.530784   0.947161   1.738326   1.355986
  111  H   7  Z  -0.215573   0.198793   0.279490  -0.661736   0.734818
  112  H   8  S   0.011240   0.022905   0.053751   0.057111   0.056481
  113  H   8  S  -1.156354  -1.023836   3.377734   4.398036  -4.670756
  114  H   8  S  -3.735143   1.003721  -0.629420   0.988593  -1.979039
  115  H   8  X  -0.009114  -0.003857  -0.006146   0.010347   0.004678
  116  H   8  Y  -0.000081   0.002486   0.005301   0.004558   0.008280
  117  H   8  Z  -0.000504  -0.007851   0.009471   0.008349   0.010009
  118  H   8  X  -0.277459  -0.488574   0.965616  -0.258790  -0.714773
  119  H   8  Y   0.518253  -0.028207   0.400926   1.978242  -1.479962
  120  H   8  Z  -0.334366  -0.294280   0.016043   0.165433  -0.233323
  121  H   9  S   0.025467  -0.016213   0.041528   0.057682  -0.061120
  122  H   9  S   2.717913   3.808483  -0.386815  -0.518468   4.615122
  123  H   9  S   2.251541   1.134668  -1.261516   0.559942   0.836278
  124  H   9  X  -0.001989  -0.005335  -0.004068  -0.007211   0.004525
  125  H   9  Y  -0.002007  -0.001945   0.001803   0.000233   0.005827
  126  H   9  Z   0.000573   0.003292  -0.003483  -0.005842  -0.002773
  127  H   9  X   0.693240  -0.714613   0.550842  -0.486917  -0.583055
  128  H   9  Y  -0.299980  -0.083910  -0.305452   0.103056  -1.371552
  129  H   9  Z  -0.077128   1.032331  -0.734832  -0.634523   0.268235
  130  H  10  S   0.060872   0.055698  -0.017117  -0.025668   0.085153
  131  H  10  S   2.103020  -2.006821   1.139488  -1.211108  -0.660732
  132  H  10  S  -0.029668  -0.839946   0.757609  -1.168373  -0.249460
  133  H  10  X   0.010304  -0.013015   0.006521  -0.010465  -0.000656
  134  H  10  Y   0.000685   0.005132  -0.000326  -0.009438   0.009688
  135  H  10  Z   0.000816   0.002935   0.004432  -0.001705  -0.001167
  136  H  10  X   1.066298   0.168677   0.099505  -0.084606  -0.084120
  137  H  10  Y   0.142752  -0.079880  -0.501307  -0.982951   0.429866
  138  H  10  Z   0.207030  -0.421404  -0.586978  -0.495737  -0.079180
  139  F  11  S   0.006281  -0.004907  -0.004887   0.000263  -0.004515
  140  F  11  S   0.042936  -0.033921   0.032613  -0.007538  -0.021765
  141  F  11  S   0.041877  -0.062613   0.231569  -0.040712   0.003259
  142  F  11  S  -2.912621   0.587328  -2.151056   0.425450   0.009659
  143  F  11  X   0.043787   0.024390   0.024909  -0.033390   0.027307
  144  F  11  Y   0.001648  -0.041758   0.030612   0.082975  -0.047560
  145  F  11  Z   0.004633   0.024933   0.029132   0.040777   0.018888
  146  F  11  X   0.196387  -0.036733   0.132295  -0.077045   0.003971
  147  F  11  Y  -0.039964  -0.035546   0.042924   0.124360  -0.063252
  148  F  11  Z   0.010068   0.041238   0.042852   0.064902  -0.027144
  149  F  11  X   0.939854  -0.563266   0.318751   0.003648  -0.214444
  150  F  11  Y  -0.240646   0.324296  -0.012624   0.320440  -0.275244
  151  F  11  Z  -0.968098  -0.094829  -0.250920   0.065879   0.032553
  152  F  11 XX   0.001574  -0.003503   0.001991   0.000242  -0.000886
  153  F  11 YY  -0.001856   0.000881  -0.001506  -0.000702   0.000775
  154  F  11 ZZ   0.000282   0.002622  -0.000484   0.000460   0.000111
  155  F  11 XY  -0.001967   0.000864   0.003811   0.008929  -0.004315
  156  F  11 XZ  -0.005277   0.003062   0.003376   0.004241   0.001185
  157  F  11 YZ   0.000822  -0.000733   0.000819  -0.001208   0.001202
  158  F  11 XX  -0.004806   0.022712  -0.005958   0.018088   0.015101
  159  F  11 YY  -0.001675   0.007755   0.011125  -0.003667   0.010517
  160  F  11 ZZ   0.006481  -0.030467  -0.005168  -0.014421  -0.025618
  161  F  11 XY   0.005835  -0.008152   0.002279   0.004956  -0.006363
  162  F  11 XZ   0.000585  -0.004508  -0.001018  -0.008347   0.005840
  163  F  11 YZ  -0.005798   0.003878  -0.009016   0.002472  -0.015195

                     61         62         63         64         65
                    0.4186     0.4375     0.4550     0.4654     0.4781
                     A          A          A          A          A   
    1  C   1  S  -0.023441   0.058206   0.045252   0.010034  -0.007267
    2  C   1  S   0.040173   0.051480  -0.009324   0.009216   0.008592
    3  C   1  S   3.365469  -5.011979  -3.950769  -0.562699   0.201992
    4  C   1  S   6.598888  -3.071090   2.762375  -3.876980  -5.907688
    5  C   1  X  -0.006437  -0.033671  -0.005354   0.191625  -0.148909
    6  C   1  Y   0.004971   0.138123   0.085563   0.001045   0.113441
    7  C   1  Z   0.087287  -0.314455   0.161742   0.015208   0.073607
    8  C   1  X  -1.960546  -0.318516  -0.353958   1.311382   1.137519
    9  C   1  Y   0.144454   2.931827  -0.196086  -1.085760  -2.288810
   10  C   1  Z   2.154754  -4.532043   1.990830   0.758462   1.928462
   11  C   1  X   0.072965   0.075817  -0.856004   1.280406   0.107438
   12  C   1  Y   2.317540   1.409553   0.775747  -0.823609  -0.319208
   13  C   1  Z   0.050055  -1.820848  -0.234812   0.434549   1.535600
   14  C   1 XX  -0.025271  -0.012362  -0.000309  -0.008807   0.016181
   15  C   1 YY   0.022452   0.007311  -0.014182   0.008108  -0.013269
   16  C   1 ZZ   0.002820   0.005052   0.014491   0.000699  -0.002912
   17  C   1 XY   0.005476  -0.003354  -0.004865   0.013227   0.004025
   18  C   1 XZ  -0.038719  -0.014965   0.012728  -0.003579   0.014438
   19  C   1 YZ   0.013229  -0.013948   0.009040  -0.001243  -0.004841
   20  C   1 XX  -0.016184  -0.199828   0.468611  -0.672752   1.284979
   21  C   1 YY   0.309956   0.289252   0.355505   0.375842   0.118019
   22  C   1 ZZ  -0.293772  -0.089425  -0.824115   0.296911  -1.402997
   23  C   1 XY   0.050129  -0.110236   0.560799   0.518626   0.728384
   24  C   1 XZ   0.174939  -0.187141   0.401929  -0.446496   0.538080
   25  C   1 YZ   0.118812  -0.635044   0.452148   0.846897  -0.027247
   26  C   2  S   0.017387   0.043060   0.006096   0.003485  -0.016235
   27  C   2  S   0.013669  -0.041591   0.031443  -0.033586   0.033971
   28  C   2  S  -1.891820  -2.122080   0.080685  -0.807001   1.242069
   29  C   2  S  17.850589   1.994079  -1.980360   7.419679  18.001883
   30  C   2  X   0.042223   0.014717   0.114478   0.005668   0.018751
   31  C   2  Y  -0.062490   0.136417  -0.038554   0.047671  -0.004756
   32  C   2  Z   0.008955  -0.160819   0.023546   0.135420  -0.042166
   33  C   2  X   2.010754  -1.205362   2.678642   0.618519   2.122341
   34  C   2  Y  -1.159190   0.253157   0.436044   1.022125   0.092582
   35  C   2  Z   2.528516  -3.517305   2.232659   3.118318   3.152218
   36  C   2  X  -3.891456  -0.440889   0.667529  -0.422613  -1.761157
   37  C   2  Y  -4.306227   0.850839   1.624172  -1.737462  -4.519598
   38  C   2  Z  -6.397235  -3.091998  -0.530110   1.553457  -0.235026
   39  C   2 XX   0.015824   0.012036  -0.001514  -0.006691   0.006945
   40  C   2 YY  -0.024677  -0.032635   0.009759   0.017627  -0.010142
   41  C   2 ZZ   0.008853   0.020598  -0.008245  -0.010937   0.003197
   42  C   2 XY  -0.016275  -0.022504   0.026346  -0.007297   0.008849
   43  C   2 XZ   0.013470   0.010160  -0.003987   0.009658  -0.021752
   44  C   2 YZ  -0.040089   0.003502   0.004850   0.000126  -0.001570
   45  C   2 XX  -0.012182   0.397234  -0.642558  -0.214133  -0.892691
   46  C   2 YY   0.864526   0.256643   0.317268  -0.075958   0.346263
   47  C   2 ZZ  -0.852343  -0.653877   0.325290   0.290092   0.546428
   48  C   2 XY   0.130543   0.267634  -0.756742   0.027527  -0.574003
   49  C   2 XZ  -0.375518  -0.060623  -0.503683  -0.161752  -0.572744
   50  C   2 YZ   0.706649   0.603816  -1.151278  -0.420824  -1.646805
   51  C   3  S  -0.002383   0.022299   0.060431   0.025207  -0.020156
   52  C   3  S  -0.043656   0.017283  -0.001960   0.042035  -0.030192
   53  C   3  S  -0.353886  -1.543464  -3.889522  -2.247368   2.575965
   54  C   3  S -24.385612  -4.754807  -4.132073  -3.582648 -10.130815
   55  C   3  X   0.086495   0.036569   0.044368   0.068779  -0.045718
   56  C   3  Y   0.059671  -0.002707  -0.097739  -0.026178  -0.009362
   57  C   3  Z   0.034141   0.036713   0.094015   0.120286  -0.026090
   58  C   3  X   2.499690  -0.725806   1.723738   2.240965   1.374457
   59  C   3  Y   1.423885  -0.639491  -0.998196   0.701054   1.422882
   60  C   3  Z   1.943947  -0.551673   4.538597   2.248697   1.342326
   61  C   3  X  -2.784089  -1.295599  -0.078176   0.441591  -1.112205
   62  C   3  Y   0.110264  -2.047138  -0.874972   0.120693   0.579418
   63  C   3  Z  -3.998516   0.788138   0.859995  -0.125283  -2.166479
   64  C   3 XX  -0.011913   0.002373   0.002033  -0.006635   0.004253
   65  C   3 YY  -0.010367   0.010985   0.001568   0.003163  -0.009110
   66  C   3 ZZ   0.022281  -0.013358  -0.003601   0.003472   0.004857
   67  C   3 XY  -0.012742   0.002282   0.001318  -0.017123   0.016825
   68  C   3 XZ   0.008860  -0.006527   0.004241   0.005568   0.014035
   69  C   3 YZ  -0.007321   0.009276  -0.001667   0.005088   0.021657
   70  C   3 XX   0.153951   0.327493  -0.454862  -0.013414   0.139541
   71  C   3 YY   0.226710   0.461616  -0.687719   0.001890  -0.787550
   72  C   3 ZZ  -0.380660  -0.789109   1.142581   0.011524   0.648009
   73  C   3 XY   0.481163   0.649175  -0.588736  -0.583808  -0.323736
   74  C   3 XZ   0.097092  -0.668971   0.088672   0.505081   0.352510
   75  C   3 YZ   1.687397   0.614074  -0.069196   0.092737   0.014654
   76  H   4  S  -0.015309   0.024751  -0.050560   0.050102  -0.124321
   77  H   4  S  -5.685732   4.932393  -0.028710  -0.537150   3.092735
   78  H   4  S  -1.143102   1.745553  -1.012806   0.726796  -1.265304
   79  H   4  X   0.000640  -0.003463   0.009293   0.007394  -0.007076
   80  H   4  Y   0.009695  -0.001250   0.002251   0.002573  -0.003548
   81  H   4  Z   0.014298   0.004556   0.002836   0.000604  -0.023627
   82  H   4  X  -0.394266   1.307352  -0.197783  -0.143415   1.675934
   83  H   4  Y   0.726532  -1.333862  -0.796698   0.241245  -0.771996
   84  H   4  Z   1.578608  -0.750013   0.018730  -0.255343   0.561228
   85  H   5  S  -0.123792  -0.021852   0.024936  -0.144987   0.114724
   86  H   5  S   0.295132   4.095531   0.252072  -0.982102  -5.589575
   87  H   5  S  -0.237127   1.292422   0.910885  -1.828606   0.312088
   88  H   5  X  -0.011092  -0.006106  -0.002599  -0.005587   0.009450
   89  H   5  Y   0.005623  -0.001011   0.002240   0.011694   0.013239
   90  H   5  Z  -0.024209  -0.005353   0.007258  -0.004629   0.014811
   91  H   5  X  -0.394452  -1.584809  -0.511307   0.608131   1.836093
   92  H   5  Y  -0.211687  -0.388673  -0.496600  -1.079142  -1.337946
   93  H   5  Z  -0.682910   0.216696  -0.431604   0.426951  -0.361891
   94  H   6  S   0.000271   0.012332   0.047623   0.068672   0.045224
   95  H   6  S  -2.978302   3.593498  -0.393287  -1.076610  -3.750447
   96  H   6  S   0.997113   1.495555   0.684199   0.321370   0.029133
   97  H   6  X   0.012465   0.007005  -0.004104   0.008343  -0.017364
   98  H   6  Y  -0.014460   0.003277   0.003815  -0.010594   0.011655
   99  H   6  Z  -0.002665   0.003564  -0.002475  -0.007356   0.006826
  100  H   6  X  -0.173578   0.446111   0.752077  -1.218680  -0.087137
  101  H   6  Y  -0.683305   1.164477   0.161091   0.755495  -1.306473
  102  H   6  Z   0.039415   0.539819  -0.814907   0.743187  -0.333711
  103  H   7  S  -0.037231  -0.096464  -0.015349  -0.002952  -0.061786
  104  H   7  S  -2.058557  -0.211073  -1.238772  -1.909781  -2.620154
  105  H   7  S   3.072966  -1.065789  -1.287641   0.654967   2.213383
  106  H   7  X  -0.008042  -0.009502   0.015801  -0.003387   0.011022
  107  H   7  Y  -0.011581  -0.016970   0.000408   0.009481  -0.001150
  108  H   7  Z  -0.010940  -0.002553   0.009844   0.006403   0.002412
  109  H   7  X  -0.022248   0.062013   0.053638   0.505943   0.480732
  110  H   7  Y   0.592273  -0.035177   0.285286   0.219639   0.906887
  111  H   7  Z  -0.893181   0.478156   0.537937  -0.725590   0.731617
  112  H   8  S   0.021206   0.065473  -0.061948  -0.076119  -0.001247
  113  H   8  S   3.211088  -2.525103   4.395424   4.792936   4.528563
  114  H   8  S   0.269433  -2.103263  -0.024709   0.408134   0.245551
  115  H   8  X   0.002249   0.011548  -0.006723   0.001487  -0.010584
  116  H   8  Y   0.005250   0.011315  -0.020293  -0.008679  -0.007920
  117  H   8  Z   0.011183   0.003662  -0.003491   0.003828  -0.002907
  118  H   8  X   0.210424   0.062890   0.620396   0.788689   1.212345
  119  H   8  Y  -0.080851  -0.476595   1.025943   1.348509   0.945043
  120  H   8  Z   0.942676   0.215187  -1.110061  -0.508222  -0.892849
  121  H   9  S  -0.008530  -0.059653   0.066826   0.000315  -0.036628
  122  H   9  S   5.606226   2.758644   6.594692   2.169509  -2.386405
  123  H   9  S  -1.814097   1.716266   2.158376   0.869418  -0.834493
  124  H   9  X  -0.006614  -0.000482   0.001881  -0.001750  -0.003029
  125  H   9  Y   0.007855   0.001686   0.001770   0.006834   0.000620
  126  H   9  Z  -0.016016   0.001355  -0.001456  -0.000441   0.000897
  127  H   9  X  -0.936199  -0.730947   0.390841   0.559949   0.385708
  128  H   9  Y  -1.111117  -0.577902  -0.996752  -0.765079   1.292232
  129  H   9  Z   0.741113  -0.079720   2.750017   0.356387  -1.051169
  130  H  10  S   0.072430  -0.010492  -0.136434  -0.043753   0.043737
  131  H  10  S   0.306100  -0.221220  -0.588672   0.030943   0.460535
  132  H  10  S  -0.147009  -0.401606  -0.246357  -0.508860  -0.648531
  133  H  10  X   0.003923  -0.005137   0.004929  -0.000746   0.008694
  134  H  10  Y  -0.007688   0.002965   0.009551  -0.012114   0.000523
  135  H  10  Z  -0.010836   0.001924  -0.006715   0.008149  -0.008451
  136  H  10  X   0.656518   0.368749  -0.126516   0.583504   0.105330
  137  H  10  Y  -0.293036  -0.156720   0.191011   0.074745  -0.238342
  138  H  10  Z  -0.962934   0.038383  -0.401477   0.374525   0.382828
  139  F  11  S  -0.006364  -0.000862   0.005524   0.004419  -0.000392
  140  F  11  S   0.022626   0.000250   0.010358   0.029799   0.013207
  141  F  11  S   0.204257   0.000741  -0.056373   0.034713   0.084307
  142  F  11  S  -2.203347  -0.428301   1.068671  -0.966533  -1.122992
  143  F  11  X   0.055307   0.005370  -0.061771  -0.026311   0.024671
  144  F  11  Y   0.007208  -0.019688  -0.027231   0.025526   0.007640
  145  F  11  Z   0.046965  -0.012722   0.046620  -0.018994   0.015398
  146  F  11  X   0.151883   0.016773  -0.091756   0.002513   0.071275
  147  F  11  Y   0.035177   0.001832  -0.022590   0.008722   0.010360
  148  F  11  Z   0.148418   0.008979   0.061610  -0.022027  -0.013264
  149  F  11  X   0.356101   0.024173  -0.283442   0.247525   0.221463
  150  F  11  Y  -0.298936  -0.010746  -0.001100  -0.214707   0.000393
  151  F  11  Z  -0.591573  -0.256804   0.224814  -0.572312  -0.750837
  152  F  11 XX   0.002299  -0.000827  -0.002850  -0.001834   0.000959
  153  F  11 YY  -0.002317   0.000336   0.002155   0.000251  -0.001022
  154  F  11 ZZ   0.000018   0.000491   0.000695   0.001582   0.000063
  155  F  11 XY  -0.000465  -0.000061  -0.001474  -0.000122   0.001802
  156  F  11 XZ   0.002368  -0.001703   0.004048  -0.003550  -0.004766
  157  F  11 YZ   0.000580   0.001409   0.001354   0.000271   0.000488
  158  F  11 XX  -0.013310  -0.005385  -0.005152  -0.004930  -0.002162
  159  F  11 YY  -0.009477   0.002733  -0.003714   0.003493   0.005337
  160  F  11 ZZ   0.022787   0.002652   0.008866   0.001437  -0.003175
  161  F  11 XY  -0.006474  -0.007446  -0.007130   0.000831   0.004036
  162  F  11 XZ  -0.001385  -0.008831   0.008176  -0.005813   0.002028
  163  F  11 YZ   0.018079  -0.000231  -0.015701  -0.010556   0.002389

                     66         67         68         69         70
                    0.4926     0.5004     0.5200     0.5224     0.5398
                     A          A          A          A          A   
    1  C   1  S   0.026199  -0.047444   0.000355   0.038054  -0.038689
    2  C   1  S  -0.008013   0.024173  -0.016826  -0.003647  -0.007044
    3  C   1  S  -2.542098   3.559112  -0.435949  -2.602518   3.482887
    4  C   1  S  -5.858123   2.196555   0.852972  -9.927605   9.637564
    5  C   1  X   0.167703  -0.073425   0.172876  -0.019432  -0.017148
    6  C   1  Y  -0.004344   0.011235  -0.075617   0.015477  -0.176730
    7  C   1  Z   0.027203  -0.176167  -0.007477   0.058150  -0.047698
    8  C   1  X  -1.357692   0.439007   1.022498   1.712462   0.052965
    9  C   1  Y  -1.617254   2.321980  -2.358838   1.913234  -0.235849
   10  C   1  Z   1.933010  -1.255692  -1.926898   1.257316  -0.078810
   11  C   1  X   1.264614   0.434676   0.054316   1.468155  -0.662300
   12  C   1  Y   0.108768   2.473647   0.071303  -0.304433   1.264693
   13  C   1  Z   1.838327  -0.186621  -0.217080   2.675840  -1.914357
   14  C   1 XX  -0.018669   0.005243  -0.023353   0.007306   0.014076
   15  C   1 YY  -0.008687  -0.042388   0.014420  -0.019565  -0.012422
   16  C   1 ZZ   0.027356   0.037145   0.008933   0.012259  -0.001653
   17  C   1 XY  -0.006009  -0.022887  -0.004055  -0.015730  -0.019662
   18  C   1 XZ  -0.008613   0.000358  -0.013866   0.002534   0.000638
   19  C   1 YZ   0.012194   0.007763   0.005764  -0.003025  -0.000592
   20  C   1 XX  -0.351989   0.332179  -0.791053   0.026651  -0.441366
   21  C   1 YY   1.066916  -0.434844   0.580165   0.434181  -0.089968
   22  C   1 ZZ  -0.714927   0.102665   0.210889  -0.460832   0.531334
   23  C   1 XY  -0.014482  -0.900156  -0.503740  -0.164996  -0.910715
   24  C   1 XZ  -0.548952  -0.275017   0.732604   0.262812  -1.127756
   25  C   1 YZ   0.875155  -0.479204   0.616356  -0.255429  -0.816533
   26  C   2  S  -0.032866   0.015688  -0.042777  -0.040758   0.042517
   27  C   2  S   0.086295  -0.028966  -0.006590   0.074761   0.020064
   28  C   2  S   1.673432  -0.986212   4.665873   3.735765  -4.563484
   29  C   2  S  20.737462  27.625221   2.453336  17.615544 -11.752934
   30  C   2  X  -0.108334   0.011291  -0.007560  -0.160659  -0.040307
   31  C   2  Y  -0.031910  -0.000863   0.023185  -0.108057   0.045773
   32  C   2  Z  -0.051326  -0.157591  -0.006733  -0.077155   0.067681
   33  C   2  X   1.766292   0.928862   0.852638  -2.397905  -2.748117
   34  C   2  Y   0.337263   3.701429   1.965164  -1.890049  -2.975570
   35  C   2  Z   2.445892  -2.281086  -0.422483  -2.363337  -1.818241
   36  C   2  X  -3.325365  -4.379847  -0.897377  -1.996966  -0.703935
   37  C   2  Y  -4.602267  -2.524332  -0.385053  -4.596369   2.738123
   38  C   2  Z  -1.230312  -8.306704  -0.647271  -0.001492  -2.973634
   39  C   2 XX   0.008222  -0.000323  -0.010462  -0.009810   0.002873
   40  C   2 YY  -0.004859   0.028693   0.007529  -0.003249  -0.024057
   41  C   2 ZZ  -0.003364  -0.028370   0.002933   0.013060   0.021184
   42  C   2 XY  -0.017042   0.027017   0.011797   0.004430  -0.005108
   43  C   2 XZ   0.005691  -0.004964  -0.012461  -0.006236   0.022849
   44  C   2 YZ   0.002468   0.003081   0.006097  -0.007464   0.001437
   45  C   2 XX  -0.727772  -0.796902   0.032519  -0.468990   0.805367
   46  C   2 YY   0.450564   1.802751  -0.153792   0.495945  -1.116745
   47  C   2 ZZ   0.277208  -1.005849   0.121274  -0.026955   0.311379
   48  C   2 XY  -0.825898   0.250098  -0.275371   0.581581   0.320659
   49  C   2 XZ  -0.384564  -0.294858   0.425772   0.524364   0.185184
   50  C   2 YZ  -1.532196  -0.423448   0.345817   0.270457   0.334901
   51  C   3  S  -0.041842   0.014278   0.023383   0.003168   0.067880
   52  C   3  S  -0.061649  -0.013135  -0.034321  -0.078404   0.065088
   53  C   3  S   3.980951   0.523208  -3.882033  -0.324605  -7.805214
   54  C   3  S -13.740996 -26.035714  -2.866613  -2.696166  -1.229258
   55  C   3  X  -0.098919   0.001052   0.026290  -0.136047   0.151578
   56  C   3  Y  -0.044851  -0.057468   0.037415   0.022224   0.040403
   57  C   3  Z  -0.119382   0.063458  -0.023149  -0.122848   0.077879
   58  C   3  X   0.848001   0.492403   0.400359  -3.703537   0.560815
   59  C   3  Y  -1.332200  -0.651237   1.658857  -3.223452  -0.072214
   60  C   3  Z   1.370059   1.527064  -1.101731  -2.175482  -0.939313
   61  C   3  X  -2.378122  -3.609886   0.035536   0.160278   0.063555
   62  C   3  Y  -0.338876  -1.699797   0.287458  -0.647447  -0.502442
   63  C   3  Z  -3.428670  -4.570582  -1.104756  -1.005810   0.247147
   64  C   3 XX   0.023677   0.009669  -0.006505   0.011699   0.003941
   65  C   3 YY  -0.001870   0.003625   0.004547  -0.011875   0.011328
   66  C   3 ZZ  -0.021807  -0.013294   0.001958   0.000176  -0.015269
   67  C   3 XY   0.025161   0.020089  -0.011735   0.006630   0.007047
   68  C   3 XZ   0.014867   0.012239   0.002486   0.010577  -0.041408
   69  C   3 YZ   0.020740   0.005190  -0.019772  -0.018196   0.014656
   70  C   3 XX  -0.351486   0.039603   0.349129   0.352863   0.347170
   71  C   3 YY  -0.834622  -0.526859  -0.771101   0.511020   0.484845
   72  C   3 ZZ   1.186107   0.487256   0.421972  -0.863883  -0.832015
   73  C   3 XY  -0.254372  -1.031904   0.474051   0.861564   0.762005
   74  C   3 XZ   1.059850  -0.228995  -0.717381  -0.255564  -0.002776
   75  C   3 YZ   0.819740  -0.403412  -0.671621   0.094537  -0.076547
   76  H   4  S   0.109659   0.087242   0.114318  -0.047820   0.039522
   77  H   4  S  -1.967578  -1.736461   6.234967  -0.095544  -1.947312
   78  H   4  S  -0.240592   0.044385   0.324374  -0.549329   0.151506
   79  H   4  X   0.012124  -0.014962   0.005300  -0.009892  -0.013246
   80  H   4  Y   0.007041  -0.009896   0.012837  -0.004689  -0.000780
   81  H   4  Z   0.023257   0.014871   0.019038   0.001713   0.002347
   82  H   4  X  -0.564652   0.766350   1.231646   0.135878   0.199968
   83  H   4  Y  -0.674249  -0.104465  -1.903706  -0.143977   0.353523
   84  H   4  Z   0.238910   0.519123  -2.347264   0.471744   0.379434
   85  H   5  S  -0.081210   0.044705  -0.117559   0.028612  -0.038009
   86  H   5  S   3.812929  -2.554598  -2.346323  -2.509580   0.057987
   87  H   5  S  -1.721877   0.512746  -0.153867  -1.104560   1.141785
   88  H   5  X  -0.011503   0.009677  -0.019873   0.007796   0.009550
   89  H   5  Y   0.007617  -0.016406  -0.001198  -0.007091  -0.013133
   90  H   5  Z  -0.017913   0.002004  -0.008518   0.010286  -0.003585
   91  H   5  X  -1.715194   0.517511   1.786187   0.991265   0.392518
   92  H   5  Y  -0.329895  -0.096909   0.469257  -0.047485   0.441009
   93  H   5  Z   0.411707   0.546161  -0.548125  -0.490515   0.407598
   94  H   6  S   0.073802  -0.181735   0.009591  -0.003175  -0.166936
   95  H   6  S  -4.462452   1.645930  -3.432919   4.868236  -0.282095
   96  H   6  S   1.335072   1.645122  -0.026508   0.830720  -0.226405
   97  H   6  X   0.020459   0.006962   0.005005   0.002838   0.011036
   98  H   6  Y  -0.009045   0.022843  -0.013368   0.014248   0.021603
   99  H   6  Z   0.002805  -0.026056  -0.000430  -0.000931  -0.007335
  100  H   6  X  -1.678657  -0.294608  -0.416656   0.707071  -0.853537
  101  H   6  Y  -1.116875  -0.387103  -1.030808   2.275245  -0.503176
  102  H   6  Z  -0.713856   0.671249   0.700661   0.337663  -1.114992
  103  H   7  S  -0.091318   0.208611  -0.014029  -0.021825  -0.100867
  104  H   7  S  -3.113136  -7.616271  -4.595191  -0.843513   8.444707
  105  H   7  S   2.988331   1.038180   0.200039   2.394714  -0.739971
  106  H   7  X  -0.006093   0.012885  -0.001435  -0.005144  -0.005881
  107  H   7  Y  -0.003328   0.016264   0.008090   0.003992  -0.009749
  108  H   7  Z   0.012476   0.007607  -0.000147  -0.005525  -0.003494
  109  H   7  X   1.245303   1.170490   0.961912   0.259326  -1.172356
  110  H   7  Y   1.048887   0.311954   2.173864  -0.583243  -2.649512
  111  H   7  Z   0.705567   1.311235  -0.374972   0.157403   0.571549
  112  H   8  S   0.030725  -0.010676   0.080056   0.072334   0.085441
  113  H   8  S   0.041212   1.316459   5.532540 -11.398222   3.245539
  114  H   8  S  -1.588192  -1.771556   0.478632  -0.570571   0.329323
  115  H   8  X  -0.019131  -0.016408  -0.008267  -0.000773  -0.000108
  116  H   8  Y  -0.010923  -0.018043   0.000050   0.014925   0.006247
  117  H   8  Z  -0.024203   0.001510  -0.007516   0.002521   0.008907
  118  H   8  X  -0.821103  -0.480569   2.451333  -2.105269   1.242179
  119  H   8  Y   0.062233  -0.399670   0.927493  -2.166549   1.909272
  120  H   8  Z   0.579158  -1.269788  -0.331855   0.916730   0.304857
  121  H   9  S  -0.072797   0.076263   0.085520   0.043379  -0.017974
  122  H   9  S   1.170585   1.898444  -2.749436   2.464104   2.391445
  123  H   9  S  -1.266060  -1.011956  -0.735213   0.006760  -0.093743
  124  H   9  X   0.002400  -0.003111  -0.000199  -0.002881   0.019563
  125  H   9  Y  -0.005196   0.006973  -0.001557   0.006760  -0.001130
  126  H   9  Z   0.011453   0.004289  -0.010865  -0.001976   0.008295
  127  H   9  X   0.607123   0.268502  -0.907275  -0.363543  -0.120732
  128  H   9  Y   1.492517  -0.080467   1.028034  -1.263279  -0.901998
  129  H   9  Z   0.667594   0.669585  -0.135207   1.256631   0.702182
  130  H  10  S   0.030784   0.053079  -0.011798   0.094078  -0.148098
  131  H  10  S   0.927021  -0.028884   0.027115   2.625143   1.104285
  132  H  10  S   0.568054  -0.764144  -0.097083  -1.402582   0.110420
  133  H  10  X   0.003638  -0.004733   0.003279   0.002466   0.016710
  134  H  10  Y   0.002140  -0.004241   0.005063   0.002077   0.001873
  135  H  10  Z   0.005548   0.000088   0.000975  -0.003597  -0.013372
  136  H  10  X   0.080651   0.846588  -0.240867   0.959609   0.139323
  137  H  10  Y  -0.192156   0.009062   0.298268  -0.403752  -0.841443
  138  H  10  Z  -0.760377  -0.912587  -0.261468  -0.172376  -0.227656
  139  F  11  S  -0.002815   0.000805  -0.002831   0.000286   0.006594
  140  F  11  S  -0.003330   0.017287  -0.000625   0.027623   0.028825
  141  F  11  S   0.034304   0.042080   0.061181   0.112761   0.004117
  142  F  11  S  -1.280266  -2.104068   0.090633  -4.274563  -0.495659
  143  F  11  X   0.028668   0.036455  -0.002787   0.084097  -0.022729
  144  F  11  Y   0.005895   0.027334  -0.045121   0.029364   0.037549
  145  F  11  Z   0.007186   0.052247   0.040897   0.033781   0.016652
  146  F  11  X   0.084164   0.091026  -0.009851   0.227773   0.033125
  147  F  11  Y  -0.017663   0.013046  -0.053405   0.026795   0.122515
  148  F  11  Z   0.062951   0.089259   0.054353   0.005687   0.043604
  149  F  11  X   0.422375   0.441583   0.024589   1.711057   0.530007
  150  F  11  Y   0.192143  -0.616700   0.017524  -0.360287   0.147146
  151  F  11  Z   0.049888  -0.227346   0.039792  -0.586766   0.131504
  152  F  11 XX   0.001675   0.000457   0.001213   0.006195   0.001967
  153  F  11 YY  -0.001351   0.000237   0.000963  -0.003165  -0.001168
  154  F  11 ZZ  -0.000324  -0.000694  -0.002176  -0.003030  -0.000799
  155  F  11 XY   0.002006  -0.001384  -0.002498   0.001447   0.005243
  156  F  11 XZ   0.004959   0.005487   0.001994  -0.000641   0.001932
  157  F  11 YZ  -0.000764  -0.000184  -0.000087  -0.000726  -0.001515
  158  F  11 XX  -0.000344   0.010650  -0.004534   0.001872  -0.032631
  159  F  11 YY  -0.018354  -0.009128  -0.014333   0.007095   0.031512
  160  F  11 ZZ   0.018698  -0.001521   0.018868  -0.008967   0.001118
  161  F  11 XY   0.013170  -0.003589  -0.014314  -0.003366  -0.007324
  162  F  11 XZ  -0.001470  -0.003723   0.010443  -0.000801  -0.004993
  163  F  11 YZ   0.006188  -0.011781  -0.002603  -0.014229   0.029114

                     71         72         73         74         75
                    0.5443     0.5642     0.5665     0.5821     0.5980
                     A          A          A          A          A   
    1  C   1  S  -0.030860  -0.026395  -0.007192   0.047376  -0.046280
    2  C   1  S   0.020680   0.010309   0.023042   0.064384  -0.032909
    3  C   1  S   2.105068   1.652476  -2.028008  -3.660675   4.358398
    4  C   1  S  10.634442  13.158230  -0.959026  -1.711392 -12.229973
    5  C   1  X   0.148256  -0.010817  -0.022596   0.034920   0.103176
    6  C   1  Y   0.186928   0.035780   0.105035  -0.018763   0.035678
    7  C   1  Z  -0.024194   0.033526  -0.035446  -0.062747  -0.019715
    8  C   1  X   0.740917  -1.220294  -3.608276   1.268620  -4.908425
    9  C   1  Y   1.412939   0.604668  -0.157524   0.233979   2.454529
   10  C   1  Z  -0.183279   1.553393  -5.747691   5.212108  -0.341549
   11  C   1  X  -0.088905   0.240444   0.063730   0.218101   0.376629
   12  C   1  Y   1.665545   2.924021  -0.060673   0.694002  -1.106340
   13  C   1  Z  -2.664882  -2.400093  -0.660458   1.271726   2.383873
   14  C   1 XX  -0.004980   0.009603   0.017668  -0.006340  -0.028803
   15  C   1 YY   0.004374  -0.009840   0.007189  -0.009595   0.004696
   16  C   1 ZZ   0.000606   0.000237  -0.024857   0.015935   0.024107
   17  C   1 XY   0.003184  -0.008013   0.012492  -0.008937   0.018483
   18  C   1 XZ   0.003356   0.006224   0.001972  -0.012598  -0.010426
   19  C   1 YZ   0.031407  -0.006974   0.010402   0.010934  -0.003776
   20  C   1 XX  -1.083907  -0.363574  -2.015250   0.092427  -0.977367
   21  C   1 YY   0.981538   0.162420   0.026895   0.026347   0.574359
   22  C   1 ZZ   0.102369   0.201154   1.988354  -0.118774   0.403008
   23  C   1 XY   0.410297   0.579280   0.668379  -0.153734  -0.504719
   24  C   1 XZ   0.844178   0.144585   1.040063  -0.960941   0.141354
   25  C   1 YZ   0.145215   0.652997  -2.166325   0.480519   0.598247
   26  C   2  S   0.081046  -0.055257   0.043975   0.016422  -0.010308
   27  C   2  S   0.037961   0.041598   0.023383   0.042069  -0.044706
   28  C   2  S  -7.571765   6.621753  -6.063486  -6.468798   1.919774
   29  C   2  S -19.652530  -3.918839   0.510340  21.471837  13.468232
   30  C   2  X  -0.119258  -0.116888  -0.063339  -0.074956  -0.090176
   31  C   2  Y  -0.024578   0.044997   0.083706  -0.097799   0.069790
   32  C   2  Z  -0.238045  -0.206602  -0.129740   0.040767   0.022411
   33  C   2  X  -0.582604  -2.767333   1.553203   3.578812   0.534840
   34  C   2  Y  -1.994833  -0.825771   6.588091  -1.140208   1.959389
   35  C   2  Z  -1.093162  -2.419549  -1.657526   8.439217  -2.368252
   36  C   2  X   1.143541  -3.479024   0.537104  -2.510183   0.725284
   37  C   2  Y   4.455496   1.900159   1.193043  -1.302034  -5.131353
   38  C   2  Z  -1.366077  -7.924434  -0.455248  -4.660679   2.886654
   39  C   2 XX  -0.003248  -0.013590  -0.002162   0.001077   0.004547
   40  C   2 YY   0.020640   0.011613   0.003785   0.018100   0.004233
   41  C   2 ZZ  -0.017392   0.001977  -0.001623  -0.019178  -0.008779
   42  C   2 XY   0.009896  -0.005913  -0.006913  -0.027773  -0.003769
   43  C   2 XZ  -0.020676  -0.004102  -0.011906  -0.012564   0.006527
   44  C   2 YZ  -0.003663  -0.001055  -0.009925  -0.020131   0.014020
   45  C   2 XX   0.278423   0.046944   0.669545  -0.839277   0.349249
   46  C   2 YY  -0.019819  -0.547744   0.263528   1.540963   0.275664
   47  C   2 ZZ  -0.258604   0.500799  -0.933073  -0.701685  -0.624913
   48  C   2 XY  -0.798568  -1.029768  -0.002647   1.511038   0.293446
   49  C   2 XZ  -0.841688  -0.199212   0.127669  -1.283527   0.812295
   50  C   2 YZ  -0.586359  -1.050407   0.726625  -2.667425   0.882217
   51  C   3  S  -0.033426   0.087592  -0.012343  -0.005824  -0.009489
   52  C   3  S  -0.069606  -0.072483   0.012004   0.050173  -0.055686
   53  C   3  S   3.050796  -7.282388  -0.556597   4.089599  -3.082861
   54  C   3  S   8.259163 -11.759123  -0.441187 -20.791330   3.846901
   55  C   3  X  -0.165200  -0.019123  -0.045190  -0.079113   0.003491
   56  C   3  Y  -0.088550  -0.122514  -0.004378   0.097849   0.043305
   57  C   3  Z  -0.122005  -0.215280  -0.024965  -0.114207   0.074881
   58  C   3  X   0.939190  -1.625368   1.660122   4.473110   0.447053
   59  C   3  Y   2.448602  -1.409235   0.300667   3.469622   1.130656
   60  C   3  Z  -2.180691  -2.467964   1.743278   3.924219  -1.827618
   61  C   3  X   0.284806  -2.797842  -0.744401  -4.371092   2.099835
   62  C   3  Y  -0.300881  -2.243918  -0.962605  -2.114858   1.624192
   63  C   3  Z   0.913919  -2.095505   0.398322  -2.677466   0.054944
   64  C   3 XX  -0.010480  -0.021259  -0.010842  -0.011865   0.008402
   65  C   3 YY  -0.011117   0.016187  -0.000038  -0.015162  -0.005915
   66  C   3 ZZ   0.021597   0.005072   0.010880   0.027027  -0.002487
   67  C   3 XY  -0.001993   0.019647   0.004932  -0.012683  -0.007073
   68  C   3 XZ   0.018504  -0.003244   0.015061   0.020109  -0.007605
   69  C   3 YZ  -0.012410  -0.003720   0.009835   0.022785  -0.024998
   70  C   3 XX  -0.421774   0.432923   1.005439   1.720689  -0.424255
   71  C   3 YY  -0.510913   0.764877  -1.055369  -2.146409  -0.200570
   72  C   3 ZZ   0.932688  -1.197799   0.049930   0.425720   0.624825
   73  C   3 XY  -0.561925  -0.782276  -0.247954   0.226471   1.161916
   74  C   3 XZ   0.535845  -0.302155   1.853987   2.281818  -1.052244
   75  C   3 YZ  -0.465623  -0.286883   0.285633   3.479039  -1.066551
   76  H   4  S   0.000670  -0.039454  -0.092685   0.070407  -0.000287
   77  H   4  S   0.185344  -5.151630   6.889790  -6.255843  -9.172833
   78  H   4  S   0.398278   0.182325   0.643484  -0.391015  -0.099371
   79  H   4  X   0.013770   0.003280   0.012001  -0.003660   0.027480
   80  H   4  Y   0.018101  -0.010150   0.000413  -0.006971  -0.001498
   81  H   4  Z   0.003414  -0.009187   0.001864   0.015386   0.029394
   82  H   4  X  -1.002355  -1.643259   0.030442  -1.066775  -2.371568
   83  H   4  Y  -1.124985   1.103637  -0.316828   1.329464   1.463597
   84  H   4  Z   0.181265   1.281513  -2.599152   1.341144   3.214845
   85  H   5  S  -0.077856   0.017069  -0.008210  -0.056592  -0.086754
   86  H   5  S  -0.762558   2.280825  10.268144  -1.428279   9.602019
   87  H   5  S  -0.097486   0.824876   0.220972  -0.006915  -0.916884
   88  H   5  X  -0.013946   0.001309   0.013102  -0.007595  -0.021537
   89  H   5  Y   0.013330  -0.006679   0.016932  -0.011430   0.011432
   90  H   5  Z  -0.004483   0.001025   0.007886  -0.012258  -0.026634
   91  H   5  X   0.900068  -0.760363  -3.432959   0.607619  -3.656521
   92  H   5  Y  -0.712351   0.050337   0.231251   0.524568   0.312741
   93  H   5  Z  -0.485255  -0.382085  -2.519050   0.604500  -0.285209
   94  H   6  S   0.063649  -0.026041  -0.020970  -0.067137   0.024981
   95  H   6  S  -0.740173  -0.780496  -5.316989   3.733035  -1.790657
   96  H   6  S   1.508755   1.721940   0.464977   1.001887  -0.449879
   97  H   6  X  -0.006098   0.002052  -0.012950   0.005644   0.004635
   98  H   6  Y  -0.014704   0.008220  -0.018313   0.010525  -0.017229
   99  H   6  Z  -0.024311   0.000550   0.008302  -0.016137  -0.012234
  100  H   6  X   0.013642   0.074039  -0.997418   0.777199  -1.314366
  101  H   6  Y   0.055014  -0.165086  -1.841888   1.323957  -0.385886
  102  H   6  Z   0.067993   0.825184  -0.797685   0.416096   1.402630
  103  H   7  S   0.094330  -0.128020   0.018471   0.099641   0.054019
  104  H   7  S   8.506402   2.197840  -8.024475  -3.038038  -5.559321
  105  H   7  S  -1.638377   0.594324  -0.874927   1.101909   1.497890
  106  H   7  X   0.001097  -0.014702  -0.009738  -0.005494  -0.006885
  107  H   7  Y   0.012216   0.002504  -0.009344  -0.003173   0.012351
  108  H   7  Z  -0.001397  -0.014146  -0.002922  -0.000545  -0.002272
  109  H   7  X  -1.199338   1.123037   0.910801  -0.941077  -0.157313
  110  H   7  Y  -3.370473   0.173743   2.747015   0.126638   1.589261
  111  H   7  Z   0.261254   1.575824  -0.478964   1.111453   0.417197
  112  H   8  S  -0.084707   0.112384  -0.044600  -0.166298   0.124270
  113  H   8  S   5.611634   2.678950   3.005597   7.490837   1.644010
  114  H   8  S  -0.944258  -2.370408  -1.112797  -2.377491   1.749959
  115  H   8  X  -0.000038  -0.000637   0.001870  -0.000006  -0.016651
  116  H   8  Y  -0.003012  -0.016771  -0.001178  -0.001112   0.006040
  117  H   8  Z   0.006908  -0.025096  -0.001378   0.010377   0.015550
  118  H   8  X   1.113634   1.339150   1.322895   2.611178   1.166877
  119  H   8  Y   1.330355   0.910543   0.414534   0.079723   1.368912
  120  H   8  Z   0.329734   1.123081   0.809607   2.262160  -1.332801
  121  H   9  S   0.037564   0.065636  -0.071999  -0.243618   0.140112
  122  H   9  S  -8.236394   2.136962   2.225462   5.393778  -5.280378
  123  H   9  S  -0.112703  -0.647924   0.811301  -0.191303  -0.313314
  124  H   9  X  -0.010700  -0.003781  -0.006410   0.003622  -0.000042
  125  H   9  Y  -0.002562   0.005529  -0.003724  -0.015514   0.006300
  126  H   9  Z  -0.015088  -0.019735   0.006852   0.000097  -0.015336
  127  H   9  X   0.210735   0.909388   1.224075   0.548785  -1.272541
  128  H   9  Y   2.158142  -0.742492   0.153458   0.947916   0.850356
  129  H   9  Z  -2.198067   0.314834   0.596988   0.409267  -0.317061
  130  H  10  S   0.025241  -0.097939   0.027456  -0.085886   0.211476
  131  H  10  S  -0.201146  -1.563859   0.419804  -0.494131   1.203034
  132  H  10  S   0.158764  -0.005363  -0.072632   0.908191  -1.477694
  133  H  10  X   0.004409   0.004763   0.017200   0.023515  -0.031918
  134  H  10  Y  -0.000555  -0.003467  -0.012300  -0.007380   0.019799
  135  H  10  Z   0.007412   0.010828  -0.007542  -0.009082   0.019584
  136  H  10  X  -0.391426   0.142259   0.121640  -0.652585   0.858922
  137  H  10  Y   0.091426  -0.209019   0.038969   0.563586   0.222639
  138  H  10  Z  -0.450560  -0.059040  -0.302836   0.624071   0.360652
  139  F  11  S  -0.004919   0.004163  -0.000344   0.003440  -0.014255
  140  F  11  S  -0.011934  -0.006344   0.003243   0.006267  -0.034349
  141  F  11  S   0.052688  -0.127511   0.030475  -0.011610   0.083977
  142  F  11  S   0.927091   1.595680  -0.559251   1.572437  -3.367920
  143  F  11  X   0.003535  -0.065294   0.025028  -0.048167   0.095143
  144  F  11  Y  -0.028935   0.005000   0.008733  -0.022468  -0.034395
  145  F  11  Z   0.020085  -0.028553   0.007404  -0.000793  -0.074623
  146  F  11  X  -0.023423  -0.113558   0.076173  -0.079836   0.157340
  147  F  11  Y   0.008335   0.024586  -0.010652  -0.040859  -0.057449
  148  F  11  Z   0.067357  -0.015203   0.068888  -0.049216  -0.079857
  149  F  11  X  -0.155108  -0.368867   0.110060  -0.879324   0.867363
  150  F  11  Y  -0.053131   0.269127  -0.071138  -0.021276  -0.519602
  151  F  11  Z   0.224932   0.361849  -0.257575  -0.041878  -0.721680
  152  F  11 XX   0.001027  -0.003658   0.001730  -0.003359   0.001309
  153  F  11 YY  -0.000966   0.001212   0.000462   0.001588  -0.002277
  154  F  11 ZZ  -0.000060   0.002446  -0.002192   0.001771   0.000968
  155  F  11 XY  -0.002277   0.001553  -0.000354  -0.001018  -0.003576
  156  F  11 XZ   0.001051   0.000065   0.000707  -0.000213  -0.005911
  157  F  11 YZ   0.000781   0.000660  -0.000481  -0.001026   0.001468
  158  F  11 XX  -0.006780   0.004602  -0.019137  -0.015838   0.014917
  159  F  11 YY   0.016643  -0.001624  -0.038474   0.031497  -0.010641
  160  F  11 ZZ  -0.009863  -0.002978   0.057610  -0.015659  -0.004276
  161  F  11 XY   0.001951  -0.009222  -0.004153   0.002156  -0.011644
  162  F  11 XZ  -0.004716  -0.004357   0.013881   0.009723  -0.006089
  163  F  11 YZ   0.045921  -0.007477   0.005537  -0.016897  -0.006040

                     76         77         78         79         80
                    0.6154     0.6232     0.6378     0.6527     0.6705
                     A          A          A          A          A   
    1  C   1  S   0.071614  -0.015205   0.012489  -0.024288  -0.024096
    2  C   1  S   0.023634   0.002796   0.011235   0.002282   0.036835
    3  C   1  S  -2.330911   0.588210   0.842923   2.470866   3.012340
    4  C   1  S   2.451379   3.971112   2.530900  -4.698537 -12.434651
    5  C   1  X  -0.023496   0.034419  -0.087540  -0.066073   0.056037
    6  C   1  Y  -0.135193   0.043014  -0.065012   0.011732  -0.006267
    7  C   1  Z  -0.017710   0.044256   0.002448  -0.039434  -0.167965
    8  C   1  X  -1.962070  -1.188167  -2.042490  -0.788844  -0.705743
    9  C   1  Y  -1.677530   2.349616  -5.373578   2.646293  -3.037965
   10  C   1  Z   3.887295  -1.023867  -1.229840  -1.366495  -3.845943
   11  C   1  X  -0.177647  -0.367681   0.158943   1.275903  -0.770961
   12  C   1  Y   0.352596   0.131776  -0.865065  -0.382127  -0.921069
   13  C   1  Z   0.081534  -1.462656  -1.046323   0.256582   1.901755
   14  C   1 XX   0.011473   0.005082  -0.002211  -0.007624   0.010040
   15  C   1 YY  -0.018247   0.003110  -0.000356   0.016086   0.011006
   16  C   1 ZZ   0.006774  -0.008192   0.002567  -0.008462  -0.021046
   17  C   1 XY  -0.020499   0.009464  -0.016001   0.004757  -0.004994
   18  C   1 XZ  -0.015975   0.011650  -0.017616   0.003710  -0.002967
   19  C   1 YZ  -0.004652  -0.014873  -0.021715   0.006449   0.000890
   20  C   1 XX   0.732531  -1.141661  -0.147923  -0.119635   0.172945
   21  C   1 YY   0.833499   1.266720   1.986356   0.779545  -0.088893
   22  C   1 ZZ  -1.566030  -0.125059  -1.838433  -0.659910  -0.084051
   23  C   1 XY  -0.020725  -0.809510   0.750203  -3.571185   0.814657
   24  C   1 XZ  -1.385903  -0.061611   0.797585   1.257989  -1.232706
   25  C   1 YZ   1.927167  -0.040090   0.467633  -0.377122   0.039018
   26  C   2  S  -0.050596   0.016699  -0.005165   0.009924  -0.028754
   27  C   2  S  -0.008138   0.004295  -0.030510  -0.001320  -0.004011
   28  C   2  S   5.680309  -0.961313  -1.283391  -2.761613   2.411095
   29  C   2  S   3.162707  -1.458031  -5.135153  10.793227  15.985751
   30  C   2  X  -0.078303   0.038364   0.047190   0.179288  -0.175992
   31  C   2  Y  -0.060167  -0.085604  -0.191980   0.118538   0.227652
   32  C   2  Z   0.129443  -0.096635   0.024427  -0.105116  -0.199582
   33  C   2  X  -4.021832   0.108598   1.654847   2.307286  -1.980578
   34  C   2  Y  -6.356075   1.539814  -3.163211   1.675699   1.610467
   35  C   2  Z   2.121707  -1.500883   3.408592  -2.809190  -3.976956
   36  C   2  X  -0.571890  -0.127389   1.427359  -2.448912  -0.202439
   37  C   2  Y  -1.034473   1.471821   4.040915  -3.398028  -7.247196
   38  C   2  Z  -0.547297  -0.645786   0.447127   0.711280   3.822049
   39  C   2 XX  -0.017209   0.004118  -0.004728  -0.006176   0.016136
   40  C   2 YY  -0.000992  -0.003426  -0.025036  -0.007010  -0.009608
   41  C   2 ZZ   0.018201  -0.000692   0.029764   0.013186  -0.006528
   42  C   2 XY  -0.002909   0.017237  -0.005025   0.016214  -0.005567
   43  C   2 XZ   0.030126  -0.011660   0.010936  -0.005667   0.019131
   44  C   2 YZ  -0.004878   0.009880   0.000936   0.014913   0.009388
   45  C   2 XX   0.759009   0.898873  -1.255523  -0.234326   0.872035
   46  C   2 YY  -0.429158   0.159836   2.618544  -0.889222  -2.502970
   47  C   2 ZZ  -0.329851  -1.058709  -1.363021   1.123547   1.630935
   48  C   2 XY   1.086101   0.164769   0.961442  -0.968104   0.988545
   49  C   2 XZ   0.689765  -0.571560  -0.897952   1.422986   1.238864
   50  C   2 YZ  -0.166641  -0.102196   0.728106   1.773928  -0.175948
   51  C   3  S   0.039076  -0.003907   0.015408  -0.000890   0.046297
   52  C   3  S   0.051273   0.006848  -0.003280   0.028023   0.034631
   53  C   3  S  -3.089925   1.606113  -0.661567  -3.943221  -5.652350
   54  C   3  S  -3.635808  -4.394464   2.606109  -7.430911  -2.927994
   55  C   3  X   0.063673   0.056742  -0.007774  -0.042508  -0.058091
   56  C   3  Y   0.009198  -0.141353   0.089402   0.012809  -0.206474
   57  C   3  Z  -0.015618  -0.041590   0.042023   0.149600   0.193299
   58  C   3  X   0.027122  -0.231609   1.177795  -1.204819  -2.606192
   59  C   3  Y   4.220264  -2.970707   3.558909   0.256300  -2.050470
   60  C   3  Z  -6.234967   2.327214   1.307438   0.603598  -3.565643
   61  C   3  X  -0.450187  -1.243672  -0.438783  -0.920793   0.599458
   62  C   3  Y   0.564122  -0.139976  -0.884904   0.528358   3.654160
   63  C   3  Z  -1.295434  -0.973004   1.095970  -2.047424  -3.913810
   64  C   3 XX  -0.025044  -0.013417   0.005922   0.026527  -0.031849
   65  C   3 YY   0.007736  -0.015650   0.005195   0.006314  -0.001932
   66  C   3 ZZ   0.017308   0.029067  -0.011117  -0.032842   0.033782
   67  C   3 XY  -0.021288   0.032119  -0.017950  -0.016802  -0.007076
   68  C   3 XZ  -0.015250   0.011289  -0.003750  -0.000255  -0.008834
   69  C   3 YZ   0.008885  -0.003509  -0.038429  -0.005130  -0.002118
   70  C   3 XX   1.360669   2.247038   0.290014  -0.873652  -0.912292
   71  C   3 YY   0.802688  -1.966100   0.082635  -0.351022  -0.689705
   72  C   3 ZZ  -2.163357  -0.280938  -0.372648   1.224674   1.601998
   73  C   3 XY  -0.294042  -0.794260   1.393644  -0.626152  -1.987566
   74  C   3 XZ  -0.100954  -0.838779   0.296334   1.317822   1.126841
   75  C   3 YZ  -1.031452   0.103630   2.291016  -0.002968  -1.073626
   76  H   4  S   0.091090  -0.055729  -0.032327  -0.054356   0.030460
   77  H   4  S  -6.624542  -3.485880   8.333832  -4.347352   5.185500
   78  H   4  S  -0.436245   0.391221   0.887261   0.205263  -0.818189
   79  H   4  X  -0.018378   0.015587   0.005562  -0.007430  -0.004912
   80  H   4  Y   0.004597  -0.006273   0.017545   0.016760   0.009546
   81  H   4  Z   0.009189  -0.012889  -0.001213  -0.014332  -0.000556
   82  H   4  X  -0.631787  -0.849793   0.225215  -0.103506   1.289442
   83  H   4  Y   0.129447  -0.058862  -2.937862  -0.329538  -0.940382
   84  H   4  Z   1.601733   1.353153  -1.999624   2.989432  -1.387127
   85  H   5  S   0.065993  -0.044361   0.039659   0.050694  -0.063093
   86  H   5  S   4.295835   4.636483   5.815025  -1.902048   1.196900
   87  H   5  S  -0.117592   0.333410   0.097194  -0.815960  -0.158693
   88  H   5  X   0.015420  -0.005231  -0.000183  -0.004006  -0.000344
   89  H   5  Y  -0.006925  -0.000292  -0.000255  -0.016430   0.017871
   90  H   5  Z  -0.013146   0.006709   0.014387  -0.001668  -0.017266
   91  H   5  X  -2.792739  -1.619975  -2.425295   0.563460  -0.340956
   92  H   5  Y  -0.081334   0.704427  -0.392766   2.349462  -0.933680
   93  H   5  Z   0.254232  -0.354079  -1.446923   0.304978   1.345623
   94  H   6  S  -0.052357   0.069036  -0.027068  -0.020526  -0.005711
   95  H   6  S  -4.702509   1.331204 -17.322171   7.091123  -7.661415
   96  H   6  S  -0.031161   0.057700  -0.471210   0.362837  -0.164919
   97  H   6  X   0.012575   0.009604   0.007951   0.005668  -0.000220
   98  H   6  Y   0.023306  -0.006983   0.021154  -0.007193   0.009639
   99  H   6  Z  -0.018476   0.022526   0.008421  -0.010652   0.005811
  100  H   6  X  -0.935783  -1.018104  -2.727194  -0.451963  -0.457599
  101  H   6  Y  -1.011842   1.199629  -6.346242   3.003220  -3.216441
  102  H   6  Z   0.412447  -0.183445  -0.218986   0.864845   0.248210
  103  H   7  S  -0.007931   0.061938   0.145389  -0.073958  -0.053672
  104  H   7  S   7.031065  -1.269383  -1.861946  -0.538690   0.252954
  105  H   7  S   0.690968  -0.611889  -2.335058   2.160550   3.495977
  106  H   7  X  -0.002384   0.027724  -0.012704  -0.001892   0.004130
  107  H   7  Y   0.001617   0.003826   0.000722  -0.009969  -0.012270
  108  H   7  Z   0.011185   0.006120  -0.000101   0.005272  -0.000143
  109  H   7  X  -2.242664  -0.314172   0.154087   0.468002  -1.382309
  110  H   7  Y  -2.256468   0.496706  -0.733164   0.752780   0.840732
  111  H   7  Z  -1.182523   0.016758  -0.694534  -0.926119   0.041247
  112  H   8  S  -0.000144  -0.055304   0.067919  -0.063948  -0.100381
  113  H   8  S   6.835130  -4.945267   3.061210   3.329161   1.170202
  114  H   8  S   0.383064  -0.446238  -0.301123  -0.387649   2.151038
  115  H   8  X   0.015968  -0.017017  -0.003994   0.003384   0.002369
  116  H   8  Y   0.006020   0.012259   0.002230  -0.007885   0.003031
  117  H   8  Z   0.008758   0.003861  -0.001484  -0.002074  -0.007842
  118  H   8  X   2.486524  -0.449363   1.496076   0.494431  -0.600659
  119  H   8  Y   1.418663  -3.523351   0.307725   0.841665  -0.854589
  120  H   8  Z  -0.176093  -0.823259   2.110041   0.151926   1.258064
  121  H   9  S   0.011055   0.009306   0.043791   0.029135   0.231931
  122  H   9  S  -9.489861   8.660919   3.721807  -0.401134  -3.429341
  123  H   9  S  -0.876822  -0.307999   0.725884  -0.646450  -2.884484
  124  H   9  X  -0.008487   0.008672  -0.011438  -0.022180  -0.014481
  125  H   9  Y  -0.002499  -0.005271   0.022171   0.013860   0.014973
  126  H   9  Z  -0.002529  -0.024252  -0.020417   0.010883  -0.038893
  127  H   9  X  -0.096836   0.790570  -0.057389   1.365441   1.267310
  128  H   9  Y   1.216459  -1.427445  -0.907281   0.606540   0.575276
  129  H   9  Z  -3.864637   2.556324   0.595963   0.224346   0.998765
  130  H  10  S  -0.026995  -0.172974   0.190943   0.104751   0.105938
  131  H  10  S   0.261559  -0.946969  -2.080161  -1.882897   0.834660
  132  H  10  S  -0.013134   0.750419   0.523091   0.042190  -0.729241
  133  H  10  X   0.009457   0.029835  -0.045669  -0.028480  -0.003493
  134  H  10  Y  -0.010889   0.003366  -0.001506  -0.003768  -0.007598
  135  H  10  Z  -0.005903  -0.011772   0.005610   0.010636  -0.011021
  136  H  10  X   0.194488   1.799427  -0.999488  -1.072495  -0.067672
  137  H  10  Y   0.360466  -2.549444  -0.098978   0.508493   0.406025
  138  H  10  Z  -0.990096  -0.347611   1.050489  -0.319248   0.907451
  139  F  11  S   0.001416   0.018368  -0.015005  -0.015427  -0.003845
  140  F  11  S   0.016871   0.023951  -0.041428  -0.019156  -0.003541
  141  F  11  S   0.053815  -0.309562   0.093310   0.249695   0.074115
  142  F  11  S  -0.724377  -1.111922   3.013444   1.846045  -1.103260
  143  F  11  X  -0.000832   0.004062  -0.008942  -0.025921   0.031829
  144  F  11  Y  -0.026304   0.115148   0.041682  -0.036611  -0.015084
  145  F  11  Z   0.065795  -0.008685  -0.066097  -0.001284  -0.043943
  146  F  11  X   0.032171   0.098027  -0.173793  -0.153669   0.042990
  147  F  11  Y  -0.026126   0.253860   0.050970  -0.056632  -0.033294
  148  F  11  Z   0.137983   0.008141  -0.095928   0.032459  -0.097551
  149  F  11  X   0.269041   0.403582  -1.229940  -0.658399   0.154757
  150  F  11  Y  -0.234160   0.603040   0.252452   0.184899  -0.350736
  151  F  11  Z   0.072805  -0.170012  -0.003213   0.118427  -0.354249
  152  F  11 XX   0.001869  -0.002619   0.000577   0.000973   0.001135
  153  F  11 YY  -0.000263  -0.000692  -0.002161  -0.001277  -0.000112
  154  F  11 ZZ  -0.001606   0.003311   0.001583   0.000304  -0.001023
  155  F  11 XY  -0.002310   0.015134   0.002257  -0.003792  -0.002119
  156  F  11 XZ   0.007755   0.000122  -0.007559   0.000075  -0.004019
  157  F  11 YZ  -0.002045  -0.000471  -0.000166   0.002068  -0.000286
  158  F  11 XX  -0.011559  -0.030606   0.054502   0.035336   0.010698
  159  F  11 YY   0.003435   0.024752  -0.023674  -0.018748   0.018695
  160  F  11 ZZ   0.008123   0.005854  -0.030828  -0.016588  -0.029393
  161  F  11 XY  -0.004266  -0.015616  -0.002713   0.006806   0.003484
  162  F  11 XZ   0.002749   0.003155  -0.009139  -0.020989   0.001615
  163  F  11 YZ   0.025274   0.007617  -0.005206  -0.004279   0.007694

                     81         82         83         84         85
                    0.6879     0.7081     0.7191     0.7411     0.7552
                     A          A          A          A          A   
    1  C   1  S   0.044892  -0.000106   0.031930  -0.009054   0.050640
    2  C   1  S   0.031652  -0.008934   0.061476  -0.015860   0.025262
    3  C   1  S  -6.992474  -1.242086  -3.113267  -0.533094  -8.831875
    4  C   1  S  -1.297510   1.150222  -2.539817   0.968169   0.876741
    5  C   1  X   0.064554  -0.034057  -0.199850  -0.118903   0.077646
    6  C   1  Y  -0.045505  -0.009120   0.075217  -0.209721   0.091173
    7  C   1  Z  -0.051046   0.047623   0.015627  -0.126739  -0.081089
    8  C   1  X   0.372539  -1.208544  -2.660102  -0.863337  -1.202817
    9  C   1  Y  -5.873439  -3.195222  -1.562403  -0.109179  -4.513679
   10  C   1  Z   5.746167   4.330895   2.168769   0.474128   8.136876
   11  C   1  X   1.925676   0.046598   0.511151   0.769103  -1.306689
   12  C   1  Y   0.859827   0.489119   0.025770   2.703236  -1.470147
   13  C   1  Z   1.309647  -0.046161   0.747617   1.247984   0.127163
   14  C   1 XX  -0.002885  -0.012187   0.071181  -0.002370  -0.012154
   15  C   1 YY   0.002909   0.012734  -0.010568  -0.023692  -0.022868
   16  C   1 ZZ  -0.000024  -0.000547  -0.060613   0.026062   0.035021
   17  C   1 XY  -0.010985   0.012323   0.009639  -0.004936  -0.009930
   18  C   1 XZ  -0.000351  -0.021222   0.052668  -0.030355  -0.065672
   19  C   1 YZ  -0.011382  -0.005237  -0.022591   0.031036   0.040173
   20  C   1 XX  -0.417338   1.880650  -0.614094   0.245015   0.991870
   21  C   1 YY   0.247241  -1.102787  -1.209315  -3.343055   2.188059
   22  C   1 ZZ   0.170097  -0.777863   1.823410   3.098040  -3.179929
   23  C   1 XY  -0.296906   1.704305   0.961194  -0.604788  -0.342958
   24  C   1 XZ   2.390260  -0.143908  -1.604204   3.315772  -0.783936
   25  C   1 YZ   3.337140   2.712598   0.686067   2.196022  -0.651865
   26  C   2  S   0.006885   0.072920  -0.021018  -0.025905   0.004010
   27  C   2  S   0.017868   0.036608  -0.028062   0.041798   0.033582
   28  C   2  S  -2.167313 -11.832248   2.510838   1.591258  -3.290617
   29  C   2  S  13.236529   5.522238   7.500546  -8.532161  -2.440684
   30  C   2  X   0.134243   0.052556   0.046443   0.237901   0.291225
   31  C   2  Y   0.121550   0.074711   0.131479   0.258103  -0.021434
   32  C   2  Z   0.213722   0.053824   0.008847  -0.045721   0.056371
   33  C   2  X   7.251706   8.668721  -0.279314  -4.041507   3.603528
   34  C   2  Y   1.670173   3.279616  -0.572663  -1.974301  -2.028559
   35  C   2  Z  11.246929  15.851088  -0.454725  -5.230671   7.589599
   36  C   2  X  -2.973615  -0.957483  -1.570594  -1.638175  -0.960833
   37  C   2  Y  -4.328993  -0.388688  -3.663609  -2.718881  -1.550602
   38  C   2  Z  -3.292518  -0.641658  -0.043199  -0.092982   1.657040
   39  C   2 XX  -0.006831   0.008751   0.009432   0.012733   0.017695
   40  C   2 YY   0.025825   0.021097  -0.006374   0.008945  -0.002194
   41  C   2 ZZ  -0.018993  -0.029848  -0.003058  -0.021678  -0.015501
   42  C   2 XY  -0.002453  -0.016006   0.000812   0.019977  -0.010612
   43  C   2 XZ  -0.039514  -0.010948   0.018546   0.010523  -0.014013
   44  C   2 YZ  -0.002767   0.013000  -0.002722  -0.015652  -0.021466
   45  C   2 XX  -0.612011  -2.119842  -3.040610  -0.314869  -3.232229
   46  C   2 YY  -1.333471   1.494685  -1.379519  -4.916815   2.118190
   47  C   2 ZZ   1.945482   0.625157   4.420130   5.231684   1.114039
   48  C   2 XY  -1.561401  -2.619095  -0.121111  -3.161458  -4.170365
   49  C   2 XZ  -1.400315  -3.059254  -1.821520   4.979463  -1.213491
   50  C   2 YZ  -6.089543  -2.517581  -0.110352   1.239054  -7.160054
   51  C   3  S  -0.075352  -0.090961   0.020934   0.022771  -0.045046
   52  C   3  S  -0.020741  -0.028607   0.055114   0.030444  -0.032916
   53  C   3  S  10.942264   9.137577   2.173812  -8.396830   8.276524
   54  C   3  S -10.983446  -7.564052  -4.992680   2.443655  -0.183199
   55  C   3  X  -0.065512   0.033610  -0.050563  -0.037977  -0.160477
   56  C   3  Y  -0.015276   0.033100  -0.080693   0.017444  -0.270815
   57  C   3  Z  -0.038360  -0.012236   0.158760  -0.002263   0.025647
   58  C   3  X   5.401154   8.752711  -3.022458  -6.684225   5.283885
   59  C   3  Y  -2.217518   2.900666   0.309812  -5.516313   0.825140
   60  C   3  Z   9.018492  12.755344  -0.262829  -4.017587   6.161948
   61  C   3  X  -0.294575  -1.033976   0.442818  -0.042336   2.033925
   62  C   3  Y   0.156049  -0.383741   1.670357   0.543183   3.361689
   63  C   3  Z  -1.128448  -0.610760  -1.875887   0.183958  -1.565735
   64  C   3 XX  -0.001417  -0.011419   0.028440   0.009418  -0.007521
   65  C   3 YY  -0.006100   0.008323  -0.008560   0.011835   0.009657
   66  C   3 ZZ   0.007517   0.003096  -0.019879  -0.021253  -0.002136
   67  C   3 XY   0.000019   0.004102  -0.016386  -0.001906  -0.020499
   68  C   3 XZ   0.002780   0.018487  -0.012524  -0.024313   0.000864
   69  C   3 YZ   0.005219  -0.005357  -0.009410   0.024685  -0.004880
   70  C   3 XX  -0.410297   1.184627  -2.776100   0.103310  -0.300433
   71  C   3 YY  -0.498423  -3.406448   0.697943  -1.718532  -3.026269
   72  C   3 ZZ   0.908720   2.221821   2.078157   1.615222   3.326702
   73  C   3 XY  -1.598083   0.049565  -1.490617  -1.254715  -1.825971
   74  C   3 XZ   2.226500   4.629488  -1.406418  -1.588861   0.275727
   75  C   3 YZ  -0.184655   2.112235  -0.800018  -2.208654  -1.911432
   76  H   4  S   0.065256   0.041846  -0.142841   0.107467   0.184249
   77  H   4  S  -1.171586  -5.584603  -9.618641  -2.762249  -1.418927
   78  H   4  S   0.163988  -0.369300  -0.243643  -1.923942  -0.615121
   79  H   4  X  -0.009805  -0.002246   0.020196  -0.015457  -0.027068
   80  H   4  Y   0.012605  -0.002542  -0.020679   0.007004   0.021888
   81  H   4  Z   0.005061  -0.017017  -0.067814   0.038964   0.049547
   82  H   4  X  -1.349322  -0.628016  -2.354362  -1.520747   0.842386
   83  H   4  Y  -0.968294   0.230475   2.023553   0.401603   0.277258
   84  H   4  Z  -0.261061   1.882270   2.179361  -0.399807   0.768540
   85  H   5  S   0.026542   0.036160   0.129973   0.015169   0.023233
   86  H   5  S  -2.375089  -1.873108   9.865472  -4.648413  -0.118956
   87  H   5  S  -1.475887  -0.158777  -0.517396  -0.407392   1.105280
   88  H   5  X  -0.013468  -0.002822   0.056865   0.015812  -0.003209
   89  H   5  Y  -0.007820   0.007238  -0.011190  -0.000506  -0.009330
   90  H   5  Z  -0.013874  -0.026075   0.031707  -0.015644  -0.036770
   91  H   5  X   0.576832   0.060736  -4.040110   1.798701  -0.042341
   92  H   5  Y  -0.082523  -1.026280   0.745652  -0.864264   1.054974
   93  H   5  Z  -1.346706   0.835496  -0.966292  -1.237209   0.307218
   94  H   6  S  -0.022470   0.016599  -0.055389  -0.092795   0.020989
   95  H   6  S  -5.646699  -4.873291  -1.362103   7.591808  -5.591476
   96  H   6  S   0.700579   0.347659   0.071893   2.015284  -2.090479
   97  H   6  X   0.009180  -0.010514  -0.012483   0.017641  -0.000418
   98  H   6  Y   0.002240   0.002342   0.010428   0.041289  -0.011683
   99  H   6  Z   0.003037  -0.004787   0.004974  -0.009340  -0.015303
  100  H   6  X  -1.281897   1.375291  -0.803227   1.441923  -0.797397
  101  H   6  Y  -1.717260  -2.097667  -0.373315   1.283881  -0.826299
  102  H   6  Z   2.062820   2.051665  -0.129700   1.802295  -1.729168
  103  H   7  S  -0.078904  -0.016661  -0.087208  -0.199076  -0.037854
  104  H   7  S  -1.367924  -3.888231   3.653538  18.027700   5.355289
  105  H   7  S   2.400238   0.099604   2.045594   2.480281   1.372358
  106  H   7  X   0.014637  -0.020028  -0.003224  -0.000910  -0.008033
  107  H   7  Y  -0.010830   0.004154  -0.004523  -0.030250  -0.016299
  108  H   7  Z  -0.010829   0.015539   0.001137   0.005328  -0.005212
  109  H   7  X  -0.191327   1.904670  -0.194151  -1.154076   1.682058
  110  H   7  Y   1.079013   0.580414  -0.843287  -4.179130  -2.249171
  111  H   7  Z   2.736419   0.379384   0.015708  -1.732310   2.397212
  112  H   8  S  -0.097946  -0.055322  -0.122517  -0.061462  -0.043902
  113  H   8  S   1.017571  11.315543   1.479960  -4.738716  10.600537
  114  H   8  S   0.341926  -0.475872   1.386998  -0.740233   3.416584
  115  H   8  X   0.012090  -0.022493   0.008402  -0.008131   0.016457
  116  H   8  Y  -0.000211  -0.015711   0.015898   0.022252   0.020802
  117  H   8  Z  -0.006083  -0.007998   0.007096   0.006139  -0.004657
  118  H   8  X  -1.471702   3.438228  -1.444243  -0.467050   1.634992
  119  H   8  Y  -0.105664   0.587398   0.561641  -2.150373   0.982094
  120  H   8  Z  -0.165060   2.446443  -1.143423  -1.037462  -1.945350
  121  H   9  S  -0.096306  -0.045400  -0.006750  -0.072135   0.095548
  122  H   9  S   4.851172   9.936311  -6.545975  -2.755417  -4.848391
  123  H   9  S  -0.553536   0.387712  -1.447248  -0.295817  -2.752443
  124  H   9  X   0.006364  -0.004638   0.011587   0.024811   0.006771
  125  H   9  Y   0.012823   0.004078   0.003688  -0.026063   0.022669
  126  H   9  Z   0.039221   0.007572  -0.004749   0.020687  -0.000619
  127  H   9  X   0.422789   1.518957  -0.793505  -0.024324  -0.472664
  128  H   9  Y  -1.455663  -0.715509   1.280224   1.093964   1.141322
  129  H   9  Z   0.736574   2.965015  -1.483630  -0.012225  -0.501123
  130  H  10  S  -0.070161  -0.140983  -0.337143   0.185029   0.221125
  131  H  10  S   2.593370   0.972540   1.974134  -3.148074  -1.587886
  132  H  10  S  -0.710426   0.470789  -0.535700   0.472001   0.371713
  133  H  10  X   0.025402   0.028119   0.055900  -0.037987  -0.053559
  134  H  10  Y  -0.001929  -0.008068   0.000320  -0.003684  -0.000094
  135  H  10  Z   0.010382   0.019893  -0.004815  -0.019181   0.008513
  136  H  10  X   0.551521   0.704122   0.121090  -1.344413  -0.233472
  137  H  10  Y  -0.112311  -0.703653   0.165366  -0.198376  -0.048106
  138  H  10  Z   0.195495  -1.267254  -0.350060   0.525910  -0.084538
  139  F  11  S   0.006885   0.007026   0.012077  -0.014469  -0.010374
  140  F  11  S   0.033351  -0.003736   0.060940  -0.010934  -0.031665
  141  F  11  S   0.048050  -0.185450   0.132018   0.269196   0.005643
  142  F  11  S  -3.158981  -1.378824  -2.261167   3.666798   1.547543
  143  F  11  X   0.030170   0.018734  -0.037683  -0.039063   0.012046
  144  F  11  Y   0.004669   0.022902  -0.025398   0.031662   0.041145
  145  F  11  Z  -0.016040   0.005395  -0.000337   0.011268   0.012431
  146  F  11  X   0.158541   0.132647   0.106996  -0.243312  -0.117123
  147  F  11  Y   0.001505   0.040314  -0.046399   0.054865   0.017481
  148  F  11  Z  -0.023358   0.080292   0.051843  -0.003367  -0.002239
  149  F  11  X   0.958692   0.566337   0.886196  -1.177571  -0.624427
  150  F  11  Y  -0.280781   0.049581  -0.215637   0.543524   0.220022
  151  F  11  Z  -0.603339   0.169083  -0.380605   0.410691   0.425057
  152  F  11 XX  -0.000670  -0.001037  -0.002225   0.003455   0.000989
  153  F  11 YY  -0.000234   0.000004   0.002880  -0.001774  -0.002221
  154  F  11 ZZ   0.000904   0.001033  -0.000654  -0.001681   0.001232
  155  F  11 XY   0.001101   0.003060  -0.001765   0.001572   0.002014
  156  F  11 XZ  -0.001298   0.004785   0.002233  -0.001640   0.000386
  157  F  11 YZ  -0.000372   0.000324   0.002027  -0.000264  -0.000546
  158  F  11 XX  -0.046461  -0.054798  -0.111149   0.087097   0.089954
  159  F  11 YY   0.036932   0.010146   0.030793  -0.033000  -0.042885
  160  F  11 ZZ   0.009529   0.044652   0.080356  -0.054096  -0.047069
  161  F  11 XY   0.023683   0.001567   0.007212  -0.007945   0.000492
  162  F  11 XZ   0.026283  -0.007239   0.002069  -0.001971   0.009955
  163  F  11 YZ   0.021093   0.021107  -0.023249  -0.022751  -0.040133

                     86         87         88         89         90
                    0.7980     0.8424     0.8866     0.9131     0.9209
                     A          A          A          A          A   
    1  C   1  S  -0.005490   0.017337  -0.006192  -0.011295  -0.083538
    2  C   1  S  -0.023324   0.104975   0.102703  -0.049323  -0.206954
    3  C   1  S   0.378867  -0.349997   2.487453  -2.468200   2.617780
    4  C   1  S   2.348232  -8.406580 -15.607898   4.935756   3.675147
    5  C   1  X   0.040148  -0.324205   0.340816   0.508857  -0.258001
    6  C   1  Y   0.166489   0.074939  -0.392492   0.415013   0.018446
    7  C   1  Z   0.084535   0.295801   0.314518   0.193292  -0.079896
    8  C   1  X  -1.033471   2.544115  -4.101806  -4.863679   1.494964
    9  C   1  Y  -0.288357  -3.590896   4.777453  -7.536534  -0.648972
   10  C   1  Z   0.335840  -2.512915  -6.228919   0.563534  -0.010480
   11  C   1  X  -0.865789   1.230815  -1.210774  -1.471284   0.562596
   12  C   1  Y  -0.171243  -1.948516  -0.900272  -1.076368   0.390789
   13  C   1  Z  -0.847446   0.550096   2.440235  -1.568592  -0.731311
   14  C   1 XX  -0.003230   0.036189  -0.071009  -0.126195   0.111374
   15  C   1 YY   0.011159   0.003333  -0.051861   0.222413  -0.039866
   16  C   1 ZZ  -0.007929  -0.039522   0.122870  -0.096219  -0.071508
   17  C   1 XY   0.020794   0.003389  -0.031110   0.167688   0.033387
   18  C   1 XZ  -0.015570   0.069687  -0.047679  -0.030940   0.026980
   19  C   1 YZ   0.007545  -0.073572  -0.043298   0.022877   0.042041
   20  C   1 XX  -0.053989  -0.015429  -0.628580   1.647212  -1.112429
   21  C   1 YY   0.583280   1.643167   0.446056  -3.251871  -0.184825
   22  C   1 ZZ  -0.529290  -1.627738   0.182524   1.604658   1.297254
   23  C   1 XY   0.524016  -1.319694   0.759945  -1.603740   0.533682
   24  C   1 XZ  -0.645259   1.548286  -1.556440   1.525931  -1.280445
   25  C   1 YZ   0.278619   0.146179  -1.578049   1.706152   0.922052
   26  C   2  S   0.026001  -0.001819   0.027205   0.002009   0.047550
   27  C   2  S  -0.003358  -0.011422   0.043311   0.058925   0.108189
   28  C   2  S  -1.520109   0.766100  -3.356720   1.716120  -1.380717
   29  C   2  S  -0.413840   3.837250   9.994219 -13.038824  -3.263947
   30  C   2  X   0.006966   0.031607   0.215574  -0.071749   0.462870
   31  C   2  Y  -0.131288   0.097502   0.063998  -0.113396  -0.380636
   32  C   2  Z  -0.038913  -0.133645  -0.186703  -0.249967  -0.464619
   33  C   2  X   1.075898  -1.250475  -1.136608  -0.212761  -2.030576
   34  C   2  Y   2.322667  -0.482912   3.216400  -1.827507   2.595381
   35  C   2  Z   3.652815  -0.734149  -4.556899   0.961198   5.388292
   36  C   2  X   0.483827   0.202193   0.875268   1.261093   0.625468
   37  C   2  Y   1.855307  -1.319994  -2.048345   2.437323   1.247248
   38  C   2  Z  -0.825413   3.049072   3.589616   1.315174   0.168414
   39  C   2 XX  -0.009304  -0.001462   0.074313  -0.022887   0.055496
   40  C   2 YY   0.011315  -0.020838   0.009891   0.029514   0.012739
   41  C   2 ZZ  -0.002011   0.022300  -0.084204  -0.006627  -0.068235
   42  C   2 XY   0.010791  -0.014308  -0.050104  -0.006458   0.010794
   43  C   2 XZ   0.018242  -0.054665  -0.072345  -0.017366  -0.030615
   44  C   2 YZ  -0.005789   0.051091   0.028875  -0.007394  -0.070487
   45  C   2 XX   0.694460   0.589828   0.104193  -1.729086   1.613901
   46  C   2 YY   0.996081   0.239356   0.521881  -3.734172  -0.843768
   47  C   2 ZZ  -1.690541  -0.829184  -0.626075   5.463258  -0.770133
   48  C   2 XY  -0.071533  -1.289563   1.841029  -2.019656   2.052070
   49  C   2 XZ  -1.541302   3.243963  -0.766091   3.490653  -0.560827
   50  C   2 YZ  -1.037082  -1.981113   2.396068  -0.230449   0.443892
   51  C   3  S  -0.009770   0.052335  -0.032656   0.017964  -0.003095
   52  C   3  S  -0.045442   0.101832  -0.046315  -0.000153  -0.019617
   53  C   3  S   6.115509  -1.354528  -1.227409  -4.399759  -1.174985
   54  C   3  S  -0.400156   3.299699   1.126508   7.195344   2.183682
   55  C   3  X  -0.052711   0.035939  -0.209649  -0.027600  -0.157824
   56  C   3  Y   0.121922   0.007413   0.000044   0.092521   0.044178
   57  C   3  Z   0.052389  -0.047359  -0.416309  -0.111335  -0.093217
   58  C   3  X  -0.461999  -0.875421  -0.334523  -3.796944   4.563037
   59  C   3  Y  -0.905777  -0.615850   0.259376  -3.419533   1.285823
   60  C   3  Z   3.765667  -2.709607   1.954852  -0.641749   0.310855
   61  C   3  X  -0.788009   1.146564   0.621105   0.818209   0.473232
   62  C   3  Y  -1.074956   0.781921   0.073045  -0.101946  -0.521626
   63  C   3  Z   0.270507   0.152997   1.092148   1.158153   0.620005
   64  C   3 XX   0.009430   0.012748   0.051201   0.017794  -0.027357
   65  C   3 YY  -0.011520  -0.009611  -0.030291  -0.025826  -0.024356
   66  C   3 ZZ   0.002090  -0.003137  -0.020910   0.008032   0.051714
   67  C   3 XY  -0.026572  -0.016531  -0.022556   0.033440   0.027783
   68  C   3 XZ  -0.033351   0.005288   0.049624   0.093546   0.081236
   69  C   3 YZ   0.012574   0.062744   0.059602   0.009691   0.013627
   70  C   3 XX   0.809543   0.271081  -0.851158  -0.946747   0.382191
   71  C   3 YY  -0.611002  -1.183917   1.090726  -0.018024   0.908125
   72  C   3 ZZ  -0.198541   0.912836  -0.239568   0.964771  -1.290316
   73  C   3 XY   1.560021   0.041845   0.542380  -1.659328   0.649344
   74  C   3 XZ   1.130260  -0.306841  -0.227737  -1.384813   1.229500
   75  C   3 YZ  -0.098095  -1.845561   0.037021  -1.682039   0.822008
   76  H   4  S  -0.010266  -0.291627  -0.232707  -0.024347   0.181290
   77  H   4  S  -2.019724  12.715067  -0.667018  -1.059920  -4.356768
   78  H   4  S  -0.012568   1.092398  -1.088572   0.458538   0.406498
   79  H   4  X   0.012089   0.069490   0.015313   0.037444  -0.017583
   80  H   4  Y  -0.002541  -0.069334  -0.033652   0.016035   0.039150
   81  H   4  Z  -0.022669  -0.126725   0.016122  -0.044185  -0.022835
   82  H   4  X  -0.113223   1.543074   0.185003   0.641403  -1.221595
   83  H   4  Y   0.313052  -2.553991   0.195841   0.848640   0.535451
   84  H   4  Z   0.810201  -2.516704   1.439985   0.068175   0.636481
   85  H   5  S  -0.015604  -0.125253  -0.346254  -0.089623   0.251437
   86  H   5  S   3.002602  -6.566429  12.282876   0.058873   1.281250
   87  H   5  S   1.081392  -0.847688   1.093620   1.290826  -0.735907
   88  H   5  X  -0.002546   0.021659  -0.166391  -0.153528   0.147651
   89  H   5  Y   0.016283  -0.006362  -0.006784   0.054772  -0.000653
   90  H   5  Z  -0.021494   0.042158  -0.039579  -0.060513   0.017323
   91  H   5  X  -1.262363   2.540318  -3.242511   0.244384  -0.984209
   92  H   5  Y  -0.043180  -0.212736  -0.194753   1.030916  -0.256824
   93  H   5  Z   0.259233   0.937494   0.012242  -0.569405   0.214501
   94  H   6  S   0.090668  -0.182329  -0.463810   0.331240   0.276380
   95  H   6  S  -2.859123  -5.371781   0.909031  -3.918864  -1.824791
   96  H   6  S  -0.312714  -0.748790   0.088444  -1.885862   0.245022
   97  H   6  X  -0.005962   0.006099   0.068227  -0.092270  -0.026011
   98  H   6  Y  -0.043794   0.047810   0.115594  -0.238779  -0.022796
   99  H   6  Z   0.004767   0.038544   0.029399   0.004692  -0.004018
  100  H   6  X  -0.454666  -1.640710  -0.003666   0.288273  -0.841427
  101  H   6  Y  -0.517940  -1.979399  -0.860506  -1.643277  -0.172913
  102  H   6  Z   0.142502   0.738232  -0.331477   1.101042   0.648121
  103  H   7  S   0.068347  -0.075021  -0.122878   0.043425  -0.022228
  104  H   7  S  -5.038986   2.885778  -6.326168  14.081282  -4.126595
  105  H   7  S  -1.004320   0.440064   0.230528  -0.881765  -1.010709
  106  H   7  X   0.023524  -0.016414  -0.014546   0.002347   0.069753
  107  H   7  Y   0.029438  -0.021539  -0.073838   0.053780  -0.006611
  108  H   7  Z  -0.017317   0.005431  -0.002174  -0.019551  -0.015121
  109  H   7  X   0.605289   0.046988   0.436373  -1.339507  -0.283189
  110  H   7  Y   1.197584  -1.233397   2.017349  -4.254188   1.428344
  111  H   7  Z   0.871220  -0.169494  -0.499152  -0.883719  -0.659888
  112  H   8  S  -0.073481  -0.139929  -0.131053  -0.002926   0.047448
  113  H   8  S  -7.726588   1.113428  -2.771010  -0.760801   3.290420
  114  H   8  S  -0.939434   1.065903  -0.043660   0.044296  -0.130758
  115  H   8  X  -0.001064   0.004183   0.047527  -0.020247   0.033308
  116  H   8  Y   0.017376   0.029865   0.031405  -0.015528  -0.016132
  117  H   8  Z   0.002543   0.006469  -0.015868  -0.028836  -0.009736
  118  H   8  X  -1.571498   0.464971  -1.443884  -0.188178   0.521602
  119  H   8  Y  -1.925540   0.013929  -0.171814  -0.280059   1.650937
  120  H   8  Z   0.512385  -0.462225  -0.892752  -0.896173   1.034420
  121  H   9  S  -0.058528  -0.133230  -0.139833  -0.062502   0.133869
  122  H   9  S   4.889195  -6.286923   2.562415  -2.578268   1.667280
  123  H   9  S   0.685653   0.040935   1.323911   0.469824   0.598928
  124  H   9  X   0.039530   0.025563  -0.022474  -0.010587  -0.021063
  125  H   9  Y  -0.010237  -0.063548  -0.058440  -0.010088  -0.006909
  126  H   9  Z  -0.006549   0.022156   0.087025   0.038661   0.000075
  127  H   9  X  -0.218676  -0.760430  -0.308486  -0.123986  -0.191295
  128  H   9  Y  -0.789832   1.598305  -0.821772   0.150958  -0.482892
  129  H   9  Z   1.677007  -1.244666   0.227149  -0.729826   0.238992
  130  H  10  S  -0.041773  -0.605561   0.040703  -0.096139   0.067415
  131  H  10  S  -3.417034   5.966996  -0.683396   1.744091   2.487201
  132  H  10  S  -0.580731  -0.346026   0.165101   0.256075  -0.104819
  133  H  10  X   0.017918   0.151493  -0.005762   0.039611   0.040072
  134  H  10  Y  -0.002813  -0.031641  -0.007039  -0.035716  -0.066841
  135  H  10  Z  -0.001854  -0.017620  -0.010674  -0.024664  -0.098699
  136  H  10  X  -6.844519  -0.781496  -0.733634   0.795833   0.875402
  137  H  10  Y   1.266555   1.617878   0.131644   0.330243   0.770544
  138  H  10  Z   1.259470   1.219782   0.071051   0.608619   0.855645
  139  F  11  S  -0.046071   0.034601   0.000200   0.016898   0.016140
  140  F  11  S   0.065141   0.067973   0.009763   0.011282  -0.000327
  141  F  11  S   1.712490  -0.221588   0.096661  -0.334483  -0.360114
  142  F  11  S   6.970235  -2.005348   1.036212  -0.582652  -1.657083
  143  F  11  X  -0.144805  -0.062205  -0.018388   0.000181   0.040233
  144  F  11  Y  -0.027923  -0.047776   0.021548   0.030322   0.003360
  145  F  11  Z  -0.040485   0.012197   0.028820   0.019641   0.064762
  146  F  11  X  -0.562428   0.282387  -0.045191   0.124657   0.193852
  147  F  11  Y   0.031836  -0.155815  -0.022046  -0.057763  -0.118891
  148  F  11  Z   0.048472  -0.144829  -0.019111  -0.056822  -0.146366
  149  F  11  X  -1.971691   0.799895  -0.429633   0.236350   0.399876
  150  F  11  Y   0.108888  -0.375696   0.004089  -0.013896  -0.238649
  151  F  11  Z   0.135933  -0.282439   0.216664  -0.087928  -0.364815
  152  F  11 XX   0.009039  -0.005666   0.000733  -0.001085  -0.000320
  153  F  11 YY  -0.004822   0.004320   0.000122   0.002364  -0.000597
  154  F  11 ZZ  -0.004217   0.001346  -0.000855  -0.001279   0.000917
  155  F  11 XY  -0.004930  -0.003573  -0.000305   0.000421  -0.002122
  156  F  11 XZ  -0.005102  -0.000789  -0.000368  -0.000014  -0.001187
  157  F  11 YZ   0.001627   0.000133   0.001512   0.000568   0.006298
  158  F  11 XX   0.037174  -0.212228   0.037159  -0.056060   0.006496
  159  F  11 YY  -0.029197   0.089875   0.003156   0.018860   0.064403
  160  F  11 ZZ  -0.007977   0.122353  -0.040315   0.037200  -0.070900
  161  F  11 XY  -0.006345   0.055572   0.008540   0.008969   0.034417
  162  F  11 XZ  -0.012405   0.066541   0.049670   0.012943   0.102956
  163  F  11 YZ   0.002539  -0.095419  -0.055642  -0.097502  -0.257662

                     91         92         93         94         95
                    0.9494     0.9683     0.9969     1.0712     1.0811
                     A          A          A          A          A   
    1  C   1  S  -0.166996  -0.024244   0.018230   0.163199   0.066154
    2  C   1  S  -0.407480  -0.035636   0.032458   0.309018   0.108631
    3  C   1  S   4.021612   1.701267  -1.142492  -6.587675  -2.273117
    4  C   1  S   6.451491   4.654211  -2.501144   0.354597   6.517822
    5  C   1  X   0.015680   0.291505  -0.234086  -0.013515   0.040385
    6  C   1  Y   0.012304  -0.385387  -0.026775  -0.000974   0.130621
    7  C   1  Z  -0.158999  -0.408528   0.131011  -0.518718  -0.345922
    8  C   1  X  -0.817732  -2.583995   2.199011   0.679930   1.127112
    9  C   1  Y  -0.729007   3.798613  -1.039277  -5.037636  -4.369063
   10  C   1  Z   0.469090   1.155312   0.151234  14.453644  10.136620
   11  C   1  X   0.219363  -0.825881   0.944609  -0.154170  -0.458306
   12  C   1  Y   1.284272   1.987960  -0.078674  -0.651989   0.313458
   13  C   1  Z  -0.761514  -0.040991   0.372897   1.611049   0.189620
   14  C   1 XX   0.134998  -0.083462  -0.032591   0.022344   0.040286
   15  C   1 YY  -0.058715  -0.002795   0.051236  -0.040206   0.010255
   16  C   1 ZZ  -0.076282   0.086257  -0.018645   0.017862  -0.050541
   17  C   1 XY  -0.070841  -0.020670   0.021784  -0.030291   0.019066
   18  C   1 XZ  -0.011909  -0.116319   0.013117   0.047457   0.063894
   19  C   1 YZ   0.188203   0.054969  -0.002747  -0.028441   0.006336
   20  C   1 XX  -0.266965   0.327766   0.785467   1.641880   0.932890
   21  C   1 YY   1.532857  -0.484739  -1.496945   0.730437   0.139269
   22  C   1 ZZ  -1.265892   0.156973   0.711478  -2.372317  -1.072160
   23  C   1 XY   0.035997  -0.100336  -0.713301   0.301258   0.567604
   24  C   1 XZ  -0.366115   1.496809   1.049403  -0.441515  -1.065112
   25  C   1 YZ  -1.327647  -0.580901   1.135918   2.836340   1.810239
   26  C   2  S   0.003959  -0.019630   0.024654   0.001028  -0.043721
   27  C   2  S   0.035005  -0.068485   0.062644   0.012433  -0.111543
   28  C   2  S  -1.968044   2.497788  -3.704887   4.185226  -3.006025
   29  C   2  S   9.345232  -1.868468   4.691681  -0.013525  -5.745609
   30  C   2  X  -0.259550   0.067741  -0.461530  -0.237886   0.082575
   31  C   2  Y   0.326800  -0.325128  -0.140785  -0.010203   0.162346
   32  C   2  Z  -0.102190  -0.054709  -0.116875  -0.450946  -0.250074
   33  C   2  X   2.889790  -0.223667   5.940358   6.623422   3.806308
   34  C   2  Y  -1.340144   2.371963   1.649645  -3.229691  -6.993147
   35  C   2  Z   1.285318  -1.867645   7.625844  16.177898  13.863259
   36  C   2  X  -2.232854  -0.439620  -0.130213  -0.045848   1.072794
   37  C   2  Y  -1.906520   1.694793  -0.940970  -0.531512   2.270599
   38  C   2  Z  -3.332924  -1.523722   0.962215   1.609994  -0.934321
   39  C   2 XX  -0.019860  -0.050822  -0.006307  -0.068149  -0.095873
   40  C   2 YY   0.036702   0.070080   0.113486   0.001796  -0.049695
   41  C   2 ZZ  -0.016842  -0.019258  -0.107179   0.066353   0.145568
   42  C   2 XY  -0.078859   0.005452  -0.016420  -0.007053  -0.001312
   43  C   2 XZ  -0.146675   0.014475  -0.126811  -0.030768  -0.083701
   44  C   2 YZ  -0.031208   0.068148  -0.019284  -0.218024  -0.065791
   45  C   2 XX  -0.361865  -0.027039  -0.075885  -1.762869  -0.893400
   46  C   2 YY   1.448103   0.213515  -0.030681   1.270703   1.769886
   47  C   2 ZZ  -1.086238  -0.186476   0.106566   0.492166  -0.876486
   48  C   2 XY   0.527683  -0.731074   0.147977  -2.376625   1.156872
   49  C   2 XZ  -0.283452   1.041378   0.125657  -2.124248  -1.787418
   50  C   2 YZ   0.925899   0.855316   0.963878  -4.562323  -1.265715
   51  C   3  S  -0.016364   0.025072  -0.019247   0.070804  -0.011910
   52  C   3  S  -0.046049   0.035526  -0.003847   0.146299   0.005219
   53  C   3  S  -0.455287   0.159563  -0.791812   7.913976   8.218862
   54  C   3  S -13.125872  -1.121429  -4.332094  -0.017134  -0.144474
   55  C   3  X  -0.156390  -0.041207  -0.504004  -0.351380   0.578083
   56  C   3  Y   0.088254  -0.205588  -0.571432   0.422924  -0.586846
   57  C   3  Z  -0.452963   0.241317  -0.024174   0.047205  -0.374842
   58  C   3  X   1.390894  -2.192615   7.698590   7.860441   1.353105
   59  C   3  Y   0.635742   1.157923   7.065897  -1.357231   8.364465
   60  C   3  Z   5.239337  -2.428601   4.198995   8.375932   5.770985
   61  C   3  X  -1.743040  -0.394018   1.329650   1.530981  -1.419836
   62  C   3  Y  -0.751321   0.099290   2.194074   0.281495  -0.061900
   63  C   3  Z  -1.547590  -1.069629  -0.667085   0.765250   0.938648
   64  C   3 XX   0.068073   0.057685  -0.079044  -0.012482   0.068901
   65  C   3 YY  -0.066109  -0.058311  -0.104273  -0.001716  -0.023918
   66  C   3 ZZ  -0.001964   0.000626   0.183317   0.014198  -0.044983
   67  C   3 XY  -0.016988  -0.101774  -0.085400   0.163265   0.027696
   68  C   3 XZ   0.044313   0.018141   0.142373   0.082417   0.054172
   69  C   3 YZ   0.128065  -0.021368   0.019410   0.107692  -0.066995
   70  C   3 XX  -0.446677  -0.346654   0.603321   0.159797   0.062323
   71  C   3 YY   0.350145   0.280870   0.134247  -0.984118  -0.189877
   72  C   3 ZZ   0.096531   0.065784  -0.737568   0.824322   0.127554
   73  C   3 XY   0.752616   0.705462   1.024654  -1.442864   2.207234
   74  C   3 XZ  -0.791397  -0.221168   0.331956  -0.279911   2.029764
   75  C   3 YZ   0.060447  -0.570349   1.374208  -0.634660   2.339100
   76  H   4  S   0.559935   0.135045  -0.068559  -0.499817  -0.354422
   77  H   4  S  -0.903465  -3.788553   1.009410  -9.130265  -6.313784
   78  H   4  S  -0.501926  -1.645675   0.194888  -1.100042  -0.733891
   79  H   4  X  -0.097862  -0.092088   0.043480   0.001576   0.018694
   80  H   4  Y   0.105365   0.108228  -0.021850  -0.002105  -0.011822
   81  H   4  Z   0.097188   0.151306  -0.060009   0.008531   0.014041
   82  H   4  X   0.504174  -0.307768  -0.059371  -1.102763  -0.997750
   83  H   4  Y  -0.498349   0.119920  -0.243569   0.920494   1.085985
   84  H   4  Z   0.264656   0.899523  -0.345018   2.121290   0.834652
   85  H   5  S   0.579697  -0.011396  -0.139299  -0.259898  -0.132569
   86  H   5  S  -1.444285   0.777446  -6.072077  -4.921610  -3.172825
   87  H   5  S  -0.329901   0.926133  -0.723557  -0.261194  -0.144746
   88  H   5  X   0.143177  -0.075631   0.013054  -0.044594  -0.018197
   89  H   5  Y  -0.012685   0.007263   0.015167  -0.007347   0.001959
   90  H   5  Z  -0.019816  -0.018046  -0.010905   0.042753   0.054027
   91  H   5  X  -0.186901   0.023995   1.656593   1.388299   0.905236
   92  H   5  Y  -0.009397  -0.452421  -0.127894  -0.110521  -0.197479
   93  H   5  Z   0.401313  -1.405103   0.604532   0.163642   0.106258
   94  H   6  S   0.244666   0.134657   0.042315  -0.370054  -0.128838
   95  H   6  S  -6.334298   3.657453   3.719770  -1.632024  -3.567156
   96  H   6  S   0.519769   1.565940   0.145940  -0.978849   0.044112
   97  H   6  X  -0.041829   0.018125   0.008646   0.045752   0.007407
   98  H   6  Y  -0.041392   0.043836  -0.005103   0.089780  -0.010313
   99  H   6  Z  -0.056163   0.022323  -0.002672   0.072660   0.007108
  100  H   6  X  -0.965233   1.033227   0.595031  -0.010086  -0.257646
  101  H   6  Y  -1.377332   0.612542   0.773227   0.086168  -0.989465
  102  H   6  Z  -0.839975  -0.442696   1.116901  -0.602868  -0.519133
  103  H   7  S  -0.027338   0.043529  -0.075688  -0.046942   0.027255
  104  H   7  S  -3.813008  -3.318423  -5.347976   1.492245   2.751586
  105  H   7  S   1.205430  -1.004128  -0.441854   0.384904  -1.018288
  106  H   7  X  -0.045680   0.003447  -0.010607   0.019366   0.011835
  107  H   7  Y  -0.067311   0.107440   0.070693   0.032489  -0.076215
  108  H   7  Z   0.032150   0.040719  -0.006829  -0.006727  -0.032494
  109  H   7  X   0.008584   1.119121   0.232225   0.379373  -0.934195
  110  H   7  Y   1.213457   0.700563   1.672845  -0.703667  -1.074211
  111  H   7  Z  -0.851960  -0.581825  -0.763116   0.410641  -0.419353
  112  H   8  S  -0.116129  -0.039216   0.072734   0.075488   0.114274
  113  H   8  S  -0.406454  -1.196881  12.684571   5.893341   3.017215
  114  H   8  S  -1.021341  -0.104831   3.103351   1.464966  -0.534270
  115  H   8  X  -0.014416   0.046656   0.152155  -0.033920  -0.002634
  116  H   8  Y   0.032261   0.076627   0.171123  -0.061807  -0.017520
  117  H   8  Z  -0.003066  -0.024262  -0.041318   0.049686   0.000511
  118  H   8  X  -0.606602  -0.405841   2.438896   0.333670   1.506001
  119  H   8  Y  -0.006324  -0.260907   2.166647   1.470790  -0.242060
  120  H   8  Z  -1.563177   0.089260   0.195366  -1.714398   0.934692
  121  H   9  S  -0.131279  -0.048322   0.020531   0.018766   0.178698
  122  H   9  S   6.590006  -4.247868   1.182948   5.697745   0.455301
  123  H   9  S   0.139497  -0.896307  -1.132692   0.504933   0.232327
  124  H   9  X   0.010097  -0.007790   0.016743   0.036623  -0.031259
  125  H   9  Y  -0.091681   0.039880   0.077398  -0.071123   0.048499
  126  H   9  Z   0.096256  -0.052111  -0.067450   0.041416  -0.026675
  127  H   9  X  -0.605760  -0.399139  -1.036046  -0.367015   0.169155
  128  H   9  Y  -1.504297   0.664789  -1.139173  -1.045658  -0.241847
  129  H   9  Z   1.370749  -0.949005  -0.448717   1.704566  -0.860057
  130  H  10  S  -0.209213  -0.584409   0.088212   0.010724   0.068537
  131  H  10  S  -0.074270   4.608707  -2.365833  -2.017396   3.107096
  132  H  10  S  -0.249007   0.172214  -0.070908   0.145991   0.978201
  133  H  10  X   0.019398   0.142047  -0.005749   0.017580   0.015048
  134  H  10  Y   0.010985   0.009635   0.046921  -0.073304  -0.033930
  135  H  10  Z   0.069485  -0.011330  -0.011561  -0.032759   0.047314
  136  H  10  X  -0.541593  -1.581539  -0.130415   1.709212  -3.946698
  137  H  10  Y  -0.104038   0.915219  -0.693499  -0.556731   1.793268
  138  H  10  Z  -0.352338   1.173186  -0.391911  -0.519208   0.798607
  139  F  11  S   0.003349   0.019976  -0.001634   0.003612  -0.020232
  140  F  11  S   0.029499   0.044179   0.019184  -0.006568  -0.019417
  141  F  11  S   0.160572  -0.008423   0.166900  -0.200450   0.516487
  142  F  11  S  -0.095838  -0.462636   0.915161  -0.576041   2.746726
  143  F  11  X  -0.031671  -0.069107   0.005557  -0.024584   0.038188
  144  F  11  Y  -0.001677  -0.039535   0.027123   0.041623  -0.076645
  145  F  11  Z  -0.014015  -0.075529   0.041326  -0.030651  -0.060262
  146  F  11  X  -0.029522   0.207510  -0.128526   0.033061  -0.083634
  147  F  11  Y   0.023942  -0.075004   0.071142   0.016998  -0.050368
  148  F  11  Z   0.018916  -0.103510   0.043758   0.056578   0.026408
  149  F  11  X  -0.020024   0.421560  -0.445097   0.148007  -0.843548
  150  F  11  Y   0.045915  -0.219688   0.135834   0.008912  -0.184407
  151  F  11  Z  -0.140160  -0.104513   0.048956   0.054275   0.217673
  152  F  11 XX  -0.003381  -0.005194   0.000773  -0.002423   0.007248
  153  F  11 YY  -0.000151  -0.001008   0.000215   0.003958   0.000705
  154  F  11 ZZ   0.003532   0.006202  -0.000988  -0.001535  -0.007954
  155  F  11 XY   0.001368  -0.002375   0.003490   0.004071  -0.006363
  156  F  11 XZ  -0.000198  -0.005649   0.003196   0.001460  -0.004695
  157  F  11 YZ  -0.001767   0.003163  -0.003452  -0.002229   0.003244
  158  F  11 XX  -0.075959  -0.272291   0.086394  -0.038146   0.095524
  159  F  11 YY   0.026486   0.197176  -0.045139  -0.149544  -0.249516
  160  F  11 ZZ   0.049474   0.075115  -0.041255   0.187690   0.153993
  161  F  11 XY   0.012483   0.032574  -0.064070  -0.003276   0.017195
  162  F  11 XZ  -0.010589   0.033829  -0.008732   0.024952   0.026550
  163  F  11 YZ   0.056823  -0.091393   0.086422   0.089079  -0.142654

                     96         97         98         99        100
                    1.0927     1.1465     1.2117     1.2580     1.2805
                     A          A          A          A          A   
    1  C   1  S  -0.030662   0.030829   0.056750  -0.015482   0.054442
    2  C   1  S  -0.051629   0.073039   0.169372  -0.035241   0.146655
    3  C   1  S  -4.155356   0.691031   8.902777  -4.298130   2.301150
    4  C   1  S  -0.746779   2.256994  -6.311205   2.652783   0.826434
    5  C   1  X  -0.265864  -0.141165   0.081308   0.085373  -0.210369
    6  C   1  Y  -0.232257   0.451805   0.370068  -0.054501   0.006336
    7  C   1  Z   0.048984  -0.247982  -0.189050   0.062012  -0.211090
    8  C   1  X   0.151068   2.186275  -4.905458  -1.346945   2.872936
    9  C   1  Y  -0.822095  -5.942484  -1.447349  -1.729732   3.138491
   10  C   1  Z  -0.751058   3.930439 -10.170691   2.897132  -1.232455
   11  C   1  X   0.774400   0.337511  -0.714856  -0.117486   0.833665
   12  C   1  Y   0.479622  -1.773590  -1.753605   0.600019   0.629971
   13  C   1  Z  -0.057867   0.111855   0.520823  -0.462552   0.264099
   14  C   1 XX  -0.118501  -0.128716   0.092267   0.124613  -0.226139
   15  C   1 YY   0.018540  -0.083312  -0.103039  -0.047047   0.287171
   16  C   1 ZZ   0.099961   0.212028   0.010772  -0.077566  -0.061033
   17  C   1 XY  -0.009481  -0.039580  -0.122277   0.024082   0.153563
   18  C   1 XZ  -0.104046  -0.206869   0.162982   0.072528   0.062295
   19  C   1 YZ  -0.012959   0.102130  -0.293818   0.029472  -0.055662
   20  C   1 XX   0.641842   1.105511  -1.607710  -0.460690   0.932820
   21  C   1 YY  -1.457969   0.432825  -0.816593  -0.355766  -2.137967
   22  C   1 ZZ   0.816127  -1.538337   2.424302   0.816456   1.205147
   23  C   1 XY  -0.916630   0.874390   0.034148  -0.309013  -1.229373
   24  C   1 XZ   2.113784   0.605718  -0.205931   0.276825  -0.390299
   25  C   1 YZ   0.377253   0.521485   0.832590   1.079358  -0.334117
   26  C   2  S   0.045996  -0.069321  -0.002834   0.007964  -0.097357
   27  C   2  S   0.074275  -0.137628   0.019381   0.029826  -0.175065
   28  C   2  S  -2.639787   4.707503   3.924630   1.655473   1.731128
   29  C   2  S   5.183751 -10.718294  -2.116275  -4.448723  -5.487981
   30  C   2  X  -0.318309   0.098746   0.152637   0.245036   0.012194
   31  C   2  Y  -0.446470   0.236770  -0.391150  -0.019031   0.047384
   32  C   2  Z  -0.029668  -0.150523   0.349986  -0.233449   0.147915
   33  C   2  X   8.349665  -1.439834  -5.093248  -1.684882  -4.943743
   34  C   2  Y  10.301558  -6.065149   7.967345  -2.504565  -1.654219
   35  C   2  Z  -0.289250   4.658221 -14.239454   2.598777  -7.677760
   36  C   2  X  -0.595178   1.388249   1.555194  -0.690542   0.144782
   37  C   2  Y  -0.506272   1.514658  -0.916939  -0.104549   1.025551
   38  C   2  Z  -0.736209   2.882720   4.257605  -0.740743  -0.454900
   39  C   2 XX  -0.035939  -0.095412  -0.142781  -0.107782  -0.099586
   40  C   2 YY   0.162780   0.152941   0.019549   0.257232   0.080363
   41  C   2 ZZ  -0.126841  -0.057529   0.123231  -0.149450   0.019223
   42  C   2 XY  -0.002214  -0.131568   0.047954   0.169437   0.041120
   43  C   2 XZ  -0.011477   0.106789  -0.165703   0.058832  -0.135265
   44  C   2 YZ   0.028953  -0.062614  -0.067859   0.101006   0.069134
   45  C   2 XX  -2.946114   0.421252   2.695573  -0.279232   1.019425
   46  C   2 YY  -2.738985  -0.011148  -4.742804  -2.367884  -2.454175
   47  C   2 ZZ   5.685099  -0.410104   2.047231   2.647116   1.434749
   48  C   2 XY  -4.318966   1.021057   0.310268  -1.862481   0.184197
   49  C   2 XZ   0.646811  -0.574726   4.671345   1.330847   2.156090
   50  C   2 YZ  -3.380164   1.465975   5.267372  -2.250245   2.047239
   51  C   3  S   0.008870   0.021975   0.022997  -0.014501  -0.108821
   52  C   3  S   0.021537   0.040464   0.020985  -0.019362  -0.251138
   53  C   3  S   4.965855  -0.604668 -18.163113   0.460960  -8.023216
   54  C   3  S  -4.239162   8.555728   7.180874   1.616036   3.177802
   55  C   3  X   0.392354  -0.004343  -0.186264   0.139107  -0.142017
   56  C   3  Y   0.041808  -0.026376  -0.102274  -0.005164   0.168836
   57  C   3  Z  -0.409902  -0.065572  -0.271096   0.008471  -0.274363
   58  C   3  X  -2.970988  -0.346104  -3.956606  -2.231307  -4.100456
   59  C   3  Y  -6.210012   1.371284  -2.504293  -3.399158  -5.512047
   60  C   3  Z  10.464773  -0.288453  -5.869074   0.148498  -1.953667
   61  C   3  X  -0.774257   1.296691   1.573747   0.124159  -0.439422
   62  C   3  Y  -0.361239   0.461495   1.521222  -0.186907  -0.903790
   63  C   3  Z  -0.170619   1.876325   0.429997   0.052114   1.509806
   64  C   3 XX   0.046421  -0.032193   0.229209  -0.061194   0.092821
   65  C   3 YY   0.012291   0.026100  -0.062393  -0.103014  -0.056607
   66  C   3 ZZ  -0.058712   0.006092  -0.166815   0.164208  -0.036214
   67  C   3 XY   0.187587  -0.120721  -0.010305  -0.120216  -0.347388
   68  C   3 XZ   0.107555  -0.008187  -0.117753   0.037434  -0.041087
   69  C   3 YZ   0.098460  -0.023601   0.077530  -0.057518  -0.138414
   70  C   3 XX  -3.162078   0.493416  -1.697548   0.066542   0.239848
   71  C   3 YY  -2.296269   1.295353  -0.182619   0.370334   0.783381
   72  C   3 ZZ   5.458348  -1.788770   1.880167  -0.436876  -1.023228
   73  C   3 XY  -3.514710   1.568211  -1.215582   0.377335   0.571683
   74  C   3 XZ   0.315161  -0.077260   0.096517  -0.410449  -0.700800
   75  C   3 YZ  -3.213939   1.236238  -2.686433  -0.469280   0.064917
   76  H   4  S   0.258337   0.183274  -0.155475  -0.229650  -0.172261
   77  H   4  S   0.016513   2.017099   4.319671  -3.253225  -0.544328
   78  H   4  S   0.115662   0.210667   0.225128  -0.151198   0.193475
   79  H   4  X   0.008329   0.024720  -0.017188  -0.024692   0.090018
   80  H   4  Y   0.038024  -0.056480  -0.113260   0.055665   0.014941
   81  H   4  Z   0.027105   0.049931  -0.004949  -0.060061   0.012272
   82  H   4  X  -0.330689  -0.089108   0.518377  -0.550093   0.132642
   83  H   4  Y  -0.276333   0.128601  -0.213516   0.467957   0.611400
   84  H   4  Z   0.299314  -0.478937  -1.841260   0.549152  -0.247170
   85  H   5  S  -0.238412  -0.604162   0.487769   0.272777  -0.398012
   86  H   5  S  -3.166065  -2.885587   6.944218  -0.124203  -4.657310
   87  H   5  S  -0.345462  -0.658476   0.067918   0.379645  -0.549193
   88  H   5  X   0.036700  -0.025839   0.030326  -0.001700   0.033330
   89  H   5  Y  -0.011758  -0.020334  -0.105899   0.015776   0.065019
   90  H   5  Z  -0.063692  -0.043131   0.010824   0.005144  -0.020256
   91  H   5  X   0.618157   0.492790  -1.731315   0.433682   1.200567
   92  H   5  Y   0.208048   0.172984   0.100662   0.047483  -0.088693
   93  H   5  Z  -0.179736  -0.665185  -0.039145  -0.173854   0.694517
   94  H   6  S   0.117518  -0.434108  -0.347659   0.013792   0.489726
   95  H   6  S   4.426403  -5.931469  -4.315151   1.112280   8.951139
   96  H   6  S   0.762596  -1.656036  -1.157372   0.079377   0.541640
   97  H   6  X   0.043020   0.020540  -0.021609  -0.025476   0.090206
   98  H   6  Y   0.051272  -0.027082  -0.038950   0.019072  -0.039878
   99  H   6  Z   0.050076   0.017197   0.023941   0.039105   0.087956
  100  H   6  X   0.290870  -0.869960  -0.464818   0.072658   0.771185
  101  H   6  Y   1.204947  -1.255166  -1.425751   0.605019   2.143143
  102  H   6  Z   0.541411  -0.801209   1.105928   0.215569  -0.275837
  103  H   7  S   0.037369   0.216080   0.009512   0.529553   0.364114
  104  H   7  S  -3.228144   3.554878  -0.961275   6.996651   6.518925
  105  H   7  S  -0.222528  -0.373686   0.175563   0.497840  -0.563474
  106  H   7  X   0.028392  -0.078504   0.058000  -0.045209   0.007557
  107  H   7  Y   0.196867   0.010435   0.088074   0.072273   0.029169
  108  H   7  Z   0.032963   0.057293   0.037793   0.053952  -0.085251
  109  H   7  X   1.365123  -0.533623  -0.340237   0.009956  -0.765733
  110  H   7  Y   1.145220  -0.511990   1.332207  -1.422455  -1.547280
  111  H   7  Z   0.968854  -1.166228  -2.035056   0.408545  -0.036673
  112  H   8  S   0.168406  -0.068763   0.207177  -0.296993  -0.290239
  113  H   8  S  -0.166665  -3.512421   3.425323  -4.733075  -8.022033
  114  H   8  S  -0.766332   1.146168   1.280166  -0.306838  -1.000747
  115  H   8  X  -0.109248   0.044118   0.008609  -0.005522   0.012999
  116  H   8  Y  -0.167284   0.034656   0.034599   0.061161   0.018590
  117  H   8  Z   0.024110  -0.008316   0.048359  -0.036770   0.048844
  118  H   8  X  -1.508723  -0.451336   0.312135  -0.672691  -1.356097
  119  H   8  Y  -0.385995  -0.377800   0.951280  -0.616776  -1.034310
  120  H   8  Z  -3.069115   0.617217  -0.283194   0.025173  -0.031818
  121  H   9  S  -0.070332   0.188159  -0.332040   0.162819   0.412413
  122  H   9  S   0.782409   3.151368  -4.460520   0.260992   4.591665
  123  H   9  S   0.721209   0.405974  -0.088980  -0.251201   0.803596
  124  H   9  X  -0.028055  -0.009695  -0.018737   0.026698  -0.101086
  125  H   9  Y  -0.092302   0.028237  -0.089428  -0.021148   0.002462
  126  H   9  Z   0.083289   0.005310   0.051437  -0.025284   0.041922
  127  H   9  X   1.117770  -0.154806   0.779649  -0.412630   0.247796
  128  H   9  Y   0.545701  -1.145648   1.034666  -0.372371  -0.978550
  129  H   9  Z   1.151173   0.406658   0.229775  -0.159972   1.007118
  130  H  10  S   0.103013  -0.140524  -0.004175   0.047026  -0.001858
  131  H  10  S   1.295582   1.024417   1.112212   1.883681  -1.082075
  132  H  10  S  -0.205643   0.396552  -0.011472  -0.211605   0.726882
  133  H  10  X   0.014587   0.029778  -0.006634   0.010561  -0.118159
  134  H  10  Y  -0.050442   0.013815   0.136636  -0.004723   0.223125
  135  H  10  Z  -0.033646   0.003079   0.031997  -0.141429   0.098773
  136  H  10  X  -1.566658  -0.274663   0.053627  -0.359854   0.768391
  137  H  10  Y   0.794045  -0.114784   0.069741   0.541356  -1.179932
  138  H  10  Z   0.494291   0.296203   0.265463   1.116837  -0.435886
  139  F  11  S  -0.006530   0.004062   0.003148  -0.014048   0.000170
  140  F  11  S  -0.003199   0.001531   0.001859  -0.046702   0.009308
  141  F  11  S   0.232960  -0.062140  -0.083883  -0.007634  -0.062893
  142  F  11  S   0.618420   0.175026  -0.407573  -0.238010   0.125893
  143  F  11  X   0.032622  -0.021184  -0.016386  -0.002487  -0.023994
  144  F  11  Y  -0.079149  -0.050959  -0.039745  -0.152402   0.137368
  145  F  11  Z  -0.003186   0.042493  -0.019832  -0.121970   0.062311
  146  F  11  X  -0.012602   0.066036   0.044796   0.091485  -0.124939
  147  F  11  Y   0.008505   0.053115   0.006279   0.116327  -0.086663
  148  F  11  Z  -0.030529  -0.092975  -0.000749   0.068882  -0.019354
  149  F  11  X  -0.202367   0.085219   0.148577   0.154816   0.061841
  150  F  11  Y  -0.164764   0.199423   0.082366  -0.072295   0.593047
  151  F  11  Z  -0.175133   0.044933  -0.063326  -0.376451   0.289031
  152  F  11 XX   0.004276  -0.001660  -0.001457   0.002926  -0.003638
  153  F  11 YY  -0.004599  -0.007948   0.000686  -0.000442   0.004461
  154  F  11 ZZ   0.000323   0.009608   0.000770  -0.002484  -0.000823
  155  F  11 XY  -0.003985  -0.000995  -0.003866  -0.003836   0.000416
  156  F  11 XZ  -0.001869  -0.001512  -0.001567  -0.002311   0.000889
  157  F  11 YZ  -0.000554  -0.001207  -0.001683  -0.006175   0.000581
  158  F  11 XX   0.092598  -0.065409  -0.048498   0.039065  -0.071274
  159  F  11 YY   0.090249   0.509121   0.080194  -0.025114  -0.074218
  160  F  11 ZZ  -0.182847  -0.443711  -0.031696  -0.013950   0.145493
  161  F  11 XY   0.054018   0.056316   0.009302   0.060569  -0.403727
  162  F  11 XZ   0.001097  -0.040820   0.032200   0.391577   0.127200
  163  F  11 YZ   0.070402   0.097775   0.162329   0.650447  -0.048069

                    101        102        103        104        105
                    1.3023     1.3220     1.3427     1.3817     1.3834
                     A          A          A          A          A   
    1  C   1  S  -0.105085  -0.084542   0.036543   0.135245   0.007067
    2  C   1  S  -0.233669  -0.182873   0.093046   0.266470  -0.027765
    3  C   1  S  -1.006524  -1.859237   4.306005  -9.489027  -2.627217
    4  C   1  S   0.389097   0.764134  -5.210429  -1.803340  -1.331438
    5  C   1  X  -0.035394   0.068878  -0.116125   0.033449  -0.055520
    6  C   1  Y  -0.125747   0.028524   0.196580  -0.009130  -0.098018
    7  C   1  Z   0.070039   0.083990   0.029987   0.099169   0.215774
    8  C   1  X   1.534527  -0.958980   2.430630  -0.897724   2.101895
    9  C   1  Y   0.885887  -2.814193  -0.903988  -5.097300  -1.527902
   10  C   1  Z   3.430203   1.681060  -6.530365   2.613167   0.641313
   11  C   1  X   0.010232   0.061782   0.154761   0.298140   0.034710
   12  C   1  Y   0.250642  -0.570089  -2.081006   0.242189  -0.236629
   13  C   1  Z   0.144205  -0.644438  -0.047355   0.377278   0.058893
   14  C   1 XX  -0.024276   0.095447  -0.248513   0.112329  -0.117550
   15  C   1 YY   0.125051  -0.172767   0.003785  -0.234610  -0.000429
   16  C   1 ZZ  -0.100775   0.077319   0.244728   0.122281   0.117980
   17  C   1 XY   0.064185  -0.134836  -0.078192  -0.319147   0.072424
   18  C   1 XZ   0.082007  -0.079062  -0.182933   0.010754   0.050299
   19  C   1 YZ   0.006016   0.055470   0.116571   0.114953   0.130195
   20  C   1 XX   0.188275  -0.306727   0.762981   0.195569   0.629145
   21  C   1 YY   0.100939   1.340561  -0.362248  -0.623487  -0.165968
   22  C   1 ZZ  -0.289214  -1.033835  -0.400733   0.427918  -0.463177
   23  C   1 XY  -0.157282   0.724300   0.819820   1.216144  -0.032195
   24  C   1 XZ  -1.311721   0.829820   0.688971   1.926467  -0.961085
   25  C   1 YZ   0.103753   0.293804  -1.667046   1.580352  -0.284354
   26  C   2  S   0.052053   0.013910  -0.021554   0.047729   0.107371
   27  C   2  S   0.084243  -0.003772  -0.053473   0.070707   0.233337
   28  C   2  S  -8.202528  -3.910715   4.201191  -5.372200  -6.003364
   29  C   2  S   3.474639   3.079138  -6.953552   3.017292  -1.392125
   30  C   2  X  -0.110292  -0.099743   0.014606  -0.216114   0.268542
   31  C   2  Y   0.161359   0.044487  -0.068118  -0.003537   0.041440
   32  C   2  Z   0.000855  -0.036211   0.117859   0.005793  -0.100790
   33  C   2  X   3.268998   5.628640  -4.149828   5.670150  -1.963245
   34  C   2  Y  -0.328976   1.558288   1.107921   1.481874  -2.393197
   35  C   2  Z   7.056304   6.624966  -7.877418   8.178599   2.511401
   36  C   2  X   0.001971  -0.424143   2.755502  -1.084149  -0.409505
   37  C   2  Y  -0.742784  -0.075336   0.803745  -2.080687  -1.629666
   38  C   2  Z  -0.418020   0.127801   4.211372  -0.546182   1.741024
   39  C   2 XX  -0.188345   0.044336  -0.003113  -0.120504  -0.189776
   40  C   2 YY  -0.026865  -0.008224   0.001215   0.312152   0.199541
   41  C   2 ZZ   0.215210  -0.036113   0.001898  -0.191648  -0.009764
   42  C   2 XY  -0.156974  -0.141501  -0.056819   0.363864   0.065695
   43  C   2 XZ  -0.194260   0.027213   0.052163  -0.181929   0.082053
   44  C   2 YZ   0.124437   0.007388  -0.046016   0.083272  -0.071246
   45  C   2 XX  -0.109572  -1.023382   0.821071  -1.259964  -0.055247
   46  C   2 YY   1.975035   1.362612  -0.906831  -3.681900  -1.534532
   47  C   2 ZZ  -1.865463  -0.339230   0.085760   4.941865   1.589779
   48  C   2 XY   1.209633  -0.638000   1.575122  -4.708777   0.197841
   49  C   2 XZ  -1.415304  -1.655823   0.650097   0.281321   0.164168
   50  C   2 YZ  -2.572092  -2.277499   3.414056  -4.278525  -1.714160
   51  C   3  S  -0.163969  -0.017214  -0.084096   0.078972   0.060722
   52  C   3  S  -0.364896  -0.012373  -0.192204   0.177992   0.084939
   53  C   3  S   7.203106   8.164146  -4.271433   3.669886  -1.173525
   54  C   3  S  -2.886423  -3.371954  13.745179  -5.814196  -1.226269
   55  C   3  X  -0.174998   0.123234  -0.050736  -0.051003  -0.142018
   56  C   3  Y   0.014085  -0.006155  -0.018176   0.163603  -0.065203
   57  C   3  Z   0.092140   0.099307   0.074328   0.044398  -0.011184
   58  C   3  X   6.407776   3.427324  -4.614658   3.379596   2.683340
   59  C   3  Y   4.136397   1.273623  -0.564569  -5.028084   2.563463
   60  C   3  Z   3.341855   5.396511  -5.704066   8.943170  -0.454677
   61  C   3  X  -0.201774  -0.530441   2.161820  -0.510212   0.615258
   62  C   3  Y   0.680133   0.095984   0.878440   0.007654   2.167366
   63  C   3  Z  -0.884500  -0.897721   1.927713  -0.367495  -1.259941
   64  C   3 XX   0.299892  -0.024186   0.084094   0.090286   0.045301
   65  C   3 YY   0.055408   0.102158   0.012283  -0.176029   0.230717
   66  C   3 ZZ  -0.355300  -0.077972  -0.096377   0.085743  -0.276018
   67  C   3 XY   0.181562   0.180139  -0.085692   0.112343   0.448605
   68  C   3 XZ   0.033904   0.063375  -0.043914   0.021243  -0.002343
   69  C   3 YZ  -0.210132   0.033447   0.143877  -0.357903  -0.032530
   70  C   3 XX   0.532064   0.168073  -1.064350   0.087074  -0.176691
   71  C   3 YY  -1.759334  -1.608104   1.620732  -1.778981  -1.623683
   72  C   3 ZZ   1.227270   1.440031  -0.556382   1.691907   1.800374
   73  C   3 XY  -0.974010  -0.780453   0.418354  -2.034299  -2.435417
   74  C   3 XZ   2.006889   0.987383  -1.091913   1.845038   1.605771
   75  C   3 YZ   1.876241   0.805590  -1.061177   0.767333  -0.148161
   76  H   4  S  -0.317938   0.101333   0.655231   0.266632   0.247423
   77  H   4  S  -2.506618   1.189698   8.800757   0.868302   0.474894
   78  H   4  S  -0.033616   0.295936   0.965671  -0.161932  -0.174979
   79  H   4  X   0.039344  -0.043058   0.037281   0.000381   0.055593
   80  H   4  Y   0.006054   0.003746  -0.072792   0.011259  -0.020104
   81  H   4  Z   0.032745   0.009536   0.074743  -0.071278   0.040803
   82  H   4  X  -0.120525  -0.089208   1.116024  -0.396574   0.370157
   83  H   4  Y   0.475086  -0.593496  -0.632845   0.010243   0.116058
   84  H   4  Z   0.275548   0.094567  -1.465893  -0.136139   0.128621
   85  H   5  S  -0.032265   0.147939  -0.382105   0.117846  -0.136056
   86  H   5  S  -1.914712   0.533620  -1.397271  -2.648923  -1.962844
   87  H   5  S  -0.231923   0.009209  -0.145568  -0.189496  -0.231937
   88  H   5  X   0.032217  -0.020073   0.008794  -0.037502   0.033776
   89  H   5  Y   0.064554  -0.049848  -0.055629   0.002122   0.071325
   90  H   5  Z  -0.014091   0.030141   0.009065  -0.077334   0.021567
   91  H   5  X   0.442292  -0.055544   0.169980   1.164605   0.294609
   92  H   5  Y  -0.308610  -0.036093  -0.108707  -0.626104  -0.072478
   93  H   5  Z   0.692573  -0.516741   0.101771  -0.061834   0.910190
   94  H   6  S   0.259730  -0.314373  -0.131173  -0.447168   0.161550
   95  H   6  S   0.235288  -5.656437  -1.616868   0.758902   0.118456
   96  H   6  S   0.137654  -0.216506  -1.349080   0.350111  -0.184470
   97  H   6  X   0.009113  -0.046094   0.062786   0.051594   0.054655
   98  H   6  Y  -0.012835   0.022207  -0.041667   0.011153  -0.034653
   99  H   6  Z  -0.002339  -0.024969  -0.055842  -0.012887  -0.037836
  100  H   6  X  -0.017405  -0.593062  -0.044752   0.868491  -0.179058
  101  H   6  Y  -0.111964  -1.244566  -0.601897   0.754935  -0.023980
  102  H   6  Z  -0.093374   0.032901  -0.181099   0.419774  -0.239338
  103  H   7  S  -0.201953  -0.203436  -0.044272   0.639406   0.375621
  104  H   7  S  -1.851406  -3.812779  -0.974524   5.468900   7.867832
  105  H   7  S   0.262182   0.157428  -1.031020   1.470348   1.067021
  106  H   7  X  -0.076841  -0.004950   0.017334   0.061211  -0.031315
  107  H   7  Y  -0.032617  -0.000851  -0.002324   0.046429  -0.000226
  108  H   7  Z  -0.026480   0.031274   0.063075   0.018414   0.052795
  109  H   7  X  -0.512978   0.421240  -0.350663   0.467431  -1.283543
  110  H   7  Y  -0.025095   0.958854   0.438328  -0.321227  -1.908211
  111  H   7  Z   0.790916   0.348604  -0.920233   0.696072  -0.187538
  112  H   8  S   0.593008   0.329232  -0.078734   0.213861   0.765510
  113  H   8  S   7.406068   2.545101  -5.819905   2.766118   8.216307
  114  H   8  S   0.469154  -0.083424   1.282770  -0.043863   1.594858
  115  H   8  X  -0.187653  -0.082418   0.024248  -0.121023  -0.059194
  116  H   8  Y  -0.075240  -0.063951  -0.009939   0.016876  -0.124330
  117  H   8  Z   0.068606  -0.016657  -0.072996   0.061874  -0.018381
  118  H   8  X   1.293084   0.190165  -1.401231  -0.004212   0.645885
  119  H   8  Y   0.514076  -0.389973  -0.431653   0.029481   0.414774
  120  H   8  Z   0.774559   0.124628  -0.134432   0.377910   0.319423
  121  H   9  S   0.216691   0.037873  -0.214585   0.575652  -0.117386
  122  H   9  S  -0.660262   2.738908  -4.543764   7.191970  -4.275862
  123  H   9  S  -0.710694  -0.361529   0.524041   0.174662  -1.464146
  124  H   9  X  -0.030229  -0.029329  -0.064671   0.063275   0.020157
  125  H   9  Y   0.108189   0.044782   0.015339   0.006106   0.049155
  126  H   9  Z  -0.016699  -0.035981  -0.000998  -0.012899   0.057593
  127  H   9  X   0.514786   0.525334  -0.173139   0.865489   0.807606
  128  H   9  Y   0.824825  -0.046173   0.072987  -0.625770   1.251525
  129  H   9  Z  -0.096285   0.870537  -0.723273   1.558017  -0.773703
  130  H  10  S  -0.032525  -0.021696  -0.091574   0.068150  -0.063580
  131  H  10  S  -0.425378  -0.315596   1.211045  -1.505550   0.905703
  132  H  10  S  -0.201491  -0.006313  -0.780070   0.027188   0.736651
  133  H  10  X  -0.150860   0.025160  -0.053989   0.016163   0.140141
  134  H  10  Y  -0.056956   0.126954  -0.048356   0.011538  -0.009103
  135  H  10  Z  -0.038065  -0.172663  -0.069055  -0.059881   0.012942
  136  H  10  X   0.122025  -0.287244   0.054340   0.241006  -0.443572
  137  H  10  Y   0.692339  -0.804986   0.372364  -0.586325   0.230599
  138  H  10  Z   0.392587   0.791552   1.102422  -0.191110   0.284158
  139  F  11  S   0.024365   0.004912   0.003023  -0.010835  -0.001593
  140  F  11  S   0.088203   0.015478   0.002925  -0.027479  -0.023892
  141  F  11  S   0.066870   0.044753  -0.061411   0.050740  -0.093975
  142  F  11  S   0.131580   0.383386  -0.613340   0.419211   0.472475
  143  F  11  X  -0.006411   0.006458  -0.032701  -0.018697  -0.028927
  144  F  11  Y  -0.013927   0.268002  -0.071175  -0.217951   0.030182
  145  F  11  Z  -0.004373  -0.187956  -0.148405   0.018157   0.083953
  146  F  11  X  -0.185032  -0.011385   0.054939   0.014031   0.163052
  147  F  11  Y   0.016637  -0.302186   0.076812   0.341361  -0.094798
  148  F  11  Z   0.047734   0.207721   0.084064  -0.008470  -0.179841
  149  F  11  X  -0.116283  -0.169059   0.253221  -0.159716  -0.236301
  150  F  11  Y  -0.410367   0.604952  -0.340074   0.046744   0.243850
  151  F  11  Z  -0.334803  -0.625935  -0.450019  -0.028397   0.427852
  152  F  11 XX  -0.002725   0.000080  -0.002784   0.000817  -0.001400
  153  F  11 YY   0.000978  -0.000217   0.002092  -0.000617   0.001369
  154  F  11 ZZ   0.001747   0.000138   0.000692  -0.000200   0.000031
  155  F  11 XY   0.001790  -0.001091   0.002252   0.000190  -0.003599
  156  F  11 XZ   0.004219   0.002347  -0.002764   0.000831  -0.004140
  157  F  11 YZ  -0.003370   0.000301   0.000061   0.000419   0.001470
  158  F  11 XX  -0.006921  -0.019651   0.016723  -0.124867  -0.314537
  159  F  11 YY   0.231598   0.140882  -0.495685  -0.017205  -0.059611
  160  F  11 ZZ  -0.224677  -0.121230   0.478962   0.142073   0.374147
  161  F  11 XY   0.405331  -0.641874   0.281464   0.006436  -0.237932
  162  F  11 XZ   0.338550   0.496270   0.461945  -0.024908  -0.294610
  163  F  11 YZ  -0.002342  -0.107633  -0.030887  -0.378303   0.339916

                    106        107        108        109        110
                    1.4193     1.4472     1.4510     1.4938     1.5101
                     A          A          A          A          A   
    1  C   1  S   0.036681   0.013230  -0.132179  -0.158897   0.273901
    2  C   1  S   0.057073   0.001798  -0.275120  -0.294807   0.537323
    3  C   1  S   0.604147  -2.886826  -4.185106  -1.108987  -2.178732
    4  C   1  S   5.761807  -3.095147   0.081240  -2.453219  -1.137974
    5  C   1  X  -0.094738  -0.028124  -0.032128   0.001132  -0.044183
    6  C   1  Y  -0.025954  -0.069292  -0.015247   0.007401   0.019438
    7  C   1  Z   0.035075   0.065740   0.064918  -0.015824   0.055955
    8  C   1  X   1.828399  -1.285038   1.276646  -0.024963  -0.204435
    9  C   1  Y   0.915224  -2.246623  -3.882156  -2.568234   2.314900
   10  C   1  Z  -0.099731   3.387843   5.303347   2.125338  -3.934758
   11  C   1  X  -0.074876  -0.122618   0.084596   0.073193  -0.080737
   12  C   1  Y   0.349383  -0.188693  -0.713634  -0.491056  -0.381862
   13  C   1  Z  -1.727692   0.771965   0.600003   1.029997  -0.499830
   14  C   1 XX  -0.119412   0.117918   0.099358   0.103915   0.137143
   15  C   1 YY   0.176857  -0.264998  -0.024442   0.007338  -0.178842
   16  C   1 ZZ  -0.057445   0.147080  -0.074915  -0.111253   0.041699
   17  C   1 XY  -0.169098   0.078107  -0.233008  -0.330282   0.116151
   18  C   1 XZ   0.050372   0.292489  -0.099837   0.054778   0.048353
   19  C   1 YZ   0.006973   0.091508   0.032639   0.038856  -0.084084
   20  C   1 XX   0.077748   0.054343   0.308360  -0.322295  -1.470617
   21  C   1 YY   0.396397   0.453328   0.211483  -0.150743   0.967266
   22  C   1 ZZ  -0.474145  -0.507671  -0.519842   0.473038   0.503351
   23  C   1 XY   1.368846  -0.876223   1.519705   1.163815  -0.576557
   24  C   1 XZ  -1.006924  -0.675009   0.214810   0.213239   0.016083
   25  C   1 YZ  -0.753118   1.086031   1.216591   0.703295  -0.559503
   26  C   2  S   0.179389  -0.159839  -0.127437  -0.279040   0.258003
   27  C   2  S   0.360820  -0.300634  -0.236205  -0.569981   0.525568
   28  C   2  S   6.779382   7.015658   2.530122   1.316451  -4.911520
   29  C   2  S -10.505231  -4.441284  -4.773373   6.632830  -3.178092
   30  C   2  X   0.023801  -0.125292  -0.003338   0.058700  -0.015091
   31  C   2  Y   0.070872   0.004615  -0.116724  -0.039532  -0.160066
   32  C   2  Z  -0.038746  -0.089131  -0.341224  -0.092672   0.027397
   33  C   2  X  -4.311085  -1.704820   4.323198   1.158547   1.617286
   34  C   2  Y  -2.593345  -3.695818   0.697400   1.458013   3.985796
   35  C   2  Z  -3.375257  -1.922125  10.596293   4.218182  -0.442534
   36  C   2  X   0.797852   0.185438   1.122386  -0.146565   0.854576
   37  C   2  Y   1.729244  -2.754755   1.083867  -1.232364   2.830315
   38  C   2  Z  -0.991045   3.152852   1.644023   0.371811  -0.042549
   39  C   2 XX  -0.316835  -0.048354   0.119172  -0.035085  -0.254229
   40  C   2 YY  -0.075334   0.359617  -0.177864   0.007612   0.212449
   41  C   2 ZZ   0.392169  -0.311263   0.058691   0.027474   0.041779
   42  C   2 XY   0.331265   0.105955  -0.008561  -0.209803  -0.251744
   43  C   2 XZ   0.032131  -0.030992  -0.071840  -0.246214   0.202402
   44  C   2 YZ   0.151266  -0.103036   0.123438   0.244040   0.005292
   45  C   2 XX   0.950010  -0.471949  -1.370731  -0.188036   1.564683
   46  C   2 YY   0.910044  -3.699788   1.299429  -0.403743   0.765022
   47  C   2 ZZ  -1.860054   4.171738   0.071302   0.591780  -2.329705
   48  C   2 XY   0.060866  -3.195484  -0.875135  -0.201307   1.236098
   49  C   2 XZ  -1.125628   1.781936  -2.069435   0.443786  -0.222774
   50  C   2 YZ  -0.075342  -1.520523  -3.877489  -2.689574   0.449182
   51  C   3  S   0.274921  -0.131263  -0.306059  -0.127838   0.082427
   52  C   3  S   0.563468  -0.236569  -0.589583  -0.240968   0.158914
   53  C   3  S  -3.059068  -2.364598  13.976715   5.038010   1.167156
   54  C   3  S   4.006427   8.221086   9.047337  -1.716086   1.767188
   55  C   3  X   0.035266   0.125481   0.246901  -0.033708  -0.009299
   56  C   3  Y   0.070781  -0.008231  -0.110767   0.109456   0.016585
   57  C   3  Z   0.149126   0.109713   0.060959   0.186036  -0.117817
   58  C   3  X  -1.287672  -3.111687   2.169828   1.652624   0.820123
   59  C   3  Y   0.132482  -2.031574   0.543294  -2.120411  -2.398863
   60  C   3  Z  -5.877001  -4.180182   4.119992   1.429577   4.252789
   61  C   3  X   0.469796   2.100078   1.060520  -0.293862  -0.410417
   62  C   3  Y   0.320323   2.562811  -0.072015   0.210599  -1.954749
   63  C   3  Z   0.639319  -0.284526   1.585070  -0.616441   1.935041
   64  C   3 XX   0.339389   0.162850   0.288137  -0.085279  -0.196874
   65  C   3 YY  -0.236011   0.212906  -0.270544   0.256991   0.280663
   66  C   3 ZZ  -0.103378  -0.375755  -0.017594  -0.171712  -0.083790
   67  C   3 XY  -0.058468  -0.248981  -0.178222  -0.127160  -0.253915
   68  C   3 XZ   0.331968  -0.040889  -0.016370   0.158599   0.296430
   69  C   3 YZ  -0.040036   0.403339   0.113986  -0.081153  -0.255512
   70  C   3 XX  -1.095184  -2.017823  -0.607228   0.829094   1.939755
   71  C   3 YY   2.329660  -0.298102   0.409485  -1.473967  -0.992541
   72  C   3 ZZ  -1.234475   2.315925   0.197743   0.644873  -0.947214
   73  C   3 XY   0.527992  -1.402990   0.542090  -0.500465   1.532813
   74  C   3 XZ  -2.769573  -1.601205   0.505586   0.188366  -0.044038
   75  C   3 YZ  -2.012459  -4.359182  -0.254754   0.420491   1.751462
   76  H   4  S   0.195868  -0.273617   0.044036  -0.040461   0.070271
   77  H   4  S   1.763653  -3.974851  -1.335394  -0.101795   3.800436
   78  H   4  S   0.934271  -0.720675  -0.279081  -0.263709   0.692916
   79  H   4  X   0.083798   0.121211  -0.027120   0.043273  -0.065473
   80  H   4  Y  -0.013752   0.081161  -0.029175   0.065499  -0.102645
   81  H   4  Z   0.051686   0.002242  -0.025677   0.009312  -0.035111
   82  H   4  X   0.134924  -0.236838  -0.717468  -0.500855   0.513876
   83  H   4  Y   0.294993   0.062567   0.519757   0.356599  -0.590437
   84  H   4  Z  -0.696922   1.261049   0.103602  -0.462793  -0.974388
   85  H   5  S  -0.038165   0.142705  -0.134054   0.024760   0.453199
   86  H   5  S  -0.205282  -0.879402  -2.194444  -1.257477   2.729037
   87  H   5  S   0.103432  -0.347584  -0.488873  -0.491145   0.455574
   88  H   5  X   0.051319  -0.008364   0.003596  -0.025523  -0.031658
   89  H   5  Y  -0.045436   0.088343  -0.061800  -0.141115   0.023611
   90  H   5  Z  -0.115547   0.064143  -0.046422  -0.000579   0.068229
   91  H   5  X  -0.232948   0.494906   0.691858   0.617046  -0.233327
   92  H   5  Y  -0.527494   0.257259  -0.447614  -0.657443   0.416207
   93  H   5  Z   0.445934   0.835611   0.075314   0.069208  -0.151279
   94  H   6  S  -0.023433   0.015573  -0.362629  -0.223561  -0.098364
   95  H   6  S  -1.009942   0.504177  -3.259976  -2.736966   3.485581
   96  H   6  S  -0.152163   0.003014  -0.390338  -0.217366  -0.034966
   97  H   6  X   0.081639  -0.053493   0.053478  -0.023584   0.022017
   98  H   6  Y  -0.008176   0.037710  -0.011959  -0.034213   0.017807
   99  H   6  Z  -0.056426  -0.018239  -0.081929   0.021761  -0.123799
  100  H   6  X   0.042470  -0.142603   0.038977  -0.035191  -0.046248
  101  H   6  Y  -0.164828   0.549013  -0.642261  -0.779959   1.404959
  102  H   6  Z  -0.629069  -0.151143   0.209868   0.037873  -0.113836
  103  H   7  S  -0.031914   0.748434  -0.195819  -0.017686  -0.539170
  104  H   7  S   1.950945  10.713316  -4.027253  -1.858485  -5.761585
  105  H   7  S  -0.780704   1.352181  -0.747786   0.500244  -1.620006
  106  H   7  X  -0.041634   0.023557   0.023434  -0.134675  -0.253834
  107  H   7  Y  -0.050007   0.096950   0.015466   0.114915   0.014284
  108  H   7  Z   0.019623  -0.047365   0.014919   0.104326   0.051345
  109  H   7  X   0.140063  -0.662956   1.011076  -0.043817   0.179683
  110  H   7  Y  -0.485918  -2.071189   0.984941   0.458070   1.642367
  111  H   7  Z   0.570909  -0.129489   1.202596   0.563364   0.151470
  112  H   8  S  -0.353180  -0.009379  -0.152343   0.074014  -0.250233
  113  H   8  S   0.037038   2.203152  -2.632448  -1.574825  -6.141928
  114  H   8  S   0.352346   1.655515  -0.122801  -0.002707  -1.270359
  115  H   8  X   0.049346   0.026440  -0.210633   0.092225   0.061970
  116  H   8  Y   0.178451  -0.125740   0.087784  -0.209146   0.029152
  117  H   8  Z  -0.026437  -0.026263   0.044495  -0.045278   0.012308
  118  H   8  X  -0.304425   0.166001  -0.419388  -0.407089  -0.318882
  119  H   8  Y   1.212527   0.863907   0.020554  -0.896210  -1.678104
  120  H   8  Z  -1.290604  -1.962558  -0.190401   0.149402   0.201373
  121  H   9  S  -0.707405  -0.736383  -0.038909   0.239987   0.653482
  122  H   9  S  -4.534756 -10.690388  -1.841780   0.725821   9.440728
  123  H   9  S  -0.172258  -1.251004   0.448528  -0.555152   1.924617
  124  H   9  X  -0.118493  -0.156810  -0.107312  -0.213240  -0.091107
  125  H   9  Y  -0.015829   0.129375   0.082597   0.050361   0.134098
  126  H   9  Z   0.115001   0.128597  -0.052116   0.016069   0.116598
  127  H   9  X  -1.031955  -0.267752  -0.206034  -0.075187  -0.298604
  128  H   9  Y  -0.126441   1.306766  -0.222314   0.414763  -1.172089
  129  H   9  Z  -1.101677  -1.496042  -0.512885   0.350163   2.107933
  130  H  10  S   0.116729   0.166838   0.415394  -0.361269   0.075724
  131  H  10  S   0.268857  -0.927505   0.007208   2.369287  -1.126326
  132  H  10  S  -0.003701  -0.459121   0.017401   0.535887   0.107252
  133  H  10  X   0.047596  -0.215535  -0.299555   0.107522  -0.085444
  134  H  10  Y  -0.026047   0.163144   0.036073   0.101718  -0.197867
  135  H  10  Z  -0.016883  -0.008125  -0.016810  -0.065843  -0.016329
  136  H  10  X   0.977431   0.485617  -0.672498   1.463502  -1.295035
  137  H  10  Y  -0.056306  -0.543229   0.605942  -0.206422   0.181977
  138  H  10  Z  -0.155222  -0.591407   0.484232   0.631898   0.336056
  139  F  11  S  -0.026507  -0.001864  -0.006194  -0.001614   0.015753
  140  F  11  S  -0.089417   0.019688   0.011038  -0.034561   0.064649
  141  F  11  S  -0.140645   0.098136   0.173747  -0.353153   0.236087
  142  F  11  S  -0.874498  -0.388393   0.826110  -2.452569   2.013831
  143  F  11  X  -0.061115   0.057696   0.237600  -0.324072   0.167830
  144  F  11  Y   0.170321   0.054825   0.191545   0.077350   0.177204
  145  F  11  Z  -0.224008  -0.143539   0.296472   0.298262  -0.194386
  146  F  11  X   0.221782  -0.280383  -0.587779   0.673673  -0.411147
  147  F  11  Y  -0.258854  -0.020127  -0.290809  -0.123087  -0.210748
  148  F  11  Z   0.293404   0.294631  -0.439689  -0.522694   0.301210
  149  F  11  X   0.110892   0.367022   0.003511   0.306802  -0.397770
  150  F  11  Y   0.050235   0.080761   0.105920  -0.049071   0.148049
  151  F  11  Z  -0.167750   0.024902   0.409840  -0.053148   0.035474
  152  F  11 XX   0.003719   0.000152   0.002679  -0.004327   0.002770
  153  F  11 YY  -0.002421   0.001724  -0.002355   0.001037  -0.003870
  154  F  11 ZZ  -0.001297  -0.001875  -0.000324   0.003290   0.001100
  155  F  11 XY  -0.001099  -0.000859  -0.001100   0.002172   0.007477
  156  F  11 XZ  -0.002572   0.003136  -0.001288   0.002337  -0.003558
  157  F  11 YZ   0.001655  -0.000448   0.000246  -0.002569  -0.001071
  158  F  11 XX   0.197821   0.064764  -0.354026   0.414405  -0.203453
  159  F  11 YY  -0.000722   0.027388   0.102712  -0.346243  -0.006402
  160  F  11 ZZ  -0.197099  -0.092152   0.251315  -0.068162   0.209856
  161  F  11 XY  -0.066210   0.105265  -0.017055   0.019637   0.044816
  162  F  11 XZ  -0.112313  -0.133460  -0.172222  -0.139205  -0.163111
  163  F  11 YZ  -0.014898  -0.213043   0.213305   0.108371   0.009005

                    111        112        113        114        115
                    1.5288     1.5839     1.6095     1.6217     1.6467
                     A          A          A          A          A   
    1  C   1  S  -0.002239   0.204224  -0.109672   0.041509  -0.140584
    2  C   1  S  -0.000087   0.403682  -0.223743   0.055016  -0.279414
    3  C   1  S   2.434794   1.864277   2.755435   1.731305   3.844331
    4  C   1  S   1.580782  -4.417059   4.683270  -0.830858  -2.132954
    5  C   1  X  -0.047554   0.044047   0.044090   0.104247   0.032084
    6  C   1  Y  -0.001275   0.057202  -0.066062  -0.083635  -0.060074
    7  C   1  Z  -0.010712  -0.066324   0.036468   0.115814   0.041856
    8  C   1  X   0.952562  -0.845580  -0.742055  -1.709935   0.169878
    9  C   1  Y   1.240238   1.522927   2.300449   1.147482   1.110267
   10  C   1  Z  -1.844709  -3.516435   0.024998  -3.946857  -2.737291
   11  C   1  X  -0.193226  -0.679708  -1.077076  -0.679216   0.420578
   12  C   1  Y  -0.032359  -0.589456   0.625983  -0.785480  -0.186687
   13  C   1  Z  -0.578584   0.449255  -0.746494  -0.502823   0.366086
   14  C   1 XX   0.197942  -0.299198  -0.174610  -0.298843  -0.023935
   15  C   1 YY  -0.318158   0.058082   0.343881  -0.013401  -0.016778
   16  C   1 ZZ   0.120216   0.241116  -0.169270   0.312244   0.040712
   17  C   1 XY   0.406467  -0.089879  -0.341436  -0.037272  -0.007162
   18  C   1 XZ  -0.246842   0.380911   0.052102   0.290883  -0.163375
   19  C   1 YZ  -0.188580   0.314260  -0.070379   0.178301  -0.062068
   20  C   1 XX  -1.559869   0.457711   0.005150   0.826890  -0.143017
   21  C   1 YY   2.084277   0.033133  -0.779330   0.333579  -0.335287
   22  C   1 ZZ  -0.524407  -0.490844   0.774180  -1.160469   0.478304
   23  C   1 XY  -1.367567   0.644229   1.681040   0.482194  -0.044802
   24  C   1 XZ   0.485875  -2.720542  -1.007213  -0.768577   1.101869
   25  C   1 YZ   0.014874  -1.697923  -0.236074  -1.798417  -0.090461
   26  C   2  S   0.145333   0.116001   0.007394   0.193648  -0.061084
   27  C   2  S   0.263509   0.234878   0.000686   0.366452  -0.113021
   28  C   2  S   1.235506   3.342924   0.355557  -5.270618   1.430045
   29  C   2  S  -6.398477   2.615721  -9.759369  -0.831855   2.797933
   30  C   2  X  -0.084423   0.168732   0.113160  -0.109761  -0.090079
   31  C   2  Y   0.099992  -0.080727   0.089970  -0.015883  -0.003913
   32  C   2  Z   0.087334   0.071612  -0.003461  -0.012432  -0.109040
   33  C   2  X  -0.438943  -3.738296  -2.069241   3.807500   0.428139
   34  C   2  Y  -0.577342   0.175443  -1.092219   4.839396   2.396661
   35  C   2  Z  -3.282370  -5.299444  -1.722453   1.940381  -1.408771
   36  C   2  X   0.890591   0.527218   0.953627   1.567009   0.404528
   37  C   2  Y   1.140228  -0.417558   2.632669   2.166392  -0.851874
   38  C   2  Z   0.416999   1.577869  -0.137137   0.944589   1.044061
   39  C   2 XX  -0.237819  -0.150552  -0.294513   0.047547  -0.072270
   40  C   2 YY   0.214280   0.192466   0.079029  -0.109097   0.182919
   41  C   2 ZZ   0.023539  -0.041914   0.215485   0.061549  -0.110649
   42  C   2 XY  -0.217462  -0.305652  -0.104011   0.197718   0.148220
   43  C   2 XZ   0.291814  -0.144137   0.116864  -0.050492  -0.023978
   44  C   2 YZ   0.073191   0.027385   0.061176  -0.469890  -0.284854
   45  C   2 XX   1.799782   1.037266   0.650109  -0.766415   0.616781
   46  C   2 YY   0.065775   0.111292   0.595842   3.395717   0.104147
   47  C   2 ZZ  -1.865557  -1.148558  -1.245952  -2.629302  -0.720928
   48  C   2 XY   1.265809   2.835747   0.721301   0.606539   0.836345
   49  C   2 XZ  -0.785507  -0.636267  -1.263424  -1.288999   0.400351
   50  C   2 YZ   0.279919   2.504469   0.921463   1.999014   2.363844
   51  C   3  S   0.063777   0.229874   0.008344  -0.080058  -0.352105
   52  C   3  S   0.129490   0.484934   0.031705  -0.117222  -0.664072
   53  C   3  S  -1.471380  -5.673537   0.693649   5.335773   4.297404
   54  C   3  S   4.567489   1.841756   4.591556   2.138885   2.530166
   55  C   3  X  -0.003057   0.169875  -0.055383   0.103874   0.047891
   56  C   3  Y   0.017741   0.001129   0.058929  -0.060000  -0.092339
   57  C   3  Z   0.042482   0.098361   0.055043   0.031309   0.056573
   58  C   3  X   0.508166  -2.567749  -1.277302   1.744585  -1.261913
   59  C   3  Y  -0.482176   1.155062  -0.573609   1.053400   1.426299
   60  C   3  Z  -2.001819  -4.098839  -0.872641   4.962897  -3.082217
   61  C   3  X   0.799185   0.488517   0.484830  -0.215728   0.038234
   62  C   3  Y   0.467310   0.341662  -0.348256  -0.517248   0.269994
   63  C   3  Z   0.626134  -0.049964   0.808297   0.937244  -0.032874
   64  C   3 XX   0.330953   0.099525  -0.218055  -0.093331  -0.033643
   65  C   3 YY  -0.207844  -0.276238   0.255927   0.169080  -0.027662
   66  C   3 ZZ  -0.123110   0.176713  -0.037872  -0.075749   0.061305
   67  C   3 XY  -0.063553   0.097069   0.008206  -0.122935   0.028791
   68  C   3 XZ   0.176874  -0.319538   0.236681   0.125271  -0.114707
   69  C   3 YZ   0.026453   0.140467   0.138990  -0.116860  -0.272238
   70  C   3 XX  -0.596386  -1.180607   0.708324   0.946648  -0.144804
   71  C   3 YY   1.494142   2.392054  -0.078351  -0.957424   0.671466
   72  C   3 ZZ  -0.897755  -1.211447  -0.629973   0.010776  -0.526662
   73  C   3 XY   0.127991   0.312718   0.712871   1.445800   0.575520
   74  C   3 XZ  -1.059790   0.051853  -1.197524   0.345479   0.073539
   75  C   3 YZ  -0.563018  -0.250031  -0.207580   1.678092   0.290448
   76  H   4  S  -0.036529  -0.055700  -0.100546   0.354627   0.151107
   77  H   4  S   1.983195   1.379148  -2.883471   3.408352   1.246820
   78  H   4  S   0.345824  -0.307180  -0.624536   0.368520  -0.051579
   79  H   4  X  -0.023569   0.099522  -0.134124   0.232436  -0.461926
   80  H   4  Y  -0.034771   0.136346   0.072805   0.160514  -0.151301
   81  H   4  Z   0.045235  -0.063514  -0.095821   0.078461  -0.152607
   82  H   4  X  -0.075193   1.171369  -0.404228   1.044314   0.353099
   83  H   4  Y  -1.266359   0.342581   1.020542  -0.463447  -0.263482
   84  H   4  Z  -0.301159  -0.089706   0.318288  -0.194677   0.068734
   85  H   5  S   0.146811   0.121907   0.090059   0.082607  -0.012761
   86  H   5  S   0.846834   5.295707   2.804145   3.410709  -1.056395
   87  H   5  S   0.064229   0.627023   1.128489   0.613878  -0.551266
   88  H   5  X   0.024582  -0.061722   0.006760  -0.031887   0.000827
   89  H   5  Y   0.046725   0.042033  -0.059107  -0.210930   0.409772
   90  H   5  Z  -0.054330   0.187531   0.125828   0.093937   0.258364
   91  H   5  X   0.090109  -1.978916  -0.914435  -1.401716   0.278335
   92  H   5  Y   0.653601  -0.003771  -0.863546   0.339509  -0.613119
   93  H   5  Z  -0.211722   0.583920  -0.232007   0.293496  -0.541004
   94  H   6  S   0.016382   0.208390  -0.018222   0.053031  -0.011530
   95  H   6  S  -1.105239  -1.452824   0.486407  -2.616671   0.572436
   96  H   6  S  -0.202740  -0.301194   0.013118  -0.623784   0.211883
   97  H   6  X  -0.252545   0.064000   0.191889  -0.243942   0.395359
   98  H   6  Y   0.095373   0.019148  -0.094761   0.068800  -0.249213
   99  H   6  Z   0.143543  -0.119171   0.006982   0.064833   0.184361
  100  H   6  X  -1.233793   0.022306   0.615586   0.325989  -0.359805
  101  H   6  Y   0.024045  -0.759969  -0.189909  -1.134659   0.349859
  102  H   6  Z   0.119557  -0.875757  -0.442384  -0.675518   0.417071
  103  H   7  S  -0.048145  -0.146512  -0.050274  -0.858901  -0.465547
  104  H   7  S  -1.096481  -3.600662   1.370621 -10.127823  -4.764968
  105  H   7  S  -0.701717  -0.074203  -1.274488  -1.672542   0.121385
  106  H   7  X  -0.095361  -0.367490  -0.088826   0.152775  -0.070357
  107  H   7  Y  -0.017115   0.122302   0.042468  -0.132944  -0.023772
  108  H   7  Z   0.015574   0.140321  -0.007076  -0.259803  -0.055109
  109  H   7  X  -0.557961  -0.251293  -0.236576   1.446829   0.346900
  110  H   7  Y   0.577074   1.057629  -0.578151   2.191719   1.514757
  111  H   7  Z   0.615709  -0.424386   0.079651  -0.612033  -0.973047
  112  H   8  S  -0.069307  -0.189368  -0.191992  -0.305705  -0.227601
  113  H   8  S  -1.415475  -1.027673  -4.798500  -1.900400  -3.000492
  114  H   8  S   0.547939   0.343317   0.079601  -0.193577  -0.181354
  115  H   8  X  -0.118248  -0.008570   0.166613  -0.099544  -0.012758
  116  H   8  Y   0.158418   0.146900  -0.076511   0.091365  -0.023793
  117  H   8  Z  -0.005393   0.172570  -0.115815   0.083132   0.291725
  118  H   8  X  -0.756042  -0.610950  -0.798233   0.384734  -0.516223
  119  H   8  Y   0.309292   0.689903  -1.379181  -1.006016  -0.369426
  120  H   8  Z  -0.412035   0.369691  -0.278031   0.539107   0.156507
  121  H   9  S  -0.240421  -0.202666  -0.213700   0.215231  -0.595667
  122  H   9  S   0.683519  -1.711692   2.740835   6.678881  -3.872878
  123  H   9  S  -0.189218   0.036008   0.378152   0.680642  -0.206471
  124  H   9  X  -0.025008   0.177115   0.083384  -0.121549  -0.095274
  125  H   9  Y  -0.039289  -0.099357  -0.048370   0.133468   0.067787
  126  H   9  Z  -0.030659  -0.013394  -0.060667   0.062605   0.063535
  127  H   9  X  -0.110487   0.252298  -0.173702   0.148015   0.178381
  128  H   9  Y  -0.985105  -0.405897  -0.783859  -0.923176   0.784068
  129  H   9  Z   0.400191  -0.444118   0.994105   1.780324  -1.179140
  130  H  10  S   0.111019   0.031847   0.225044   0.013768  -0.090198
  131  H  10  S  -0.298125   1.084779  -3.478574  -0.013404   1.381745
  132  H  10  S   0.263649  -0.115482  -0.333806   0.377524  -0.081454
  133  H  10  X  -0.037015  -0.020480  -0.007540  -0.013547   0.050228
  134  H  10  Y   0.130171  -0.199821   0.269488   0.029624   0.080995
  135  H  10  Z  -0.129244  -0.127841  -0.060183  -0.270425  -0.317911
  136  H  10  X   1.303670  -0.033191  -1.092722  -0.033375   0.725616
  137  H  10  Y  -0.946976   0.627099  -1.439425  -0.364087  -0.025678
  138  H  10  Z   0.336482   0.360327   0.021776   0.410919   0.326142
  139  F  11  S  -0.025975  -0.003435   0.043977  -0.033790  -0.016073
  140  F  11  S  -0.077279  -0.013586   0.136369  -0.089852  -0.056872
  141  F  11  S  -0.109083  -0.033527   0.186898   0.064234  -0.117901
  142  F  11  S  -1.073219  -0.441701   2.897346   0.052845  -1.707678
  143  F  11  X  -0.097421   0.084798   0.354593  -0.131252  -0.120034
  144  F  11  Y  -0.226466   0.092855  -0.457095  -0.217795   0.034990
  145  F  11  Z   0.377352   0.198696   0.088688   0.113008   0.004197
  146  F  11  X   0.198594  -0.065141  -0.780605   0.263383   0.366439
  147  F  11  Y   0.401985  -0.175102   0.874112   0.360331  -0.101887
  148  F  11  Z  -0.624393  -0.318208  -0.088802  -0.212335  -0.023405
  149  F  11  X   0.169377   0.122053  -0.427713  -0.147949   0.339316
  150  F  11  Y  -0.024973  -0.188138   0.189958   0.003661  -0.068847
  151  F  11  Z   0.082640  -0.007917   0.261117  -0.035734  -0.403432
  152  F  11 XX   0.002164   0.008626   0.001585   0.000953   0.003363
  153  F  11 YY  -0.004388  -0.004108   0.000473   0.002211   0.000137
  154  F  11 ZZ   0.002224  -0.004518  -0.002058  -0.003164  -0.003500
  155  F  11 XY  -0.004034   0.003848  -0.008192  -0.003900  -0.003832
  156  F  11 XZ   0.001748   0.005691   0.002758   0.005234   0.007402
  157  F  11 YZ  -0.000349  -0.005051  -0.003325   0.004654   0.000503
  158  F  11 XX   0.118018   0.111718  -0.127232  -0.134559   0.074976
  159  F  11 YY  -0.180927  -0.065242   0.089789   0.155183  -0.032708
  160  F  11 ZZ   0.062909  -0.046476   0.037444  -0.020625  -0.042268
  161  F  11 XY  -0.139660  -0.099083  -0.113916  -0.077820   0.037489
  162  F  11 XZ   0.054492   0.037522   0.056308  -0.014054  -0.099213
  163  F  11 YZ  -0.142879  -0.058705  -0.131960   0.142382   0.007917

                    116        117        118        119        120
                    1.6688     1.6885     1.7028     1.7270     1.7573
                     A          A          A          A          A   
    1  C   1  S   0.053274   0.137826  -0.539871  -0.032655  -0.173420
    2  C   1  S   0.090568   0.291907  -1.049852  -0.012271  -0.332966
    3  C   1  S  -3.136492   0.770673   5.532217   2.460530   1.346277
    4  C   1  S  -1.223350  -0.098849   2.547399   1.739091   1.740351
    5  C   1  X  -0.018348   0.032911  -0.028246   0.020227   0.035641
    6  C   1  Y  -0.011118   0.028749  -0.074376   0.161998   0.085324
    7  C   1  Z   0.040237  -0.100765   0.184934  -0.235018   0.004397
    8  C   1  X   0.387068  -2.133060  -1.079437  -0.054137   0.128506
    9  C   1  Y  -1.553087   0.723275  -1.586620  -0.335537  -0.320420
   10  C   1  Z   2.490835  -3.003352  -1.674781  -0.888343   2.085309
   11  C   1  X   0.071787  -0.642049   0.140123  -0.623473  -0.322332
   12  C   1  Y  -0.451950  -0.119708  -0.113243  -0.613556   0.233236
   13  C   1  Z   0.032127  -0.400726  -0.350618  -0.618480  -0.064948
   14  C   1 XX   0.036054  -0.162376  -0.086991  -0.026207  -0.278618
   15  C   1 YY  -0.165171   0.003599  -0.138778  -0.125542   0.359858
   16  C   1 ZZ   0.129117   0.158777   0.225769   0.151749  -0.081240
   17  C   1 XY   0.156215  -0.112388   0.235019   0.237155   0.021020
   18  C   1 XZ   0.184726   0.133638   0.293279   0.094702   0.033623
   19  C   1 YZ   0.180624  -0.043665  -0.002896   0.292296   0.084723
   20  C   1 XX   0.207525   0.086496   0.020713   0.055482   0.178555
   21  C   1 YY   1.779268  -0.328003   0.456506   1.386556  -0.334598
   22  C   1 ZZ  -1.986793   0.241507  -0.477219  -1.442038   0.156043
   23  C   1 XY  -0.597700   0.340737  -0.850284  -0.749130   1.467300
   24  C   1 XZ  -1.108953   0.124120  -0.286730  -0.803085  -2.288475
   25  C   1 YZ  -0.696033  -0.629135  -0.001322  -1.524049   0.207583
   26  C   2  S   0.040332   0.196100  -0.579191  -0.225842   0.034220
   27  C   2  S   0.097990   0.295410  -1.202700  -0.421070   0.080376
   28  C   2  S   0.714244  -4.305424   1.553599   6.421398  -4.375470
   29  C   2  S   9.834278  -8.830190   6.097057  -2.677917   6.034231
   30  C   2  X   0.016431  -0.036990   0.067623   0.018303   0.021322
   31  C   2  Y  -0.010930   0.099204   0.022347   0.017723   0.010311
   32  C   2  Z  -0.068087   0.350897   0.052055   0.173935  -0.054333
   33  C   2  X   1.507185  -0.706440   3.692979  -2.895477   1.618595
   34  C   2  Y  -0.978933   1.193143   4.974324  -0.961349   0.836501
   35  C   2  Z   3.708796  -4.493382   1.326621  -5.045561   5.832167
   36  C   2  X  -1.123424   1.018788  -0.823410   0.214798  -0.566052
   37  C   2  Y  -1.226946   0.771476  -0.128071   1.654205  -0.787130
   38  C   2  Z  -1.578595   1.660001  -1.176767   0.406030  -1.779552
   39  C   2 XX   0.221502   0.059020  -0.350916   0.160098  -0.063067
   40  C   2 YY  -0.411068   0.047584   0.268073  -0.055939   0.178481
   41  C   2 ZZ   0.189567  -0.106604   0.082842  -0.104158  -0.115414
   42  C   2 XY  -0.185554   0.174844   0.240330   0.071757  -0.163249
   43  C   2 XZ  -0.095780   0.143699  -0.008534  -0.025985   0.539271
   44  C   2 YZ   0.163784  -0.080894  -0.131696   0.315268   0.132981
   45  C   2 XX  -0.952041  -0.241904   0.091527   0.142879   0.166476
   46  C   2 YY   2.294845  -1.162518  -0.641185   1.325559   0.885723
   47  C   2 ZZ  -1.342803   1.404422   0.549658  -1.468438  -1.052199
   48  C   2 XY  -0.094354  -1.637007  -0.490401   0.723473   1.798446
   49  C   2 XZ  -0.983846   0.748783   0.392442   0.476462  -3.386659
   50  C   2 YZ  -2.836739   1.358307  -0.209725   0.331991  -1.200896
   51  C   3  S   0.345925   0.254681  -0.373364   0.130973  -0.227520
   52  C   3  S   0.668304   0.477977  -0.666307   0.217516  -0.483400
   53  C   3  S  -0.994877  -7.719561   4.635473  -5.276469   5.139754
   54  C   3  S  -8.349038   5.069672  -4.735981   0.477371  -6.354561
   55  C   3  X   0.016126  -0.025519  -0.111050  -0.046227  -0.207204
   56  C   3  Y   0.113585   0.044961   0.046210  -0.050340  -0.076997
   57  C   3  Z  -0.002432  -0.093306   0.086571   0.060188  -0.224213
   58  C   3  X   3.567487  -1.009127   0.999539  -1.435794   6.507674
   59  C   3  Y  -0.723966  -0.901000  -1.934445   2.528742   3.096716
   60  C   3  Z   3.669092   1.945839   4.192501  -5.465881   3.784612
   61  C   3  X  -0.494120   0.944787  -1.031172   0.000168  -0.672340
   62  C   3  Y  -0.114689   0.556259  -0.657771   0.278993   0.042056
   63  C   3  Z  -1.103975   1.009370  -1.162497  -0.547482  -0.896213
   64  C   3 XX   0.216834   0.038519  -0.088201  -0.081047   0.185176
   65  C   3 YY  -0.138210   0.051086  -0.098322  -0.058185  -0.325955
   66  C   3 ZZ  -0.078623  -0.089605   0.186523   0.139232   0.140780
   67  C   3 XY  -0.146835  -0.028064   0.160263   0.083894  -0.002197
   68  C   3 XZ   0.046163   0.321662   0.117951   0.220447  -0.170165
   69  C   3 YZ   0.194185   0.200616  -0.073794  -0.273085   0.022851
   70  C   3 XX   0.324971  -0.717548  -0.029943  -0.158659   0.209696
   71  C   3 YY  -0.097968  -0.702308  -0.183506   0.504365   0.540025
   72  C   3 ZZ  -0.227004   1.419856   0.213448  -0.345706  -0.749722
   73  C   3 XY  -0.248733   0.019956  -0.124808   0.101114  -0.401053
   74  C   3 XZ  -0.437742  -0.580511   0.903411  -1.239242   1.923757
   75  C   3 YZ  -0.065543  -0.864598   0.232084  -0.701894   1.502316
   76  H   4  S   0.014764   0.166422  -0.007145  -0.058416  -0.238891
   77  H   4  S   0.865264   1.383717  -0.911452   3.161504  -4.807518
   78  H   4  S   0.476164  -0.107951   0.226563  -0.022037  -0.017048
   79  H   4  X  -0.161947  -0.289769   0.043869   0.111963  -0.189961
   80  H   4  Y  -0.381876   0.129770  -0.188121   0.030263   0.204060
   81  H   4  Z   0.121656  -0.189608   0.269169   0.019668  -0.256012
   82  H   4  X   0.969819   0.467606   0.484455   0.971556  -0.223245
   83  H   4  Y  -0.048939  -0.071480  -0.057555  -0.386721   1.082618
   84  H   4  Z   0.179140  -0.017907   0.447354  -0.548712   1.091998
   85  H   5  S  -0.027853   0.032090   0.066713  -0.121138   0.111653
   86  H   5  S   0.167083   3.377712  -1.863181   0.950994   2.364227
   87  H   5  S   0.115002   0.568211  -0.382837   0.727025   0.203444
   88  H   5  X  -0.039860  -0.107629   0.045313  -0.027386  -0.057657
   89  H   5  Y   0.311624   0.149656  -0.044537   0.054717  -0.375303
   90  H   5  Z   0.202008   0.331992   0.046859   0.109322   0.339018
   91  H   5  X  -0.188606  -1.015261   0.464056  -0.234937  -1.099693
   92  H   5  Y   0.283732  -0.138095   0.460809   0.779671  -0.112285
   93  H   5  Z   0.399073  -0.514575   0.919171   0.150252   0.149618
   94  H   6  S   0.040568   0.074859  -0.330856  -0.149044  -0.259148
   95  H   6  S  -3.861941  -0.319959  -2.977691  -3.014042  -2.457672
   96  H   6  S  -0.492624  -0.310137  -0.180234  -0.524191  -0.258378
   97  H   6  X   0.210665   0.079193   0.029780  -0.111211  -0.089098
   98  H   6  Y  -0.010468  -0.034136  -0.111765   0.075665   0.143746
   99  H   6  Z  -0.545936   0.037561  -0.023559   0.062632  -0.159915
  100  H   6  X  -1.329981   0.152453  -0.668814  -0.900551   0.286618
  101  H   6  Y  -0.764582  -0.262316  -0.609362  -0.855392  -0.910902
  102  H   6  Z  -0.258471  -0.154857   0.069015  -1.225038  -0.187831
  103  H   7  S   0.086836   0.417049  -0.406847  -0.393582  -0.134135
  104  H   7  S  -3.174730   3.528208  -7.894421  -1.441358  -4.793851
  105  H   7  S   0.563836  -0.334105   0.090778  -0.698823   0.293876
  106  H   7  X   0.058658   0.317359  -0.164686   0.215476   0.038080
  107  H   7  Y   0.064375  -0.171033   0.085096  -0.123550  -0.059856
  108  H   7  Z  -0.138132   0.042125  -0.044475   0.258192   0.016054
  109  H   7  X   0.631851   0.088847   1.114587   0.345830  -0.140546
  110  H   7  Y   0.028631  -0.444105   2.824213   0.236242   1.365153
  111  H   7  Z   1.185581  -0.374719   0.040697   0.112737   0.993330
  112  H   8  S   0.165524   0.236902  -0.366742   0.324006   0.423312
  113  H   8  S   3.441729   2.424825  -2.010731   3.384595   6.189059
  114  H   8  S   0.377110   0.580162  -0.778839   0.415398   0.122263
  115  H   8  X   0.018602  -0.075658  -0.073774   0.195218  -0.176568
  116  H   8  Y   0.017743   0.061065  -0.059973  -0.202537  -0.035693
  117  H   8  Z  -0.020002  -0.296855  -0.283763   0.256077   0.060308
  118  H   8  X   0.482126   0.642417  -0.631239   0.608966   0.783420
  119  H   8  Y   0.903331   0.536082  -0.412143   1.003474   1.476618
  120  H   8  Z  -0.754580  -0.582046   0.206236  -0.419218   0.700655
  121  H   9  S   0.449358   0.387035   0.195499  -0.655959   0.165167
  122  H   9  S   4.861315   1.241866   2.991630  -5.407042   2.467167
  123  H   9  S  -0.220726   0.341927  -0.329798  -0.509985  -0.424061
  124  H   9  X  -0.163256  -0.123998   0.000440  -0.339992  -0.210892
  125  H   9  Y  -0.057702  -0.064849  -0.349870  -0.351397  -0.056161
  126  H   9  Z  -0.015205  -0.098542  -0.391046   0.073939  -0.081474
  127  H   9  X  -0.187821  -0.331619   0.219166  -0.143047   0.539774
  128  H   9  Y  -1.308598  -0.086941  -0.159034   1.135354  -0.620065
  129  H   9  Z   1.216473   1.022868   0.790387  -1.517745   0.059628
  130  H  10  S   0.010008  -0.240515  -0.050544   0.044422   0.099767
  131  H  10  S   0.379049  -0.563239  -0.092419  -1.442346   0.078721
  132  H  10  S  -0.336136   0.322059   0.040097   0.135823  -0.047533
  133  H  10  X  -0.036765  -0.028403   0.061048   0.103042  -0.127833
  134  H  10  Y   0.216680  -0.279738  -0.126646   0.246067   0.249196
  135  H  10  Z   0.102495   0.000031   0.166124  -0.130315  -0.002707
  136  H  10  X   1.478848  -1.572484  -0.317913  -1.639910   1.992532
  137  H  10  Y  -0.705786   0.736220   0.192330   0.237801  -0.820237
  138  H  10  Z  -0.269499   0.607974  -0.406235   0.738080  -1.358509
  139  F  11  S  -0.013629   0.017931   0.017902   0.052339  -0.018220
  140  F  11  S  -0.040995   0.063850   0.045782   0.136120  -0.044760
  141  F  11  S  -0.155347   0.239015   0.000009   0.040918  -0.109935
  142  F  11  S  -1.872031   1.928818   0.074943   2.997676  -2.601999
  143  F  11  X  -0.129488   0.012314   0.032344   0.257551  -0.260405
  144  F  11  Y  -0.257207   0.246279   0.079730   0.030042  -0.013924
  145  F  11  Z  -0.054073   0.327114  -0.023817   0.051606  -0.246410
  146  F  11  X   0.243846  -0.146938  -0.047258  -0.543870   0.456316
  147  F  11  Y   0.457975  -0.432964  -0.134071  -0.072714   0.053765
  148  F  11  Z   0.095971  -0.590935   0.055534  -0.109074   0.551225
  149  F  11  X   0.409824  -0.602072  -0.004278  -0.744965   0.630499
  150  F  11  Y  -0.179532   0.171850   0.045177   0.275637  -0.179581
  151  F  11  Z  -0.255110   0.297055   0.067518   0.231144  -0.254677
  152  F  11 XX  -0.002024  -0.001133  -0.000994  -0.002328  -0.002567
  153  F  11 YY   0.003213   0.002665   0.000800   0.001127   0.002951
  154  F  11 ZZ  -0.001189  -0.001532   0.000194   0.001201  -0.000384
  155  F  11 XY  -0.006030   0.010707   0.004118  -0.004885  -0.003557
  156  F  11 XZ  -0.001413   0.000683  -0.005332   0.004623  -0.003297
  157  F  11 YZ   0.001410   0.004028  -0.002805   0.002259  -0.003687
  158  F  11 XX   0.087761   0.064632  -0.000368  -0.101259   0.028907
  159  F  11 YY   0.006256   0.051567   0.022665   0.024110  -0.051572
  160  F  11 ZZ  -0.094017  -0.116199  -0.022298   0.077149   0.022666
  161  F  11 XY  -0.091283   0.086271  -0.023369   0.163092   0.098404
  162  F  11 XZ  -0.031384   0.212824   0.001680   0.030877  -0.267869
  163  F  11 YZ   0.095240  -0.010240  -0.058069   0.046672  -0.085514

                    121        122        123        124        125
                    1.7992     1.8326     1.8783     1.9121     1.9350
                     A          A          A          A          A   
    1  C   1  S   0.013127   0.347097  -0.028322  -0.285091  -0.300256
    2  C   1  S  -0.008424   0.614433  -0.062340  -0.550966  -0.568189
    3  C   1  S   1.770528  -7.789928   0.234532   7.418813   6.383535
    4  C   1  S   2.517205  -0.498208  -2.971781   0.052145   2.477972
    5  C   1  X   0.043917   0.029220   0.120992  -0.040905   0.236162
    6  C   1  Y  -0.220146  -0.284936  -0.104673  -0.009936   0.119592
    7  C   1  Z   0.165251   0.174785  -0.083071  -0.112985  -0.119941
    8  C   1  X   1.723336   0.116507  -0.600574  -2.205125  -2.592044
    9  C   1  Y   3.289667   1.529197   1.271026   0.978097  -3.036272
   10  C   1  Z  -1.730207   2.221109   2.232299   0.054079  -0.966159
   11  C   1  X   0.293539  -0.033553  -0.301687  -0.067451  -0.191658
   12  C   1  Y   1.237826   0.020441  -0.113830   0.705888  -0.117118
   13  C   1  Z  -0.392839  -0.185764   0.958060   0.646848  -0.496705
   14  C   1 XX  -0.081687  -0.043813  -0.165681   0.246817  -0.103908
   15  C   1 YY  -0.032823  -0.241379   0.164918  -0.034845   0.082010
   16  C   1 ZZ   0.114509   0.285192   0.000763  -0.211972   0.021898
   17  C   1 XY  -0.112882  -0.306828  -0.075745  -0.208934   0.117900
   18  C   1 XZ  -0.338862  -0.140944  -0.210940  -0.012497  -0.200448
   19  C   1 YZ  -0.202975  -0.115333   0.254449   0.223238   0.277426
   20  C   1 XX  -0.083285  -0.322801  -0.182056  -0.284155  -0.136602
   21  C   1 YY  -0.945821   0.637619   0.210650  -1.640149   0.008914
   22  C   1 ZZ   1.029107  -0.314818  -0.028595   1.924304   0.127688
   23  C   1 XY  -0.113208   0.550516   0.042671   0.110897  -0.402066
   24  C   1 XZ   0.395643  -0.347462  -0.363824  -0.874896   1.146376
   25  C   1 YZ   0.096414   0.189529   0.182846   0.689457   0.584434
   26  C   2  S  -0.158029   0.340152   0.071795  -0.277881   0.254910
   27  C   2  S  -0.351476   0.616792   0.177778  -0.521674   0.469818
   28  C   2  S   4.151622 -10.327279   1.002352   8.335641  -5.932185
   29  C   2  S  -2.980630  -1.320809   2.487381   6.354022  -2.383661
   30  C   2  X   0.069407   0.084783  -0.117772   0.145460   0.063123
   31  C   2  Y   0.255735   0.181513  -0.143258  -0.106274  -0.182933
   32  C   2  Z  -0.061379  -0.157824  -0.082430   0.359621   0.244880
   33  C   2  X  -6.245097   4.192094  -0.104226  -3.362029   3.454392
   34  C   2  Y  -5.311947  -2.179362  -0.315360   0.631098   3.102997
   35  C   2  Z  -4.524393  10.735865   1.608524  -4.840589   2.542157
   36  C   2  X  -0.611063   1.110585   0.423933  -0.526688   0.132596
   37  C   2  Y   0.789355   1.775096  -1.709650  -1.465249   1.261378
   38  C   2  Z  -1.649948   0.154332   0.795888  -0.968016   0.010409
   39  C   2 XX  -0.009672  -0.253812  -0.534488   0.264082  -0.147942
   40  C   2 YY  -0.067787  -0.053115   0.409616   0.251199   0.119154
   41  C   2 ZZ   0.077459   0.306927   0.124872  -0.515281   0.028789
   42  C   2 XY  -0.246503  -0.365583  -0.154694  -0.443330   0.043858
   43  C   2 XZ  -0.113511  -0.090852  -0.025167   0.091711  -0.310072
   44  C   2 YZ  -0.254639  -0.154068   0.278556  -0.325217   0.036837
   45  C   2 XX   1.679935   0.142263   0.778674   0.556941   0.293021
   46  C   2 YY  -1.838880   2.786180   0.027772  -1.770768  -0.094237
   47  C   2 ZZ   0.158945  -2.928443  -0.806447   1.213827  -0.198784
   48  C   2 XY   1.613735   1.508405   0.583604   2.132608  -0.040006
   49  C   2 XZ   1.671343  -2.662067  -0.160011   1.280175   0.968922
   50  C   2 YZ   3.379471  -1.339453  -0.679450   3.575364   1.034976
   51  C   3  S   0.348043  -0.116030  -0.121852   0.341516   0.367599
   52  C   3  S   0.682815  -0.207293  -0.252772   0.696018   0.739025
   53  C   3  S -11.054419  10.994114   2.984112 -11.201910  -4.372201
   54  C   3  S  -1.193749   1.286816   2.027101  -4.763501  -1.131057
   55  C   3  X   0.075879   0.011606  -0.056890   0.204455   0.086170
   56  C   3  Y   0.009928  -0.054076  -0.071548  -0.004992   0.213671
   57  C   3  Z   0.157058   0.131018   0.091637   0.164533   0.001789
   58  C   3  X  -3.816180   6.665612   0.462607  -2.271161   2.607506
   59  C   3  Y   0.371990   4.466611   2.139328   0.138721   1.530465
   60  C   3  Z  -6.861793   6.076364  -2.096750  -4.790371   4.793617
   61  C   3  X  -0.808302  -0.196681   0.490622  -0.531546   0.019217
   62  C   3  Y  -1.318373  -1.143226   0.774052   0.164193  -0.270189
   63  C   3  Z   0.357779   1.421885  -0.082489  -1.055053   0.252588
   64  C   3 XX   0.151279   0.039026  -0.161645   0.111907   0.073116
   65  C   3 YY  -0.312853  -0.191596   0.341131   0.026601  -0.286607
   66  C   3 ZZ   0.161573   0.152571  -0.179486  -0.138508   0.213491
   67  C   3 XY   0.146827  -0.091349  -0.352551  -0.015341  -0.074259
   68  C   3 XZ  -0.020839  -0.000552  -0.017828   0.484170  -0.176020
   69  C   3 YZ  -0.210796   0.253688   0.102857  -0.200392   0.163292
   70  C   3 XX   0.190043   1.511650   0.042256  -0.696130  -0.009857
   71  C   3 YY   2.452013   0.449839  -0.193548   1.455836  -0.600448
   72  C   3 ZZ  -2.642056  -1.961489   0.151292  -0.759706   0.610306
   73  C   3 XY   1.270075   1.804633   0.645609  -0.003379   0.208844
   74  C   3 XZ  -0.944140   1.483746   0.344389  -1.939151   1.413809
   75  C   3 YZ   0.704122   2.759021  -0.317345  -0.453958   0.770603
   76  H   4  S   0.032782  -0.037900  -0.419447  -0.580768  -0.262778
   77  H   4  S  -1.112542  -0.942718  -3.618767  -7.596526   0.620995
   78  H   4  S  -0.244011   0.221668  -0.466458  -0.576051  -0.103684
   79  H   4  X  -0.092305   0.276863  -0.108326   0.267741   0.057571
   80  H   4  Y  -0.073914   0.211595  -0.352180   0.178076   0.029882
   81  H   4  Z  -0.033805  -0.084105  -0.078759  -0.136019  -0.157859
   82  H   4  X  -0.389318  -0.471085  -0.536170  -1.327414  -0.183258
   83  H   4  Y   0.086896  -0.179502   0.815712   1.487283  -0.322095
   84  H   4  Z   0.356450   0.303994   0.995632   1.487803  -0.051812
   85  H   5  S   0.062443   0.419620   0.177636  -0.032001   0.161212
   86  H   5  S  -2.421372   2.894382   0.938566   2.985603   0.007151
   87  H   5  S   0.200863  -0.053365   0.045343  -0.325160   0.276666
   88  H   5  X  -0.044541   0.107565   0.049977   0.035360   0.229927
   89  H   5  Y  -0.287820   0.345140  -0.121243   0.109586   0.221501
   90  H   5  Z   0.293849  -0.129930  -0.008612  -0.130953  -0.153495
   91  H   5  X   0.835588  -1.058895  -0.316397  -1.031415   0.056586
   92  H   5  Y  -0.324734  -0.390542   0.024571  -0.186095   0.070860
   93  H   5  Z   0.016571  -0.239305  -0.002794  -0.189598  -0.277775
   94  H   6  S   0.475904   0.348328   0.065987  -0.005641  -0.555834
   95  H   6  S   5.981622   1.459993   1.134324   0.976855  -5.905997
   96  H   6  S   0.972187   0.432791  -0.219089   0.590567  -0.229644
   97  H   6  X  -0.295624   0.036549  -0.190539   0.315600  -0.003671
   98  H   6  Y  -0.003150  -0.162678   0.038929  -0.216687   0.121489
   99  H   6  Z  -0.113595   0.279904  -0.215134   0.096478   0.220393
  100  H   6  X   1.040808   0.256716   0.251110   0.032907  -0.716542
  101  H   6  Y   1.619485   0.769728   0.374667   0.071625  -2.074375
  102  H   6  Z   0.567530  -0.279395   0.181775   0.178947   0.380875
  103  H   7  S   0.786183   0.078405  -0.061581  -0.278134  -0.320014
  104  H   7  S   5.660921  -3.132149  -1.472465  -1.090614  -2.046490
  105  H   7  S  -0.077889  -1.290888   0.678139   0.625313  -0.572836
  106  H   7  X  -0.066410   0.229322   0.527236   0.027442  -0.144130
  107  H   7  Y   0.177231  -0.096291  -0.305523  -0.014561  -0.103479
  108  H   7  Z  -0.492129   0.229535  -0.350500  -0.373266  -0.461124
  109  H   7  X  -1.244619  -0.455852  -0.596351  -0.790507   0.134779
  110  H   7  Y  -1.136302   0.212292   0.917618   0.554370   0.537145
  111  H   7  Z  -1.121369   0.232929   0.465612  -0.967382  -0.476674
  112  H   8  S  -0.137556   0.068779   0.151482   0.108427   0.487797
  113  H   8  S  -3.350157   1.245949   0.701661   0.837362   5.179246
  114  H   8  S  -1.323920  -0.816001   0.551196   0.019100   0.177804
  115  H   8  X   0.264484   0.106604  -0.051884  -0.204815   0.120920
  116  H   8  Y  -0.013490  -0.136721  -0.056253   0.284406  -0.168392
  117  H   8  Z   0.110530   0.268281   0.285472  -0.001989  -0.433102
  118  H   8  X  -0.511852   0.622779   0.503896   0.000878   1.096605
  119  H   8  Y   0.259864   0.598399   0.230629   0.614712   1.093495
  120  H   8  Z   0.783187   0.560211  -0.004388  -0.607304   0.638523
  121  H   9  S  -0.050209   0.589320  -0.290474  -0.273337   0.443073
  122  H   9  S   0.098730   4.777142  -4.775767  -0.648413   4.645305
  123  H   9  S   0.813484   1.444344  -0.455796  -0.416826   0.416498
  124  H   9  X  -0.286893  -0.262058   0.367129  -0.056885  -0.052611
  125  H   9  Y  -0.083701  -0.310038  -0.267734  -0.198911   0.125468
  126  H   9  Z   0.076383  -0.327800  -0.127320  -0.074495  -0.142357
  127  H   9  X  -0.151433  -0.193898  -0.472792  -0.523099   0.446529
  128  H   9  Y  -0.443254  -0.952831   1.130766  -0.225835  -0.741605
  129  H   9  Z  -0.648312   0.161819  -0.926539  -0.003205   1.326944
  130  H  10  S  -0.061739  -0.017412  -0.097036   0.329570  -0.317659
  131  H  10  S  -0.640171   0.397459   1.828523   0.033863   1.024760
  132  H  10  S  -0.070886   0.014778  -0.222874  -0.069245   0.033038
  133  H  10  X   0.146475  -0.059734   0.014444   0.157479   0.085147
  134  H  10  Y   0.089175   0.102605  -0.291763  -0.105308   0.273358
  135  H  10  Z  -0.006913   0.117858   0.088681   0.307242  -0.430891
  136  H  10  X  -1.019266   0.221581  -0.339365   1.008074  -1.318238
  137  H  10  Y   0.657542  -0.012093   0.684105  -0.287913   0.785030
  138  H  10  Z   0.397446  -0.596057   0.447894  -0.119172   0.747926
  139  F  11  S   0.031464   0.016484  -0.021475  -0.068221   0.047867
  140  F  11  S   0.073499   0.044134  -0.056971  -0.182147   0.109528
  141  F  11  S  -0.016103  -0.055750   0.036249   0.050936  -0.106524
  142  F  11  S   1.821648  -0.389618  -0.796705  -1.496202   1.477946
  143  F  11  X   0.200543  -0.049624   0.027041  -0.088313   0.148706
  144  F  11  Y   0.148413   0.000558   0.034908  -0.052458   0.105380
  145  F  11  Z   0.020690  -0.134339   0.058691  -0.042168  -0.056245
  146  F  11  X  -0.351889   0.044351   0.040491   0.380737  -0.260888
  147  F  11  Y  -0.338145  -0.006513  -0.098998   0.102106  -0.300613
  148  F  11  Z  -0.067823   0.291452  -0.177133   0.008581   0.084317
  149  F  11  X  -0.423478   0.128867   0.145129   0.334872  -0.405100
  150  F  11  Y   0.117613  -0.084757  -0.167370  -0.154448   0.041027
  151  F  11  Z   0.170358  -0.044711  -0.093783  -0.219403   0.047648
  152  F  11 XX   0.000272  -0.003096   0.006519   0.002411   0.000046
  153  F  11 YY   0.000174   0.002461  -0.004979  -0.005547  -0.002535
  154  F  11 ZZ  -0.000445   0.000635  -0.001540   0.003136   0.002489
  155  F  11 XY  -0.000123  -0.002348   0.002873   0.002885  -0.004860
  156  F  11 XZ   0.000502  -0.006996  -0.006119  -0.011454   0.002513
  157  F  11 YZ   0.004186   0.001677   0.002886   0.004502   0.004511
  158  F  11 XX   0.006590   0.052643   0.095634  -0.205734   0.081127
  159  F  11 YY  -0.038202  -0.007625  -0.035071   0.068423  -0.117827
  160  F  11 ZZ   0.031612  -0.045018  -0.060563   0.137310   0.036700
  161  F  11 XY   0.201533   0.027934  -0.142833   0.001786   0.216618
  162  F  11 XZ   0.053002  -0.115736   0.039701   0.170034  -0.257641
  163  F  11 YZ   0.024276   0.017920   0.041477   0.040956   0.054103

                    126        127        128        129        130
                    1.9371     1.9816     1.9909     2.0247     2.0561
                     A          A          A          A          A   
    1  C   1  S   0.371329  -0.557000  -0.166362  -0.347384  -0.211425
    2  C   1  S   0.725523  -1.116915  -0.325486  -0.676202  -0.406994
    3  C   1  S  -2.813681  11.134124   3.071003   4.079910   4.283882
    4  C   1  S   1.085273   6.791872   1.134402   4.481824   0.627838
    5  C   1  X  -0.038667  -0.158710   0.329458  -0.020866  -0.034837
    6  C   1  Y  -0.010674  -0.006370   0.006953  -0.092320   0.355644
    7  C   1  Z  -0.104061   0.054990  -0.005701   0.086707   0.327208
    8  C   1  X  -0.585959   4.178516  -5.452802  -0.048112  -0.361464
    9  C   1  Y   4.059517  -0.651889   1.101627   0.265809  -2.415046
   10  C   1  Z   0.827688   1.218316   0.384862   0.699507  -4.032923
   11  C   1  X  -0.180153   0.149117  -0.312096  -0.240395  -0.026300
   12  C   1  Y   0.357755   0.219198   0.516712   0.531384  -0.111779
   13  C   1  Z  -0.541296  -0.978823   0.107260  -0.664677  -0.302475
   14  C   1 XX  -0.071866   0.366888  -0.171583   0.086563   0.106903
   15  C   1 YY   0.129583   0.001907   0.177249   0.009856   0.219851
   16  C   1 ZZ  -0.057717  -0.368795  -0.005666  -0.096419  -0.326753
   17  C   1 XY  -0.102318  -0.002693   0.100536   0.020444   0.012875
   18  C   1 XZ   0.144357  -0.077268  -0.241875   0.186588   0.186653
   19  C   1 YZ  -0.359461   0.295640   0.118078   0.075559  -0.262533
   20  C   1 XX  -0.022350   0.556260  -0.829457   0.083869   0.055001
   21  C   1 YY   0.264954   0.049142   0.619725   0.255323  -0.495488
   22  C   1 ZZ  -0.242604  -0.605401   0.209732  -0.339191   0.440487
   23  C   1 XY   0.255568   0.386213  -0.761817   0.069617   1.048349
   24  C   1 XZ  -0.323092   0.098212   0.669705   0.081431   0.733719
   25  C   1 YZ  -0.312276  -0.253001   0.441234  -0.183967  -0.247028
   26  C   2  S   0.425184   0.467337  -0.088511  -0.021856   0.119921
   27  C   2  S   0.727632   0.964513  -0.187783   0.000996   0.240057
   28  C   2  S -10.834246  -3.549439   2.463494   2.473679   0.206563
   29  C   2  S  -4.130108  -9.687175  -1.234842  -2.135075  -3.367898
   30  C   2  X   0.039260   0.111901   0.041513  -0.053422  -0.036161
   31  C   2  Y   0.111158  -0.080335   0.125516  -0.181447   0.229453
   32  C   2  Z  -0.110451   0.323214   0.277777  -0.103322  -0.049554
   33  C   2  X   4.279889  -1.172152  -1.639997  -1.589704  -3.191417
   34  C   2  Y  -0.611359  -3.725180  -2.430607   0.067834  -2.664200
   35  C   2  Z   6.041108   1.882681  -5.379888  -1.307092  -3.650676
   36  C   2  X   0.392562   0.881102  -0.398808  -0.367749   0.346090
   37  C   2  Y   1.562118   2.508420  -1.019011   0.940115   0.043664
   38  C   2  Z  -0.026915  -0.225619  -0.491359  -1.429582   0.458780
   39  C   2 XX   0.189880  -0.298523  -0.196111  -0.329030   0.131761
   40  C   2 YY   0.099829  -0.110983   0.006492   0.160216   0.019580
   41  C   2 ZZ  -0.289709   0.409506   0.189619   0.168815  -0.151341
   42  C   2 XY   0.161684   0.181333   0.034363   0.073765  -0.214583
   43  C   2 XZ   0.139622  -0.059223  -0.097852   0.360686   0.190458
   44  C   2 YZ  -0.033122  -0.446133  -0.073389  -0.033004  -0.170111
   45  C   2 XX  -0.313587   1.585867   0.729312   0.590326   0.334500
   46  C   2 YY   2.974349   1.558671  -1.587048  -0.026803  -1.518438
   47  C   2 ZZ  -2.660763  -3.144538   0.857737  -0.563524   1.183938
   48  C   2 XY   0.898473   1.804209  -1.736770  -0.152233   0.394657
   49  C   2 XZ  -2.775094  -0.964115   1.938853  -0.015535   0.524281
   50  C   2 YZ   1.031530   3.430109   1.189516  -0.378869   2.919414
   51  C   3  S   0.143736   0.044760  -0.019874   0.175755   0.223229
   52  C   3  S   0.242470   0.083659  -0.022523   0.300154   0.408284
   53  C   3  S   3.383337  -1.190795  -4.627997  -3.372148  -7.522125
   54  C   3  S  -0.066955   3.776544   0.031493  -2.675195   1.622557
   55  C   3  X   0.000563  -0.097709   0.025937  -0.040164  -0.024463
   56  C   3  Y  -0.219428  -0.172306  -0.104050   0.095162  -0.099173
   57  C   3  Z   0.160231   0.074445  -0.031092  -0.185208  -0.051731
   58  C   3  X   6.779323   1.831711  -4.018353  -0.588286  -2.760960
   59  C   3  Y   9.374133   5.125614  -2.788809  -2.898967   0.636964
   60  C   3  Z   3.611838  -1.060024  -1.714348  -0.754454  -3.195923
   61  C   3  X   0.335730   0.145284  -0.312310  -0.971992  -0.041944
   62  C   3  Y   0.322820  -0.425372   0.136115  -0.693977  -0.122837
   63  C   3  Z   0.416818   1.167377  -0.161329  -0.256291   0.398012
   64  C   3 XX  -0.228087  -0.072642  -0.549845  -0.348942   0.019505
   65  C   3 YY  -0.142695  -0.035885   0.207006   0.240446   0.253183
   66  C   3 ZZ   0.370782   0.108527   0.342839   0.108496  -0.272688
   67  C   3 XY  -0.276285  -0.108133   0.308720   0.137967  -0.262443
   68  C   3 XZ   0.029041  -0.012712   0.083625  -0.284835   0.027806
   69  C   3 YZ   0.153130   0.168496   0.222460   0.225217  -0.136280
   70  C   3 XX   0.355799   0.948460   0.523197   1.042748  -0.196247
   71  C   3 YY  -0.177248   1.055466  -0.160007  -0.109073   1.241146
   72  C   3 ZZ  -0.178552  -2.003926  -0.363190  -0.933675  -1.044900
   73  C   3 XY   1.160087   2.601456   0.396724  -0.454922   0.911680
   74  C   3 XZ   1.153070   0.103700  -1.183816  -0.066202  -0.132336
   75  C   3 YZ   1.788121   1.621735  -1.174248   0.408657   0.827193
   76  H   4  S   0.058623  -0.057115  -0.647878  -0.079806   0.604391
   77  H   4  S  -2.936330   0.760513  -4.650009  -1.468380   3.542546
   78  H   4  S   0.189467   0.098898  -0.370870  -0.135309   0.156610
   79  H   4  X   0.081036  -0.199329   0.171328   0.000547  -0.000367
   80  H   4  Y  -0.274063   0.222488  -0.208350  -0.032484   0.208324
   81  H   4  Z   0.233274  -0.170682   0.072863   0.052252   0.437241
   82  H   4  X  -0.546060   0.028460  -0.755879  -0.129902   0.254480
   83  H   4  Y   0.309355  -0.095798   0.452259   0.283287  -0.485757
   84  H   4  Z   0.831792  -0.196548   1.196286   0.376305  -0.908021
   85  H   5  S   0.199257  -0.933609   0.730044  -0.220968  -0.181830
   86  H   5  S   3.604551  -7.429632   4.425697  -1.215577   0.423358
   87  H   5  S   0.293151  -0.263777   0.100687   0.215820  -0.068815
   88  H   5  X   0.012059  -0.198874   0.318223   0.017259   0.016113
   89  H   5  Y  -0.195649   0.168864  -0.002251  -0.019388   0.037021
   90  H   5  Z  -0.342857  -0.112290  -0.093366  -0.286922  -0.095787
   91  H   5  X  -1.265404   2.406165  -1.289622   0.409530  -0.145337
   92  H   5  Y   0.053021  -0.457988   0.312347  -0.033097  -0.323707
   93  H   5  Z  -0.242345   0.450377  -0.573641   0.156713  -0.159735
   94  H   6  S   0.411742  -0.324100  -0.330865  -0.200391  -0.545048
   95  H   6  S   3.116760  -1.914266  -0.849691  -0.879815  -3.996284
   96  H   6  S   0.259488  -0.198893   0.070864   0.146339  -0.205061
   97  H   6  X   0.204577  -0.276602   0.185292   0.082802   0.251654
   98  H   6  Y  -0.148772   0.126358   0.128447  -0.095721   0.248714
   99  H   6  Z  -0.196496  -0.166895  -0.145047  -0.134422  -0.042003
  100  H   6  X   0.473700  -0.143652  -0.413579  -0.138416  -0.212098
  101  H   6  Y   0.879058  -0.622819  -0.131774  -0.155678  -1.485653
  102  H   6  Z   0.214740  -0.380556   0.115952  -0.183753   0.103496
  103  H   7  S  -0.190738   0.099514   0.647402  -0.094479   0.579030
  104  H   7  S  -3.684765   0.374459   5.144425   0.370280   3.891059
  105  H   7  S  -0.972828  -1.078705   0.859852  -0.102784   0.188232
  106  H   7  X  -0.376191  -0.296717   0.095637   0.134329   0.267873
  107  H   7  Y  -0.076492   0.127806   0.154049  -0.150619   0.191921
  108  H   7  Z  -0.204364  -0.068732   0.134714   0.035449  -0.081259
  109  H   7  X   0.519334  -0.323267  -0.352721   0.053210  -0.568666
  110  H   7  Y   0.689877  -0.363926  -0.911890   0.104400  -0.662119
  111  H   7  Z  -0.209152  -1.074724  -0.449984   0.301175  -0.955267
  112  H   8  S   1.130012   0.055142  -0.429604  -0.092233   0.055800
  113  H   8  S  10.970905   0.642246  -4.927450  -1.860780  -1.006565
  114  H   8  S   0.595033  -0.078228  -0.371002  -0.803408  -0.188601
  115  H   8  X  -0.198054   0.181443  -0.084710  -0.266694  -0.088793
  116  H   8  Y  -0.257875  -0.251242   0.200018   0.439167   0.155385
  117  H   8  Z   0.024315   0.258418   0.123401   0.410428   0.275426
  118  H   8  X   2.572413   0.845041  -0.377244  -0.071674   0.085545
  119  H   8  Y   2.226658   0.580789  -1.323489  -0.732632   0.235172
  120  H   8  Z   0.363558   0.762209  -0.729779   0.311424   0.797107
  121  H   9  S  -0.272791  -0.071121  -0.040327   0.400281   0.126331
  122  H   9  S  -0.151512   2.188584   0.720209   4.118786   0.237278
  123  H   9  S   0.054880   0.504586  -0.327804   0.129892   0.292903
  124  H   9  X  -0.171714  -0.270061  -0.359563  -0.355091   0.164370
  125  H   9  Y  -0.236027  -0.196529   0.122074   0.318448  -0.360545
  126  H   9  Z   0.064934  -0.058954   0.179194   0.119310  -0.286795
  127  H   9  X  -0.073605  -0.236241   0.025169   0.572765  -0.081412
  128  H   9  Y   0.009754  -0.689767  -0.442845  -0.639283  -0.021041
  129  H   9  Z  -0.538167   0.211706   0.244890   0.923493  -0.098132
  130  H  10  S  -0.142085   0.144923   0.487822  -0.634043  -0.194071
  131  H  10  S  -0.819769  -0.115907  -1.406246  -1.208809  -0.610404
  132  H  10  S   0.322052   0.230693   0.218386   0.276967   0.055592
  133  H  10  X  -0.163579  -0.066864  -0.084655   0.223486   0.032241
  134  H  10  Y   0.066063  -0.295380  -0.219353   0.329463  -0.072179
  135  H  10  Z  -0.043538   0.121536  -0.328712   0.284594  -0.580316
  136  H  10  X  -0.930519  -0.811901  -0.672131   0.199105  -0.694098
  137  H  10  Y  -0.028697  -0.130165  -0.458869  -0.083722   0.260686
  138  H  10  Z   0.006375   0.079107  -0.109252   0.400234   0.256150
  139  F  11  S   0.030156  -0.023449  -0.094219   0.054997  -0.014992
  140  F  11  S   0.096276  -0.047969  -0.207745   0.120859  -0.038582
  141  F  11  S   0.159185   0.214522   0.582907  -0.291028   0.083246
  142  F  11  S   1.329188   0.786243   0.221967   1.297753   1.166225
  143  F  11  X  -0.073291  -0.090717  -0.236883   0.275955   0.100165
  144  F  11  Y   0.032021  -0.054763   0.015406   0.066444   0.073220
  145  F  11  Z   0.134852   0.040377   0.101503   0.107612  -0.051220
  146  F  11  X  -0.083560   0.140682   0.464469  -0.579649  -0.164057
  147  F  11  Y  -0.038941   0.164501   0.050160  -0.170635  -0.171502
  148  F  11  Z  -0.231968  -0.112581  -0.148475  -0.304864   0.138567
  149  F  11  X  -0.403762  -0.166958  -0.129745  -0.390875  -0.387885
  150  F  11  Y   0.071079   0.055151   0.082850   0.140540   0.109634
  151  F  11  Z   0.178177   0.076594   0.014809   0.125706   0.050417
  152  F  11 XX  -0.008507  -0.005444  -0.001154   0.004869   0.008213
  153  F  11 YY   0.004557  -0.001887   0.002757  -0.008398  -0.007444
  154  F  11 ZZ   0.003950   0.007330  -0.001603   0.003528  -0.000769
  155  F  11 XY   0.001131   0.004134   0.010620  -0.002083   0.004410
  156  F  11 XZ   0.008895  -0.000049   0.012655  -0.002707   0.010015
  157  F  11 YZ  -0.001601  -0.002860  -0.013667   0.004842  -0.003857
  158  F  11 XX   0.049692  -0.179282  -0.401458   0.446444   0.014072
  159  F  11 YY   0.014647   0.097587   0.249961  -0.264701  -0.084755
  160  F  11 ZZ  -0.064339   0.081695   0.151497  -0.181743   0.070683
  161  F  11 XY   0.051434  -0.153427   0.004339   0.189868   0.058933
  162  F  11 XZ   0.100722   0.172885   0.018290   0.196504  -0.258049
  163  F  11 YZ  -0.062704  -0.046085  -0.128913  -0.044395  -0.015623

                    131        132        133        134        135
                    2.0876     2.1099     2.1701     2.1991     2.2169
                     A          A          A          A          A   
    1  C   1  S   0.259053  -0.156457   0.277174  -0.376580   0.038103
    2  C   1  S   0.487899  -0.299398   0.439572  -0.651152   0.050244
    3  C   1  S  -6.150650   1.471973  -5.667211   8.342420  -2.007762
    4  C   1  S  -1.407669   1.651274  -1.205872   0.880494  -0.341266
    5  C   1  X  -0.033133   0.452582  -0.171122  -0.271661  -0.003374
    6  C   1  Y   0.318232  -0.053065  -0.145102  -0.035030  -0.156005
    7  C   1  Z   0.238951   0.034405  -0.104353  -0.012158  -0.204893
    8  C   1  X  -1.140824  -5.232727   0.006483  -2.428888  -0.941404
    9  C   1  Y  -7.300577  -1.898568   1.279860   2.046848  -4.900410
   10  C   1  Z  -2.593101  -0.794797   0.046652  -3.046933   2.982290
   11  C   1  X  -0.043120  -0.394349  -0.204786  -0.170412  -0.103070
   12  C   1  Y  -0.649323  -0.190426  -0.523293   0.178350  -0.548948
   13  C   1  Z  -0.145561  -0.486055   0.097728  -0.261736   0.041970
   14  C   1 XX  -0.094710   0.051475   0.648777  -0.123706  -0.109597
   15  C   1 YY   0.189375  -0.050260   0.049625  -0.164897  -0.002232
   16  C   1 ZZ  -0.094665  -0.001215  -0.698402   0.288603   0.111828
   17  C   1 XY  -0.081065   0.189937  -0.022361   0.096687  -0.060621
   18  C   1 XZ  -0.046255  -0.231611  -0.159640   0.264526   0.062670
   19  C   1 YZ  -0.157095  -0.037611   0.675681  -0.277890  -0.023217
   20  C   1 XX  -0.364300  -1.099544  -0.220553   0.084101   0.631574
   21  C   1 YY  -0.151770   0.895814   0.074062  -0.009509   0.375502
   22  C   1 ZZ   0.516070   0.203730   0.146492  -0.074592  -1.007075
   23  C   1 XY   1.098562   0.472874   0.209138   0.014709   0.098267
   24  C   1 XZ   1.043881   0.184494  -0.153828   0.064468  -0.294892
   25  C   1 YZ   1.043759   0.297837  -1.296280  -0.880101   1.116807
   26  C   2  S  -0.148899   0.133606   0.199860   0.102025   0.357869
   27  C   2  S  -0.304571   0.316298   0.454098   0.168902   0.687155
   28  C   2  S   1.809004   0.459881  -3.070509  -0.311485  -6.629162
   29  C   2  S  -1.713319  -4.263572  -7.556062   2.085140  -0.159930
   30  C   2  X   0.012456  -0.231618  -0.007830  -0.151182   0.152128
   31  C   2  Y  -0.147846  -0.070772  -0.153431   0.028392   0.073703
   32  C   2  Z  -0.195598  -0.224262   0.285993  -0.041454   0.054754
   33  C   2  X   1.114128  -1.008212   0.294845  -0.373906   4.682343
   34  C   2  Y   1.134965  -0.407642  -1.842023   3.179683   0.631078
   35  C   2  Z   4.180815  -1.020282   0.740581  -6.505437   7.757348
   36  C   2  X   0.735514   0.023509   1.294297  -0.045119   0.341519
   37  C   2  Y   0.043227   0.805974   1.654833  -0.070896  -0.472173
   38  C   2  Z   0.692030   0.313152   1.204166  -0.786205   0.896873
   39  C   2 XX  -0.282482   0.359259  -0.227899  -0.092524  -0.011729
   40  C   2 YY   0.116635  -0.420696  -0.079593   0.149925  -0.138065
   41  C   2 ZZ   0.165847   0.061437   0.307492  -0.057400   0.149794
   42  C   2 XY  -0.172763   0.331721  -0.014432  -0.221643   0.081681
   43  C   2 XZ  -0.088563   0.480463   0.408446   0.369478   0.054003
   44  C   2 YZ   0.439070  -0.178157  -0.167225   0.246504  -0.089620
   45  C   2 XX   0.230219  -0.019707  -0.382680  -0.357242  -0.959851
   46  C   2 YY  -1.803735  -0.366733   0.851226   0.216717  -0.625994
   47  C   2 ZZ   1.573516   0.386440  -0.468546   0.140525   1.585844
   48  C   2 XY  -0.386691  -0.793898   0.178299  -0.308131  -1.167078
   49  C   2 XZ   0.634074   0.356249  -1.114572   0.253105  -0.808261
   50  C   2 YZ  -1.483175  -0.005384   0.405581   1.485591  -2.015859
   51  C   3  S  -0.024135  -0.062699  -0.200498  -0.020689  -0.546362
   52  C   3  S  -0.057744  -0.186226  -0.390055  -0.040800  -1.052441
   53  C   3  S   1.901036  -0.890739   4.494770   0.112378  11.202105
   54  C   3  S   2.694864   2.260789   7.014082  -0.630307   1.732631
   55  C   3  X   0.022629  -0.234846  -0.078412   0.007510   0.143628
   56  C   3  Y  -0.146684  -0.125033   0.027487   0.030364  -0.172401
   57  C   3  Z   0.238191  -0.153830  -0.262806  -0.107617   0.019457
   58  C   3  X   0.731296  -0.952952  -1.046029  -6.023831   0.885797
   59  C   3  Y   0.059415  -0.612759   0.880714  -2.219188   1.182414
   60  C   3  Z  -0.066242  -2.058626   1.149285  -0.289937   6.392946
   61  C   3  X   0.452267   0.245818   0.675756  -0.664967   0.172701
   62  C   3  Y   0.334512  -0.108091  -0.147933  -0.496889   0.427737
   63  C   3  Z   0.520780   0.102039   1.657233  -0.269174   0.176818
   64  C   3 XX  -0.238974   0.470304   0.060390   0.372210  -0.179690
   65  C   3 YY  -0.100863  -0.024611  -0.143873  -0.515233   0.184212
   66  C   3 ZZ   0.339836  -0.445693   0.083483   0.143023  -0.004522
   67  C   3 XY   0.002116  -0.286971   0.100376   0.204706   0.047264
   68  C   3 XZ  -0.062898  -0.164325  -0.094507  -0.229396   0.405385
   69  C   3 YZ   0.183594  -0.312804   0.007255  -0.116087   0.024321
   70  C   3 XX   0.141330  -0.057352  -0.214327  -1.032813  -1.441229
   71  C   3 YY  -0.231555  -0.257103   0.612763   0.258297  -0.745932
   72  C   3 ZZ   0.090226   0.314455  -0.398435   0.774516   2.187161
   73  C   3 XY  -0.515685   0.157681   0.800194   0.598718  -0.364914
   74  C   3 XZ   0.149002  -0.113930   0.300880  -0.170509   1.916254
   75  C   3 YZ  -0.527703   0.234877   0.700744  -0.617099  -0.466234
   76  H   4  S   0.761685  -0.130378   0.205533  -0.183369   0.097137
   77  H   4  S   7.136755  -1.599177   1.607123  -1.426250  -1.006255
   78  H   4  S   0.470447  -0.017822   0.208487   0.096800   0.032539
   79  H   4  X   0.069481   0.398964   0.494419   0.007087   0.175540
   80  H   4  Y   0.272173   0.149914  -0.424530   0.317584   0.036449
   81  H   4  Z   0.293281  -0.153760   0.359331   0.077248  -0.236734
   82  H   4  X   0.626814  -0.621079  -0.011719   0.008351   0.051350
   83  H   4  Y  -0.997946   0.098747   0.382742   0.091227  -0.107867
   84  H   4  Z  -2.134087   0.480944  -0.460353   0.752567   0.533591
   85  H   5  S   0.452426   0.598089   0.063191  -0.026894   0.056216
   86  H   5  S   1.744900   7.057836   3.175154   2.065126  -0.239309
   87  H   5  S  -0.066115   0.309317   0.173918   0.001967  -0.140509
   88  H   5  X  -0.050989   0.406088  -0.455403  -0.105703  -0.026442
   89  H   5  Y   0.413063  -0.037601  -0.192504  -0.034690   0.339752
   90  H   5  Z   0.300650   0.227299   0.449080  -0.395356  -0.024393
   91  H   5  X  -0.441552  -2.101150  -0.634984  -0.692968  -0.149781
   92  H   5  Y  -0.402493   0.240413   0.402684   0.040420   0.009464
   93  H   5  Z  -0.502322  -0.887572  -0.730992   0.076269   0.341204
   94  H   6  S  -0.775567  -0.645660   0.128352  -0.178697  -0.246841
   95  H   6  S  -7.176104  -6.221349   2.904937  -1.854085  -5.689144
   96  H   6  S  -0.343025  -0.237459  -0.268941   0.124382  -0.446224
   97  H   6  X  -0.018462   0.315415   0.243709   0.249074  -0.225856
   98  H   6  Y   0.270166   0.025663  -0.191824  -0.339468   0.021099
   99  H   6  Z   0.288743  -0.139833   0.382887  -0.332181  -0.304867
  100  H   6  X  -0.669336  -0.952523   0.231208  -0.214756  -0.647133
  101  H   6  Y  -2.130787  -1.748795   0.941863  -0.697101  -1.551975
  102  H   6  Z   0.358112  -0.068622  -0.946124   0.003924   0.311425
  103  H   7  S   0.033317   0.219614   0.204609  -0.123257   0.236104
  104  H   7  S   1.020504   1.926667   0.974131  -2.748583   1.454584
  105  H   7  S  -0.177495  -0.067768  -0.830892   0.035675   0.234823
  106  H   7  X   0.030706  -0.244484   0.022957   0.399091  -0.113349
  107  H   7  Y  -0.088496   0.130016  -0.033095  -0.191851   0.280075
  108  H   7  Z  -0.480942   0.053295  -0.160849  -0.196483  -0.107349
  109  H   7  X  -0.507596   0.276355   0.058894   0.473754  -0.167598
  110  H   7  Y   0.168299  -0.454823  -0.281442   0.643268  -0.439828
  111  H   7  Z   0.182253  -0.090433   0.019016   0.132281   0.106425
  112  H   8  S   0.276736   0.039158  -0.205456  -0.477361  -0.158210
  113  H   8  S   1.009587  -0.386363  -3.668758  -7.513092   0.410775
  114  H   8  S   0.338683  -0.138920  -0.004758  -0.823270   0.086692
  115  H   8  X  -0.056867   0.250207   0.225540   0.703595  -0.174325
  116  H   8  Y  -0.065325  -0.296374  -0.095172  -0.451266   0.137572
  117  H   8  Z   0.053019   0.106854   0.047723  -0.127076  -0.013691
  118  H   8  X   0.212983  -0.029214  -0.798688  -1.782493  -0.459071
  119  H   8  Y   0.022861  -0.017793  -0.433059  -1.314207  -0.139622
  120  H   8  Z  -0.038159   0.603565   0.201312   0.005059  -0.058957
  121  H   9  S  -0.092204  -0.009920   0.057001   0.027049  -0.026970
  122  H   9  S  -2.015831  -1.269174   0.137864  -0.320223  -2.203940
  123  H   9  S   0.069762  -0.051826   0.601905   0.050457  -0.113380
  124  H   9  X  -0.060668   0.112085   0.047510   0.149161   0.630587
  125  H   9  Y   0.086878  -0.038441   0.115015   0.243532  -0.273496
  126  H   9  Z   0.354027   0.027734  -0.156643   0.218946   0.128587
  127  H   9  X  -0.026813  -0.098484  -0.001903   0.120254   0.093655
  128  H   9  Y   0.206089   0.638279  -0.206463   0.084290   0.735335
  129  H   9  Z  -0.689101  -0.102806  -0.186823   0.184773  -0.479469
  130  H  10  S   0.353161  -0.479625  -0.020302   0.335801   0.218424
  131  H  10  S   1.125511   0.321074   0.419720   2.059734   3.637367
  132  H  10  S  -0.111277   0.064306   0.241728  -0.146706   0.041908
  133  H  10  X   0.104801  -0.002652  -0.059411   0.098061   0.277913
  134  H  10  Y  -0.051372  -0.177183   0.105426   0.021180   0.684592
  135  H  10  Z   0.520545   0.313688  -0.143404  -0.157228   0.027974
  136  H  10  X  -0.042434  -0.127983  -0.857847  -2.289311  -2.342779
  137  H  10  Y   0.121338   0.070759   0.400065   0.906992   1.617739
  138  H  10  Z   0.338990   0.554437   0.096929   0.927895   0.804347
  139  F  11  S  -0.040050   0.044297   0.002458  -0.071414  -0.081366
  140  F  11  S  -0.099712   0.105804   0.015882  -0.161431  -0.190624
  141  F  11  S   0.116044  -0.172284   0.139260   0.538214   0.507922
  142  F  11  S  -0.762019   0.566421   0.694406   0.265428  -0.252049
  143  F  11  X  -0.073630   0.124941  -0.040719  -0.128933  -0.089232
  144  F  11  Y  -0.009122  -0.027126   0.069207   0.083743   0.267408
  145  F  11  Z   0.056222   0.146999   0.048112   0.115462   0.079870
  146  F  11  X   0.265783  -0.341717   0.019158   0.412272   0.403966
  147  F  11  Y   0.010336   0.074551  -0.182128  -0.266918  -0.794949
  148  F  11  Z  -0.194159  -0.387072  -0.068944  -0.321734  -0.251062
  149  F  11  X   0.190849  -0.126684  -0.149229  -0.077326   0.070375
  150  F  11  Y  -0.076592   0.102060   0.008554  -0.116267  -0.209257
  151  F  11  Z  -0.161460   0.015083   0.148288  -0.131460  -0.168156
  152  F  11 XX   0.001588   0.003076  -0.002054  -0.004531   0.004205
  153  F  11 YY   0.001369  -0.001821   0.009582   0.000987  -0.001885
  154  F  11 ZZ  -0.002956  -0.001254  -0.007528   0.003544  -0.002319
  155  F  11 XY   0.000380  -0.001114   0.002227   0.000602   0.001542
  156  F  11 XZ  -0.008666  -0.001469   0.005969   0.011852   0.001307
  157  F  11 YZ   0.001687   0.002617  -0.001442   0.003029  -0.001478
  158  F  11 XX  -0.138601   0.316527  -0.005026  -0.313302  -0.154064
  159  F  11 YY   0.099339  -0.096963   0.041366   0.149993   0.036062
  160  F  11 ZZ   0.039262  -0.219564  -0.036340   0.163309   0.118002
  161  F  11 XY  -0.004718  -0.164736   0.123555   0.149716   0.592742
  162  F  11 XZ   0.290202   0.221024  -0.016872   0.150849   0.148317
  163  F  11 YZ  -0.007947  -0.009734  -0.036045  -0.021264  -0.100819

                    136        137        138        139        140
                    2.2386     2.2784     2.3765     2.4075     2.4467
                     A          A          A          A          A   
    1  C   1  S  -0.603741  -0.589594   0.128076   0.175696   0.079611
    2  C   1  S  -1.043129  -1.026570   0.203065   0.326910   0.131672
    3  C   1  S  15.270363  13.409620  -5.325757   1.473635  -1.386786
    4  C   1  S   1.082472   1.396931  -0.716845  -1.254744   0.036972
    5  C   1  X  -0.006403  -0.242387  -0.170612  -0.236547   0.056228
    6  C   1  Y  -0.137028  -0.185824  -0.014354  -0.128565   0.193528
    7  C   1  Z   0.012559  -0.311270  -0.009946  -0.116648   0.129337
    8  C   1  X  -0.133389  -1.902658  -0.851180   0.182751   1.362003
    9  C   1  Y   8.553831   2.596580  -0.782478  -0.282577  -0.496484
   10  C   1  Z -11.450527  -9.151421   2.674404   1.765441   1.727076
   11  C   1  X  -0.015270  -0.322982  -0.019916   0.048929   0.302746
   12  C   1  Y   1.009100  -0.059175  -0.183560  -0.072748   0.034636
   13  C   1  Z  -0.620065  -0.831715   0.095117   0.405743   0.096941
   14  C   1 XX  -0.115327  -0.124884   0.032073   0.162081   0.485663
   15  C   1 YY  -0.125650  -0.165131  -0.287905   0.178036  -0.617168
   16  C   1 ZZ   0.240977   0.290015   0.255832  -0.340117   0.131505
   17  C   1 XY  -0.134669   0.034474   0.546273  -0.260039   0.516092
   18  C   1 XZ  -0.060098  -0.013931  -0.063470  -0.555197  -0.516813
   19  C   1 YZ  -0.200894  -0.295228   0.195943  -0.340465  -0.235195
   20  C   1 XX  -1.414201  -0.158261   0.323857   0.811025   0.450891
   21  C   1 YY  -0.331627  -1.199342  -0.430385   0.761675  -0.000138
   22  C   1 ZZ   1.745827   1.357603   0.106528  -1.572699  -0.450753
   23  C   1 XY  -0.675100  -1.037861   0.217092  -0.152436   1.146233
   24  C   1 XZ  -0.435324   0.006141   0.200924  -1.430798  -0.809341
   25  C   1 YZ  -2.590314  -1.062787   0.688901  -0.453153  -0.127814
   26  C   2  S  -0.125285   0.118493   0.316584  -0.277152  -0.055783
   27  C   2  S  -0.252849   0.207590   0.643030  -0.507319  -0.177182
   28  C   2  S   4.682797  -3.919800  -6.192277   5.449052  -1.413433
   29  C   2  S   4.726993  -5.298298   1.361464   3.729773   1.918751
   30  C   2  X  -0.152077   0.296223   0.022474  -0.236897   0.021872
   31  C   2  Y  -0.045634   0.408021   0.325535  -0.263748  -0.253097
   32  C   2  Z  -0.240908   0.261712  -0.001091  -0.094088   0.042491
   33  C   2  X  -9.937717  -4.492208   4.111853  -1.738186   0.745119
   34  C   2  Y   3.072667   4.790320   1.601665  -2.262179  -0.954297
   35  C   2  Z -21.656339 -13.970841   6.194508  -1.674245   5.590605
   36  C   2  X  -0.967629   0.561864  -0.120945  -0.270573  -0.205601
   37  C   2  Y  -0.583451   0.932740  -0.228714  -0.892568  -0.049811
   38  C   2  Z  -2.428941   0.721825   0.140862   0.132507  -0.225183
   39  C   2 XX   0.142421   0.052763  -0.218023  -0.131992  -0.222886
   40  C   2 YY  -0.310996  -0.008197   0.033587  -0.065249  -0.063390
   41  C   2 ZZ   0.168574  -0.044566   0.184436   0.197241   0.286275
   42  C   2 XY   0.314970   0.065860   0.184363  -0.026095  -0.001228
   43  C   2 XZ   0.305429  -0.002868  -0.194782   0.144124  -0.668624
   44  C   2 YZ   0.495081   0.440481   0.064432  -0.154061   0.028772
   45  C   2 XX   2.393702   1.107877  -0.936303  -0.058995  -0.259361
   46  C   2 YY  -0.865146  -3.067717  -0.278273   1.720225   1.861365
   47  C   2 ZZ  -1.528556   1.959840   1.214576  -1.661230  -1.602003
   48  C   2 XY   2.349086  -0.160892  -1.807523   1.361781   1.474386
   49  C   2 XZ   2.126880   3.162269  -0.799309  -0.328139  -1.742447
   50  C   2 YZ   4.824530   3.705824  -2.337504   1.114266  -0.104852
   51  C   3  S   1.012819  -0.128621  -0.181043  -0.031293   0.096977
   52  C   3  S   1.876373  -0.255688  -0.384086  -0.099654   0.239175
   53  C   3  S -23.586578 -12.329306   6.599353  -3.589500   4.479587
   54  C   3  S  -5.881056   3.255827  -1.214850  -1.448834  -1.523490
   55  C   3  X  -0.179606  -0.360249  -0.162554  -0.181091   0.257320
   56  C   3  Y   0.054071  -0.111948  -0.226820  -0.028331   0.163206
   57  C   3  Z  -0.563792  -0.137865   0.253150  -0.150723   0.142320
   58  C   3  X  -8.686039  -1.813500   3.496163  -0.453232   2.322601
   59  C   3  Y  -1.661438  -2.319035   0.204441   1.634650   3.553455
   60  C   3  Z -11.463661  -4.817934   5.792028  -2.182652   1.475018
   61  C   3  X  -1.025706   0.583686   0.024389  -0.240795  -0.129559
   62  C   3  Y  -0.385871   0.256764   0.253147   0.319323  -0.096841
   63  C   3  Z  -1.333167   0.220016  -0.103792  -0.753389  -0.056454
   64  C   3 XX  -0.264728  -0.300082  -0.061825  -0.142570  -0.318138
   65  C   3 YY   0.363800  -0.112767   0.070755   0.209850   0.125347
   66  C   3 ZZ  -0.099071   0.412849  -0.008930  -0.067280   0.192791
   67  C   3 XY  -0.458704  -0.034108  -0.160039  -0.027654   0.057053
   68  C   3 XZ  -0.245240   0.223164  -0.253245  -0.622048   0.335413
   69  C   3 YZ   0.001851   0.081741   0.142586  -0.310059   0.297753
   70  C   3 XX   0.105573  -0.451949  -0.125353  -0.035946   0.318036
   71  C   3 YY   1.315603  -0.384825  -1.493146   0.135117   0.575040
   72  C   3 ZZ  -1.421176   0.836774   1.618498  -0.099170  -0.893076
   73  C   3 XY   0.554845  -1.881062  -0.773650   0.195674   0.832504
   74  C   3 XZ  -1.409389  -0.418354   1.210882   0.080536   0.537267
   75  C   3 YZ  -0.729412  -1.527658  -0.319361  -0.083856   1.099230
   76  H   4  S  -0.242919  -0.124292   0.000885  -0.226053   0.134087
   77  H   4  S   2.361134   1.763325  -2.704427  -0.035661  -0.572424
   78  H   4  S   0.109927   0.231634   0.071981  -0.170386  -0.002944
   79  H   4  X   0.039035   0.357391  -0.135580   0.535696   0.144651
   80  H   4  Y  -0.007823   0.161290   0.199268   0.278674   0.653296
   81  H   4  Z   0.141339  -0.059930  -0.205323   0.182806  -0.139052
   82  H   4  X   0.485379   0.587353  -0.348571   0.453939  -0.216182
   83  H   4  Y  -0.160812  -0.183367   0.389713  -0.103492   0.160830
   84  H   4  Z  -0.412023  -0.080560   0.818256   0.081810   0.153465
   85  H   5  S  -0.177341  -0.070049   0.259549  -0.050370  -0.294891
   86  H   5  S   2.239312   0.238343   0.532505   0.932148   0.606816
   87  H   5  S   0.324263   0.271112   0.011560  -0.192406  -0.212664
   88  H   5  X   0.077498  -0.202126  -0.292184  -0.243235  -0.073755
   89  H   5  Y   0.010106   0.176170  -0.496196   0.456750  -0.525320
   90  H   5  Z   0.324162   0.191203  -0.054177   0.330125   0.330929
   91  H   5  X  -0.513797   0.104979  -0.224606  -0.609967  -0.562295
   92  H   5  Y  -0.039606   0.185438   0.026421   0.122474  -0.234891
   93  H   5  Z   0.113017   0.598728  -0.135923   0.226498  -0.095037
   94  H   6  S   0.223802  -0.195015  -0.016634   0.201164   0.283216
   95  H   6  S   4.016111   0.625631   1.414876  -3.552423  -1.813406
   96  H   6  S   0.733968  -0.215557  -0.147699   0.142065   0.116051
   97  H   6  X  -0.158157  -0.110218   0.444235  -0.218383   0.656598
   98  H   6  Y  -0.287900  -0.447815  -0.220102  -0.029857   0.037083
   99  H   6  Z   0.248620  -0.021743   0.158204  -0.760525  -0.353858
  100  H   6  X   0.202406   0.244216   0.286583  -0.453493  -0.123946
  101  H   6  Y   0.864011  -0.213782   0.598321  -1.260953  -0.643122
  102  H   6  Z   0.053714   0.470975   0.159387  -0.224157  -0.138041
  103  H   7  S  -0.108660  -0.015763  -0.131450  -0.130969   0.071714
  104  H   7  S  -2.156738   3.564081   0.732393  -1.927504  -3.391199
  105  H   7  S   0.343756  -0.540385   0.061334   0.489814  -0.031112
  106  H   7  X  -0.258848   0.216767   0.236254  -0.071395  -0.153764
  107  H   7  Y  -0.042239   0.468934   0.483200  -0.439195  -0.488199
  108  H   7  Z   0.071869  -0.240463   0.025711   0.142195  -0.055366
  109  H   7  X  -0.094626  -0.573674   0.183974   0.063243   0.161620
  110  H   7  Y   0.628752  -0.840832  -0.403767   0.305136   0.797618
  111  H   7  Z  -0.032299  -0.885838   0.458868  -0.228558  -0.120770
  112  H   8  S   0.428258   0.277807   0.240380  -0.020404   0.119474
  113  H   8  S  -3.137509   3.962911   2.972306   1.355668   1.704026
  114  H   8  S  -0.449886   0.226386   0.221425   0.053735   0.039863
  115  H   8  X  -0.005289  -0.427129  -0.346325  -0.239656   0.000596
  116  H   8  Y   0.037803  -0.003533  -0.135588   0.053460   0.205028
  117  H   8  Z   0.348338   0.095454  -0.286622  -0.559286   0.296656
  118  H   8  X  -0.055344   0.910951   0.186459   0.449517   0.507430
  119  H   8  Y  -0.255677   0.699269   0.291648   0.137175   0.353631
  120  H   8  Z   0.436130  -0.247814  -0.378051   0.531063   0.302091
  121  H   9  S  -0.070581  -0.299484   0.229241  -0.333098  -0.023787
  122  H   9  S  -1.848292  -3.458622   0.775538  -0.514784   0.609219
  123  H   9  S  -0.345903   0.038164  -0.133510  -0.487466   0.073817
  124  H   9  X   0.227741   0.157121  -0.128258  -0.295645   0.186181
  125  H   9  Y   0.185532   0.293473  -0.168088  -0.094096  -0.035236
  126  H   9  Z  -0.344713   0.269216   0.284782  -0.082661  -0.185261
  127  H   9  X   0.089611   0.505005   0.186560   0.293004  -0.150211
  128  H   9  Y   0.212388   0.722427   0.201143   0.010880  -0.319049
  129  H   9  Z   0.023695  -0.555457   0.303017   0.222424  -0.275763
  130  H  10  S   0.810789  -0.791966   0.521722   0.065001  -0.147540
  131  H  10  S  -0.000715  -1.851909  -0.907450  -0.763787   1.623896
  132  H  10  S  -0.426880  -0.041150   0.125185  -0.022439  -0.028477
  133  H  10  X   0.269816  -0.412721   0.893204   0.302923  -0.360772
  134  H  10  Y   0.043072  -0.315490  -0.148461  -0.099527   0.227203
  135  H  10  Z  -0.082723  -0.221282  -0.067022  -0.311760   0.050244
  136  H  10  X  -1.540663   2.411643  -1.700608  -0.419607   0.403357
  137  H  10  Y   0.416410  -0.864521   0.170006  -0.050845   0.306707
  138  H  10  Z   0.142679  -0.646039  -0.000268  -0.019767   0.084863
  139  F  11  S  -0.163419   0.167333  -0.245462  -0.112716   0.103630
  140  F  11  S  -0.384732   0.393202  -0.603205  -0.272707   0.252476
  141  F  11  S   0.790018  -0.865526   0.895283   0.372553  -0.365243
  142  F  11  S   0.098353  -0.062561   0.849011   0.310719  -0.770349
  143  F  11  X  -0.106295   0.086334   0.172621   0.096268  -0.110211
  144  F  11  Y   0.079213  -0.100319  -0.015384  -0.050346   0.033008
  145  F  11  Z  -0.008492  -0.114562  -0.015418  -0.012379   0.001006
  146  F  11  X   0.529147  -0.534356   0.314783   0.026095  -0.001411
  147  F  11  Y  -0.233365   0.344883  -0.036951   0.102349  -0.099959
  148  F  11  Z  -0.002820   0.346878  -0.037636   0.040228   0.021022
  149  F  11  X  -0.007975   0.002936  -0.257114  -0.113766   0.201757
  150  F  11  Y  -0.148437   0.127537  -0.009441  -0.006514  -0.078490
  151  F  11  Z  -0.143739   0.135899  -0.020765   0.003065  -0.094223
  152  F  11 XX   0.006949  -0.009636   0.044614   0.018862  -0.020377
  153  F  11 YY  -0.005898  -0.003966  -0.017848  -0.001233   0.014470
  154  F  11 ZZ  -0.001051   0.013602  -0.026766  -0.017629   0.005907
  155  F  11 XY   0.007747   0.003178  -0.005224  -0.005329   0.001218
  156  F  11 XZ   0.004308  -0.001479  -0.009740   0.004357   0.000341
  157  F  11 YZ  -0.003932  -0.000640  -0.007087  -0.000253   0.010158
  158  F  11 XX  -0.530516   0.438845  -0.470119  -0.150183   0.169132
  159  F  11 YY   0.225784  -0.283368   0.266028   0.106706  -0.080830
  160  F  11 ZZ   0.304732  -0.155477   0.204091   0.043477  -0.088302
  161  F  11 XY   0.253179  -0.325563   0.094202  -0.025490   0.054817
  162  F  11 XZ   0.128013  -0.312435   0.132785  -0.058585  -0.061991
  163  F  11 YZ  -0.053162   0.058176  -0.053273   0.015767   0.050698

                    141        142        143        144        145
                    2.5340     2.5627     2.5839     2.6837     2.7031
                     A          A          A          A          A   
    1  C   1  S   0.956882   0.122889   0.611131  -0.005002  -0.097526
    2  C   1  S   1.741194   0.233811   1.417948  -0.042685  -0.153312
    3  C   1  S -18.196665   2.142853   1.570718  -3.614505   2.801695
    4  C   1  S  -0.817683   2.136611   7.019247   2.105371   0.179304
    5  C   1  X  -0.006777  -0.219687  -0.034031  -0.420072  -0.997207
    6  C   1  Y  -0.124276  -0.265533  -0.437753   0.399438   0.197688
    7  C   1  Z  -0.174092  -0.257048   0.560868   0.552709   0.023706
    8  C   1  X   1.790318  -0.036671   0.034071  -2.089416  -2.677623
    9  C   1  Y  -9.399901  -0.619587  -2.619053  -1.755644   2.680008
   10  C   1  Z  13.146493  -1.519082   3.393490   3.250941  -1.847411
   11  C   1  X   0.150143  -0.309184  -0.047061  -0.570276  -0.846391
   12  C   1  Y  -0.871047  -0.059649   0.400941   0.516064   0.086872
   13  C   1  Z   0.670453  -0.710623  -0.908554  -0.103935  -0.029427
   14  C   1 XX  -0.011504  -0.213836   0.331431  -0.311730  -1.240151
   15  C   1 YY   0.224292   0.203456   0.190859  -0.060872   0.592608
   16  C   1 ZZ  -0.212788   0.010380  -0.522289   0.372602   0.647543
   17  C   1 XY   0.295929   0.430235   0.226562  -0.324583   0.142504
   18  C   1 XZ   0.073872   0.144801  -0.099142  -0.762448  -0.792578
   19  C   1 YZ  -0.067044   0.030352   0.752569   0.615309   0.335825
   20  C   1 XX   1.688860  -0.004941   0.276075   0.131587   0.146147
   21  C   1 YY   0.020026  -0.730725  -0.161210   0.147403  -0.015743
   22  C   1 ZZ  -1.708886   0.735666  -0.114864  -0.278990  -0.130404
   23  C   1 XY   0.864998   0.201087  -0.000006   0.084412  -0.065738
   24  C   1 XZ   0.125059  -0.034225  -0.068347   0.834788   0.386998
   25  C   1 YZ   3.163201   0.240108   0.374543   0.517127  -0.907408
   26  C   2  S  -0.418267  -0.012996   0.011179   0.087655   0.235255
   27  C   2  S  -0.717955   0.131306   0.059207   0.296843   0.329891
   28  C   2  S   4.217245  15.283381   1.838141   6.544982 -10.292205
   29  C   2  S   0.752962  -6.311109  -4.330640  -2.087252  -2.735819
   30  C   2  X   0.202273  -0.257420   0.040191   0.109898  -0.070227
   31  C   2  Y   0.389254  -0.043007  -0.172949   0.343543  -0.194966
   32  C   2  Z   0.035062  -0.499664   0.284245  -0.195086   0.094313
   33  C   2  X   6.113136  -8.084510   0.212654   0.544347   1.924268
   34  C   2  Y  -7.922165  -4.595012  -1.500759   0.674978   0.199152
   35  C   2  Z  22.636026  -9.206575   1.985329   0.161587   1.899205
   36  C   2  X   0.338685   0.521120  -0.278213  -0.065552   0.432921
   37  C   2  Y  -0.395632   1.192195   0.770398   0.430442   1.089537
   38  C   2  Z   1.210045  -0.020159  -1.165136  -0.335503   0.281188
   39  C   2 XX  -0.106286  -0.097858  -0.112517  -0.409666   0.570077
   40  C   2 YY   0.264366  -0.222331  -0.067573   0.436724  -0.391472
   41  C   2 ZZ  -0.158080   0.320189   0.180089  -0.027058  -0.178604
   42  C   2 XY   0.290694   0.274152  -0.070551   0.233395   0.070826
   43  C   2 XZ   0.004249   0.463883  -0.012466  -0.084322  -0.125392
   44  C   2 YZ   0.093128   0.540889  -0.274637  -0.449926   0.153001
   45  C   2 XX  -1.531849   1.129270  -0.119786  -0.891572   0.319869
   46  C   2 YY   1.326230  -1.688400  -0.276090  -1.481948   1.886375
   47  C   2 ZZ   0.205619   0.559130   0.395877   2.373520  -2.206244
   48  C   2 XY  -0.176887   0.916847  -0.151714  -2.183684   0.787679
   49  C   2 XZ  -1.938130   1.717784   0.002451   1.090830  -0.849476
   50  C   2 YZ  -3.961766   2.959317   0.103121  -2.576976   1.406048
   51  C   3  S  -0.301776   0.289535  -0.017864   0.585481  -0.510532
   52  C   3  S  -0.419800   0.426205  -0.048247   1.152030  -0.961724
   53  C   3  S  16.624222 -16.105224  -0.703153  -2.456556   6.981655
   54  C   3  S   1.536446   4.195484  -0.817326   0.132297   1.590817
   55  C   3  X  -0.138188   0.156977  -0.015584   0.073426   0.163744
   56  C   3  Y   0.412683   0.013087  -0.094897   0.099023   0.200473
   57  C   3  Z  -0.635192  -0.142643   0.090316  -0.083394  -0.011526
   58  C   3  X   7.037681  -8.201189   0.393585  -2.670430   2.837973
   59  C   3  Y   5.395892  -1.407472   0.261993  -2.524005   2.249964
   60  C   3  Z   5.712308 -11.278410   0.509325  -1.170667   2.988040
   61  C   3  X   0.662629  -0.048440  -0.196596  -0.016163   0.012913
   62  C   3  Y   0.804133  -0.275652  -0.072715   0.274658  -0.360431
   63  C   3  Z   0.027145   0.274766  -0.171233  -0.569516   0.598776
   64  C   3 XX  -0.333837  -0.290377   0.041080  -0.257070   0.128330
   65  C   3 YY   0.040137   0.739284  -0.062847  -0.049649   0.047327
   66  C   3 ZZ   0.293700  -0.448907   0.021767   0.306719  -0.175658
   67  C   3 XY   0.174350  -0.143905  -0.001578  -0.223466   0.077403
   68  C   3 XZ   0.273468  -0.998717   0.072319  -0.162442   0.318812
   69  C   3 YZ  -0.383273  -0.365503   0.113923  -0.652786   0.302034
   70  C   3 XX   1.630474  -0.555725  -0.212487  -1.076984   1.213148
   71  C   3 YY  -0.621975   2.407138   0.165559  -0.583637  -0.008558
   72  C   3 ZZ  -1.008500  -1.851413   0.046927   1.660622  -1.204590
   73  C   3 XY   1.291580   1.011659  -0.155062  -1.491650   1.440045
   74  C   3 XZ   1.773963  -2.323864  -0.014469  -0.434892   0.675094
   75  C   3 YZ   2.792464  -1.315460  -0.223527  -1.762803   1.926711
   76  H   4  S   0.619437   0.369608  -0.808463  -1.166789  -0.973410
   77  H   4  S  -2.551429   0.696834  -2.722491  -1.245914  -0.186671
   78  H   4  S  -0.057864   0.275017   0.012194  -0.551169  -0.437991
   79  H   4  X   0.017267  -0.013773  -0.468799  -0.378263  -0.373094
   80  H   4  Y   0.128316   0.057025   0.457923   0.355507   0.308636
   81  H   4  Z  -0.390168  -0.371396   0.698978   0.736605   0.578061
   82  H   4  X  -0.450682  -0.005148  -0.167840  -0.132619   0.520660
   83  H   4  Y   0.347572   0.282731   0.459567  -0.028516  -0.033880
   84  H   4  Z   0.217582  -0.343495   0.050526   0.075461   0.368103
   85  H   5  S   0.243564   0.283397  -0.721678   0.729297   1.547280
   86  H   5  S  -3.739996   0.447338  -2.095268   0.046070   2.306928
   87  H   5  S  -0.344173   0.301487  -0.110149   0.459861   0.740034
   88  H   5  X  -0.006675  -0.213288   0.836648  -0.457669  -1.130478
   89  H   5  Y   0.075491  -0.040523  -0.138517   0.062234   0.116646
   90  H   5  Z  -0.291815  -0.209427   0.212727  -0.061231  -0.332977
   91  H   5  X   0.760500   0.028601   0.170700   0.283168  -0.249636
   92  H   5  Y  -0.107986   0.049291   0.267603  -0.161218   0.023295
   93  H   5  Z  -0.079489  -0.090269  -0.256978  -0.553258  -0.409204
   94  H   6  S  -0.410496  -0.542459  -1.015355   0.229356  -0.449447
   95  H   6  S  -3.258342   0.266192  -2.631545  -1.217754   0.604515
   96  H   6  S  -0.666991  -0.109473  -0.211037   0.294363  -0.127867
   97  H   6  X  -0.091442  -0.086752  -0.420092   0.123858  -0.165032
   98  H   6  Y  -0.130781  -0.517673  -1.045962   0.357707  -0.296936
   99  H   6  Z  -0.273315   0.138519  -0.080979  -0.028536   0.022918
  100  H   6  X  -0.006692   0.269428  -0.162898   0.145591   0.615108
  101  H   6  Y  -0.327313   0.148917  -0.161361  -0.417592  -0.147510
  102  H   6  Z   0.112136   0.131516  -0.293903  -0.235312  -0.219218
  103  H   7  S  -0.502446  -0.044966   0.129026  -0.646983   0.424521
  104  H   7  S   1.420199   5.496789   1.869021   2.637236  -1.994192
  105  H   7  S   0.114410  -0.346907  -0.095188  -0.118336  -0.483376
  106  H   7  X   0.047609   0.032293  -0.032193   0.505971  -0.463498
  107  H   7  Y   0.558092   0.329208  -0.050891   0.689731  -0.401178
  108  H   7  Z  -0.373722  -0.356400  -0.000820   0.389787  -0.166870
  109  H   7  X  -0.315114  -0.639632  -0.240880   0.145947   0.326637
  110  H   7  Y  -0.573023  -1.316946  -0.432086  -0.655543   0.271734
  111  H   7  Z   0.179766  -0.379588  -0.353906   0.362667  -0.296603
  112  H   8  S   0.026535  -0.170381  -0.000173   0.110907   0.107106
  113  H   8  S   2.155287  -3.756402   1.200536   1.433653  -2.344930
  114  H   8  S   1.098174  -0.448420  -0.080291   0.095680  -0.309817
  115  H   8  X   0.024965   0.134530  -0.075266  -0.195882   0.313844
  116  H   8  Y  -0.113019   0.621137  -0.007247  -0.173903   0.272330
  117  H   8  Z   0.305182  -0.485493  -0.004175  -0.382470   0.383802
  118  H   8  X   0.777391   0.078673   0.192099   0.092904  -0.247101
  119  H   8  Y  -0.213681   0.040913   0.341212   0.260052  -0.858668
  120  H   8  Z   1.319307   0.332451  -0.197931  -0.459575   0.531459
  121  H   9  S  -0.795157  -0.326983   0.090730  -0.749455   0.361189
  122  H   9  S   1.452932  -3.716200   0.403208  -3.527539   3.710154
  123  H   9  S  -0.548446   0.054679  -0.220861  -0.449256   0.286450
  124  H   9  X  -0.180178  -0.351087   0.064726   0.139247  -0.054061
  125  H   9  Y   0.658796  -0.566769  -0.085982   0.387297  -0.129029
  126  H   9  Z  -1.124212  -0.073956   0.150723  -0.303835  -0.083211
  127  H   9  X  -0.362432  -0.091451   0.050470   0.186239  -0.185232
  128  H   9  Y  -0.468000   0.108557  -0.179289   0.705223  -0.640878
  129  H   9  Z  -0.145911  -0.659167   0.093796  -0.326425   0.423563
  130  H  10  S   0.031700   0.010328  -0.081722  -0.171526  -0.228018
  131  H  10  S   0.400184   0.696404  -0.001620   2.017654  -0.818970
  132  H  10  S  -0.001519  -0.024646   0.071578   0.066311   0.325110
  133  H  10  X   0.246629  -0.675164  -0.023916  -0.302460   0.150191
  134  H  10  Y  -0.119775   0.099182   0.032909   0.265179  -0.122920
  135  H  10  Z   0.006105   0.070980  -0.054796   0.272364  -0.079950
  136  H  10  X  -0.588794   0.800067   0.125527  -0.146913  -0.363288
  137  H  10  Y   0.181685  -0.122052   0.006213   0.549206  -0.219807
  138  H  10  Z   0.352772   0.035453  -0.129933   0.814146   0.005382
  139  F  11  S  -0.059491   0.104921  -0.008466   0.088988  -0.035743
  140  F  11  S  -0.142029   0.269137  -0.017801   0.215118  -0.087321
  141  F  11  S   0.255233  -0.332054   0.016491  -0.289985   0.105481
  142  F  11  S   0.031209  -0.380578  -0.031065  -0.085868   0.951943
  143  F  11  X   0.019722  -0.131029   0.007980  -0.061913   0.071833
  144  F  11  Y  -0.009516   0.018298   0.006574   0.064423  -0.041651
  145  F  11  Z   0.026705   0.033944  -0.010262   0.086789  -0.019894
  146  F  11  X   0.116778  -0.177333  -0.044231  -0.103135  -0.102689
  147  F  11  Y   0.021284   0.014302  -0.018205  -0.188549   0.118927
  148  F  11  Z  -0.088139  -0.019937   0.042466  -0.276134   0.024821
  149  F  11  X  -0.012662   0.216485   0.010520   0.039856  -0.287879
  150  F  11  Y  -0.033497   0.047132   0.049170  -0.079158   0.090357
  151  F  11  Z  -0.086098   0.043195  -0.027913  -0.007661   0.158302
  152  F  11 XX   0.007522  -0.032754   0.001087  -0.017955   0.007416
  153  F  11 YY   0.001684   0.016534   0.002500  -0.001151  -0.009703
  154  F  11 ZZ  -0.009206   0.016220  -0.003587   0.019107   0.002287
  155  F  11 XY   0.003624   0.005214  -0.000254   0.006537  -0.004573
  156  F  11 XZ   0.007388   0.014953  -0.000322   0.006123  -0.009190
  157  F  11 YZ   0.004087  -0.001091  -0.000562   0.001008   0.001750
  158  F  11 XX  -0.124992   0.237456   0.043270   0.216952  -0.005319
  159  F  11 YY   0.096880  -0.120868  -0.012714  -0.125781  -0.000633
  160  F  11 ZZ   0.028112  -0.116589  -0.030556  -0.091171   0.005952
  161  F  11 XY  -0.007645  -0.047706   0.007941   0.094741  -0.062689
  162  F  11 XZ   0.080054  -0.026670  -0.038594   0.119120  -0.028754
  163  F  11 YZ   0.028447  -0.002943  -0.001551  -0.023503   0.012448

                    146        147        148        149        150
                    2.7381     2.7913     3.1483     3.2065     3.3440
                     A          A          A          A          A   
    1  C   1  S  -0.487468   0.344626  -0.403207  -0.025782   0.192120
    2  C   1  S  -0.736490   0.658967  -0.682821  -0.112639   0.314952
    3  C   1  S  12.272226  -0.670236   5.530847  -0.212687  -2.735403
    4  C   1  S   2.118632  -0.532174   2.004050  -1.461787  -1.571856
    5  C   1  X   0.260946   0.234232   0.056854   0.078752  -0.033129
    6  C   1  Y   0.263366   0.768257  -0.004463  -0.151602   0.014238
    7  C   1  Z  -0.092922   0.319474  -0.000114   0.195495   0.078090
    8  C   1  X  -1.244735   1.344907  -0.833952   0.292865   0.298641
    9  C   1  Y   6.430915   1.665617   2.308667  -0.952830  -2.551807
   10  C   1  Z -10.154661   3.983416  -4.849895   0.955516   3.470009
   11  C   1  X   0.025189   0.255706  -0.246077  -0.024501   0.270335
   12  C   1  Y   0.568982   0.707089  -0.237698  -0.176987  -0.333531
   13  C   1  Z  -1.043151   0.834053  -1.091995   0.495356   0.660067
   14  C   1 XX   0.177505   0.444462  -0.045233   0.179562   0.047990
   15  C   1 YY  -0.203378  -1.234114  -0.251626  -0.122989  -0.031976
   16  C   1 ZZ   0.025874   0.789652   0.296859  -0.056573  -0.016014
   17  C   1 XY  -0.316595  -0.968124   0.013997   0.021654  -0.061109
   18  C   1 XZ  -0.063327  -0.103403   0.395910   0.204864  -0.129908
   19  C   1 YZ  -0.524699   0.401557   0.080833   0.256893   0.179166
   20  C   1 XX  -1.217197   0.445827  -0.793403   0.059964   0.625598
   21  C   1 YY   0.083330   0.431913   0.586017  -0.032371  -0.081991
   22  C   1 ZZ   1.133866  -0.877740   0.207386  -0.027593  -0.543606
   23  C   1 XY  -0.332152   0.211192   0.469767   0.020835  -0.069737
   24  C   1 XZ   0.324809  -0.375647   0.198017  -0.229705   0.026039
   25  C   1 YZ  -1.917089   0.243041  -1.058208   0.285815   0.708103
   26  C   2  S   1.231072  -0.272542   1.227285  -0.526992  -0.556561
   27  C   2  S   2.257365  -0.455093   2.097255  -0.944692  -0.961330
   28  C   2  S -21.090257   5.774047 -28.225795   8.886821  12.367076
   29  C   2  S  -2.763134   3.300615  -6.751420   1.849538   2.104919
   30  C   2  X   0.143459  -0.099125  -0.271204   0.000151   0.033880
   31  C   2  Y   0.385161  -0.082923  -0.477525  -0.030680   0.093146
   32  C   2  Z   0.005082   0.017112  -0.187783   0.024768   0.073199
   33  C   2  X   4.379782  -0.935110   7.889534  -3.465576  -3.387626
   34  C   2  Y  10.527328  -3.098817   6.385373  -3.469485  -3.898284
   35  C   2  Z  -4.286261   0.562859   7.117768  -2.567149  -1.135043
   36  C   2  X   0.622488  -0.483719   1.168101  -0.259920  -0.357087
   37  C   2  Y   1.808330  -0.697781   1.698459  -1.187704  -1.293209
   38  C   2  Z  -0.659840  -0.452032   0.765018   0.628293   0.709184
   39  C   2 XX   0.182575   0.051254   0.332485  -0.308041  -0.148137
   40  C   2 YY   0.785935  -0.485265  -0.833731  -0.449774   0.011329
   41  C   2 ZZ  -0.968509   0.434012   0.501246   0.757815   0.136808
   42  C   2 XY   0.445349   0.194981  -0.948817  -0.378971   0.195649
   43  C   2 XZ  -0.376357   0.660355  -0.139673   0.211941   0.253580
   44  C   2 YZ   0.499581   0.466135   0.000457  -0.509165  -0.211112
   45  C   2 XX   1.012869   0.148909   0.184208   0.519017  -0.143601
   46  C   2 YY   0.712911   0.815889   2.005600  -0.596675  -0.966233
   47  C   2 ZZ  -1.725780  -0.964798  -2.189809   0.077658   1.109834
   48  C   2 XY  -0.367394   0.877500  -0.492713   0.592167   0.090270
   49  C   2 XZ  -0.961000  -0.238985  -2.920484   0.956586   1.341193
   50  C   2 YZ   1.766136   1.370426  -0.788948   1.241281   0.194743
   51  C   3  S  -0.638993  -0.421862  -0.515826  -0.470922  -0.149171
   52  C   3  S  -1.172931  -0.853556  -0.782220  -1.002721  -0.368655
   53  C   3  S   8.268183  -0.208692  20.438417  -8.643723  -7.435626
   54  C   3  S   0.779098  -1.477231   4.252378  -0.691295   0.276951
   55  C   3  X   0.584898  -0.344224  -0.157964   0.792752   0.141337
   56  C   3  Y   0.666829  -0.173510   0.122709   0.987952   0.197884
   57  C   3  Z   0.075591  -0.364387  -0.251221  -0.235431  -0.020938
   58  C   3  X   3.147602  -0.718330   8.956928  -1.324863  -1.437550
   59  C   3  Y  -0.177313   1.379375   3.617206   1.836924  -1.309211
   60  C   3  Z   6.719682  -1.411427  10.155816  -5.138681  -5.067095
   61  C   3  X  -0.193605  -0.416798   0.486707   0.475634   0.607895
   62  C   3  Y  -0.467843  -0.102675   0.134329   1.101902   0.537104
   63  C   3  Z   0.550183  -0.359630   0.849534  -0.664123  -0.363527
   64  C   3 XX  -0.032788  -0.080277  -0.702826  -0.487721   0.171440
   65  C   3 YY  -0.015237   0.299193   0.125069  -0.612521  -0.167745
   66  C   3 ZZ   0.048026  -0.218916   0.577757   1.100243  -0.003696
   67  C   3 XY   0.042986   0.138899  -0.005272  -1.467464  -0.482467
   68  C   3 XZ   0.063527  -0.287709  -0.015598   0.118264  -0.061805
   69  C   3 YZ   0.159053  -0.023531  -1.237394  -0.335721   0.279721
   70  C   3 XX   0.222843   0.061831   0.680618   0.247532  -0.265164
   71  C   3 YY  -0.767443   0.561593  -1.711240   0.743340   0.854907
   72  C   3 ZZ   0.544601  -0.623425   1.030621  -0.990872  -0.589743
   73  C   3 XY   0.853850   0.881330   0.376816   0.623334  -0.590609
   74  C   3 XZ   1.140737  -0.088356   2.676059  -1.004431  -0.930229
   75  C   3 YZ   0.541391   0.412454   1.966875  -0.325885  -0.578628
   76  H   4  S  -0.250418  -1.029742   0.000471   0.060552  -0.124036
   77  H   4  S   2.356808  -2.807228   1.782670  -0.108754  -0.567814
   78  H   4  S   0.444310  -0.692638   0.591015  -0.311096  -0.108206
   79  H   4  X   0.154857  -0.400018  -0.121609  -0.030201  -0.018873
   80  H   4  Y  -0.059467   0.474474  -0.082199  -0.009283   0.102111
   81  H   4  Z   0.399690   0.431991   0.063227  -0.119771   0.012536
   82  H   4  X   0.288494  -0.425269   0.149671  -0.012854   0.001369
   83  H   4  Y  -0.708096  -0.066786  -0.455272   0.128945   0.094607
   84  H   4  Z  -0.182430   0.610151   0.009272  -0.162605   0.005651
   85  H   5  S  -0.539192  -0.609153  -0.170313  -0.106491   0.046509
   86  H   5  S   2.060156  -1.256798   1.636902  -0.327908  -1.464049
   87  H   5  S   0.081449  -0.260039   0.053693  -0.056984  -0.419446
   88  H   5  X   0.412326   0.441856   0.181289   0.090099  -0.054453
   89  H   5  Y  -0.059155   0.063173  -0.162738  -0.006724   0.085501
   90  H   5  Z   0.486078  -0.110238  -0.008497  -0.076435  -0.088166
   91  H   5  X  -0.614893   0.122042  -0.388728   0.087980   0.398613
   92  H   5  Y  -0.127314  -0.448240  -0.119796   0.035121   0.010870
   93  H   5  Z   0.194650  -0.015259   0.173524   0.067996  -0.119333
   94  H   6  S   0.193760   1.552898  -0.224081   0.006549   0.121935
   95  H   6  S   1.736953   1.728140  -1.704317  -0.343778  -1.218575
   96  H   6  S   0.466874   0.752876  -0.302504  -0.149428  -0.272239
   97  H   6  X   0.011573   0.408303   0.074659   0.017954   0.011504
   98  H   6  Y   0.109614   0.898269  -0.038721   0.033511   0.065077
   99  H   6  Z  -0.085518   0.154164   0.222217   0.085829  -0.094133
  100  H   6  X   0.092298   0.138962  -0.030187  -0.066187  -0.100729
  101  H   6  Y   0.141486   0.438759  -0.522542  -0.064153  -0.304967
  102  H   6  Z   0.278694  -0.483588   0.092003  -0.077433  -0.062768
  103  H   7  S  -0.783514   0.095261   1.451191   0.462781  -0.182319
  104  H   7  S  -8.292938  -1.469410  -4.702930   1.639888   3.149033
  105  H   7  S  -1.279969   0.316935  -0.970423   0.584727   0.682233
  106  H   7  X   0.243330  -0.250426  -0.313212  -0.018424   0.053860
  107  H   7  Y   0.594930   0.029710  -0.949569  -0.233129   0.183272
  108  H   7  Z  -0.013495  -0.557593  -0.033742   0.166036  -0.009682
  109  H   7  X   1.021159   0.070991   0.544596  -0.315663  -0.280595
  110  H   7  Y   2.062569   0.421004   1.096399  -0.173870  -0.700973
  111  H   7  Z   0.096510  -0.438891   0.290333  -0.430143  -0.375586
  112  H   8  S   0.258271  -0.299396  -0.314259   2.723033   0.746028
  113  H   8  S  -1.270274  -1.590523   3.578691   1.421995   1.149898
  114  H   8  S  -0.439952  -0.347466   0.119685   1.127087   0.678129
  115  H   8  X   0.574414  -0.051946  -0.476266   1.107792   0.278610
  116  H   8  Y   0.596571   0.063523  -0.090139   1.246942   0.385879
  117  H   8  Z  -0.053384  -0.029501  -0.474780  -0.256088   0.100524
  118  H   8  X  -0.388392  -0.190407   0.744805   0.381675   0.128614
  119  H   8  Y  -0.509872  -0.184730   0.160706   0.169933   0.613571
  120  H   8  Z   0.072162   0.174153   0.824708   0.203048  -0.031396
  121  H   9  S   0.063094  -0.055365  -1.347722  -0.601528   0.318575
  122  H   9  S   4.339588  -0.012751   3.145473  -2.374957  -2.570166
  123  H   9  S   0.397394  -0.195700   0.174618  -0.882926  -0.444099
  124  H   9  X  -0.261867  -0.125326  -0.207310   0.170872   0.122239
  125  H   9  Y  -0.051556  -0.183067   0.583854   0.300655  -0.078021
  126  H   9  Z  -0.189370   0.003919  -0.931324  -0.021459   0.291423
  127  H   9  X   0.038447  -0.021302   0.287165  -0.596368  -0.163242
  128  H   9  Y  -0.659079  -0.050741  -0.162486  -0.111117   0.265826
  129  H   9  Z   1.122019  -0.018858   0.694754  -0.675599  -0.629217
  130  H  10  S   0.232466  -0.272705   0.469016  -0.433630   1.874666
  131  H  10  S  -0.079131  -0.511489   0.603373  -1.931785   4.112753
  132  H  10  S   0.074502   0.099403   0.221268  -0.077201   0.049691
  133  H  10  X   0.279417  -0.082718   0.551088  -0.326629   1.406721
  134  H  10  Y  -0.077218  -0.087092  -0.074885  -0.098902  -0.256335
  135  H  10  Z   0.154188  -0.183347   0.088292  -0.029930  -0.306324
  136  H  10  X  -0.667531  -0.314120   0.710336  -0.863677   3.788587
  137  H  10  Y  -0.271742   0.003589  -0.366271  -0.254598  -0.471178
  138  H  10  Z  -0.131373  -0.063737  -0.262617  -0.010984  -0.349720
  139  F  11  S   0.005312  -0.070013   0.240289  -0.253961   0.878978
  140  F  11  S  -0.001276  -0.147690   0.483081  -0.521484   1.778835
  141  F  11  S   0.041453   0.304528  -1.122568   1.189425  -4.214786
  142  F  11  S   0.131438   0.434008  -0.844673   1.311464  -4.801888
  143  F  11  X  -0.005241   0.042632  -0.044129   0.075993  -0.246838
  144  F  11  Y  -0.009719  -0.004564  -0.008454  -0.034115   0.015338
  145  F  11  Z   0.010599  -0.006420   0.007159  -0.010592   0.023300
  146  F  11  X   0.259939  -0.219367   0.721015  -0.655381   2.549315
  147  F  11  Y   0.016670   0.037630  -0.041350   0.194406  -0.255532
  148  F  11  Z  -0.087963   0.042214  -0.130407   0.114605  -0.307643
  149  F  11  X  -0.035086  -0.134257   0.219058  -0.390887   1.375314
  150  F  11  Y  -0.020432   0.019384  -0.004713   0.114810  -0.156918
  151  F  11  Z  -0.023673   0.101229  -0.031637   0.087820  -0.223558
  152  F  11 XX   0.013549  -0.004082   0.045892  -0.028816   0.139301
  153  F  11 YY  -0.014388  -0.002867  -0.027392   0.015553  -0.077411
  154  F  11 ZZ   0.000840   0.006949  -0.018499   0.013263  -0.061890
  155  F  11 XY  -0.002996   0.001789  -0.017781   0.001116  -0.034162
  156  F  11 XZ  -0.014064   0.000376  -0.025562   0.015110  -0.025825
  157  F  11 YZ  -0.006874  -0.004019  -0.001718  -0.013217   0.016428
  158  F  11 XX  -0.175029   0.085881  -0.328896   0.230142  -1.122831
  159  F  11 YY   0.081459  -0.046443   0.170084  -0.109875   0.558956
  160  F  11 ZZ   0.093571  -0.039438   0.158813  -0.120268   0.563874
  161  F  11 XY   0.017254  -0.054268   0.054408  -0.127128   0.199439
  162  F  11 XZ   0.109970  -0.085206   0.128280  -0.080299   0.229335
  163  F  11 YZ  -0.048880  -0.001415  -0.029851   0.007514  -0.009250

                    151        152        153        154        155
                    4.5195     4.5356     4.6247     4.6433     4.7328
                     A          A          A          A          A   
    1  C   1  S  -0.087713   0.007074  -0.038300   0.016630  -0.002622
    2  C   1  S  -0.152421   0.010688  -0.065427   0.029079  -0.006615
    3  C   1  S   2.093264  -0.257528   0.547374  -0.303264   0.806178
    4  C   1  S  -0.537915  -0.406770  -0.627320  -0.326159   0.262406
    5  C   1  X  -0.023264  -0.019676  -0.014437   0.011062   0.004082
    6  C   1  Y   0.029151   0.005429   0.006501   0.004625  -0.005872
    7  C   1  Z   0.007807   0.004919   0.001737   0.003650  -0.004651
    8  C   1  X   0.427893   0.423289   0.426146  -0.448023  -0.151948
    9  C   1  Y   0.559750  -0.576078   0.279055  -0.619129   0.567295
   10  C   1  Z  -1.491180   0.073303  -0.413482   0.239497  -0.610032
   11  C   1  X  -0.038764   0.031194   0.019638  -0.097481  -0.047700
   12  C   1  Y  -0.018214  -0.244855   0.069575  -0.093258   0.063667
   13  C   1  Z   0.036624   0.040525   0.286129   0.002143  -0.095641
   14  C   1 XX  -0.028588  -0.009984  -0.005716   0.000588   0.005529
   15  C   1 YY  -0.018533  -0.000781  -0.015759  -0.000988   0.012753
   16  C   1 ZZ   0.047120   0.010766   0.021475   0.000400  -0.018282
   17  C   1 XY  -0.030321   0.012188  -0.012698  -0.006550   0.006056
   18  C   1 XZ  -0.014647  -0.023244  -0.003721  -0.007473   0.008277
   19  C   1 YZ  -0.004943   0.004319  -0.009597   0.023011  -0.011826
   20  C   1 XX  -0.073128   0.143917   0.034168  -0.007704  -0.058403
   21  C   1 YY  -0.140802  -0.135758  -0.191465   0.070286  -0.088572
   22  C   1 ZZ   0.213930  -0.008159   0.157297  -0.062583   0.146975
   23  C   1 XY  -0.024578  -0.022146  -0.058697   0.070243  -0.007604
   24  C   1 XZ   0.157142  -0.015788  -0.178660   0.147685   0.107084
   25  C   1 YZ  -0.195280  -0.005602  -0.023433   0.108687  -0.147423
   26  C   2  S   0.032800  -0.050491   0.019223   0.035432  -0.019414
   27  C   2  S   0.060826  -0.085050   0.029607   0.065570  -0.029075
   28  C   2  S  -0.068209   1.625970  -1.197032   0.072934   2.034173
   29  C   2  S  -0.795185  -0.372646   1.318954   0.049157  -1.871770
   30  C   2  X   0.006813   0.053307   0.041922  -0.026334  -0.019357
   31  C   2  Y   0.009398  -0.034712  -0.009216   0.015116   0.014362
   32  C   2  Z   0.013623  -0.036465   0.007025   0.002222  -0.004749
   33  C   2  X  -1.005942  -0.893078  -0.079515   0.282743  -1.148232
   34  C   2  Y   0.398241  -0.117103   0.516199   0.120076  -0.525160
   35  C   2  Z  -2.368623   0.006236   0.000535   0.399951  -2.314357
   36  C   2  X   0.309467   0.088285  -0.065726   0.234537   0.274266
   37  C   2  Y   0.203113   0.051129  -0.271233  -0.181009   0.359866
   38  C   2  Z   0.197398   0.395230  -0.092889   0.124097   0.079934
   39  C   2 XX  -0.002230   0.021106   0.015845  -0.028903  -0.045335
   40  C   2 YY   0.035666  -0.006495   0.012427   0.032524   0.028363
   41  C   2 ZZ  -0.033436  -0.014611  -0.028273  -0.003621   0.016972
   42  C   2 XY  -0.014701  -0.006704  -0.032448   0.035709   0.054911
   43  C   2 XZ   0.027807  -0.023106  -0.038255   0.042829   0.033192
   44  C   2 YZ   0.030623   0.001508   0.029056  -0.029975   0.012504
   45  C   2 XX   0.398373  -0.090093   0.065818  -0.077991   0.145778
   46  C   2 YY  -0.611783  -0.020902  -0.186440  -0.251401  -0.196136
   47  C   2 ZZ   0.213410   0.110995   0.120622   0.329392   0.050358
   48  C   2 XY   0.209665   0.327009   0.188055  -0.204211   0.067352
   49  C   2 XZ   0.306812   0.419260   0.060653   0.056177   0.297455
   50  C   2 YZ   0.567780  -0.066280   0.005936  -0.232996   0.788015
   51  C   3  S   0.012791   0.055716   0.003382   0.017171   0.165390
   52  C   3  S   0.019369   0.102105   0.009347   0.028362   0.294090
   53  C   3  S  -1.816634  -0.957890  -0.139784   0.230384  -2.637470
   54  C   3  S   1.128122   1.114729  -0.656160   0.643313   1.931045
   55  C   3  X   0.000396   0.010108  -0.008157  -0.001997   0.059055
   56  C   3  Y   0.017209  -0.005352  -0.014648  -0.003722  -0.029587
   57  C   3  Z  -0.003772   0.003927  -0.009273   0.002063  -0.028967
   58  C   3  X  -0.925884  -0.621741   0.348309  -0.389135  -2.918369
   59  C   3  Y  -0.712051  -0.130077   0.249024  -0.007128   0.146170
   60  C   3  Z  -1.110882  -0.925363   0.336459  -0.020818  -1.508197
   61  C   3  X   0.064188   0.251780  -0.027706   0.076811   0.141527
   62  C   3  Y  -0.059911   0.100597  -0.057966   0.056372  -0.133294
   63  C   3  Z   0.261468   0.084729   0.040319   0.031587   0.314505
   64  C   3 XX  -0.014774   0.027872   0.002187   0.000366  -0.071664
   65  C   3 YY   0.004710   0.000165  -0.000904   0.009259   0.042832
   66  C   3 ZZ   0.010064  -0.028037  -0.001284  -0.009625   0.028832
   67  C   3 XY  -0.027070   0.005920   0.026783   0.002347   0.021461
   68  C   3 XZ  -0.005000   0.019060   0.030708  -0.013501  -0.017976
   69  C   3 YZ  -0.014797  -0.007874   0.025565  -0.012050  -0.008204
   70  C   3 XX  -0.057433  -0.000321  -0.067429  -0.356167  -0.276107
   71  C   3 YY   0.201102   0.088800   0.079493   0.089183   0.378620
   72  C   3 ZZ  -0.143669  -0.088479  -0.012065   0.266984  -0.102513
   73  C   3 XY  -0.086270   0.020667  -0.128727  -0.116853   0.603165
   74  C   3 XZ  -0.176211  -0.172976   0.351196   0.150932  -0.371048
   75  C   3 YZ  -0.152082  -0.036693  -0.018410  -0.093421  -0.333024
   76  H   4  S  -0.013793   0.034975  -0.020970  -0.007224   0.025227
   77  H   4  S   0.891372   0.669306  -0.105923   0.026422   0.105520
   78  H   4  S   0.021570   0.059665  -0.132994   0.045879  -0.010690
   79  H   4  X  -0.022157   0.002484  -0.001450  -0.001708   0.003654
   80  H   4  Y   0.006484   0.020734   0.005050   0.002246  -0.005452
   81  H   4  Z   0.025768  -0.012050   0.004914   0.013413  -0.008153
   82  H   4  X   0.085351   0.107120   0.037695  -0.035352  -0.031454
   83  H   4  Y  -0.113438   0.015661   0.048672  -0.025077   0.035006
   84  H   4  Z  -0.128557  -0.201738  -0.000830   0.035414  -0.013097
   85  H   5  S  -0.035088  -0.018414  -0.036641   0.032370  -0.007411
   86  H   5  S  -0.790938  -0.638274  -0.614703   0.402704   0.343484
   87  H   5  S   0.046675   0.005234  -0.085529   0.073042   0.091516
   88  H   5  X  -0.001842  -0.019424   0.002098  -0.001280  -0.003313
   89  H   5  Y   0.006109   0.012658  -0.003965   0.007901  -0.002958
   90  H   5  Z  -0.025859  -0.011684   0.013342  -0.007243  -0.008929
   91  H   5  X   0.353801   0.192497   0.185768  -0.117845  -0.054868
   92  H   5  Y  -0.089864   0.018294  -0.008571  -0.021341  -0.000888
   93  H   5  Z   0.177795   0.071695   0.243539  -0.111322  -0.118086
   94  H   6  S  -0.019127   0.017173   0.023338  -0.021572  -0.000228
   95  H   6  S   0.776335  -0.261828   0.755396  -1.010096   0.581587
   96  H   6  S   0.042762  -0.220169   0.069395  -0.111203   0.074991
   97  H   6  X  -0.009514  -0.007375  -0.015636   0.011109   0.000671
   98  H   6  Y   0.017183  -0.009213   0.006779   0.007129  -0.010183
   99  H   6  Z   0.016036  -0.010890   0.020073  -0.019764   0.004824
  100  H   6  X   0.120639  -0.040138   0.157380  -0.115584   0.076509
  101  H   6  Y   0.142680  -0.100187   0.158284  -0.288796   0.157814
  102  H   6  Z   0.055161   0.018831   0.055076   0.070831  -0.021464
  103  H   7  S   0.015244  -0.075641   0.017985   0.010214  -0.030172
  104  H   7  S   0.670862   0.083729  -0.168965   0.157164   0.550789
  105  H   7  S  -0.204004  -0.034437   0.092743   0.076998  -0.190867
  106  H   7  X  -0.004569   0.018982   0.001024   0.015986   0.010781
  107  H   7  Y   0.042280  -0.014910  -0.007412   0.043078   0.046232
  108  H   7  Z   0.008267  -0.027126  -0.007573   0.001763  -0.001518
  109  H   7  X  -0.241522  -0.022515  -0.089830  -0.046433  -0.008346
  110  H   7  Y  -0.130412  -0.086701   0.035698   0.023193  -0.111968
  111  H   7  Z  -0.040938  -0.041957   0.003356   0.023238  -0.126995
  112  H   8  S   0.028325  -0.006088  -0.025137  -0.029643  -0.038363
  113  H   8  S  -1.076861  -0.604972   0.921362   0.221634  -2.468949
  114  H   8  S  -0.060351   0.185162  -0.045757   0.031408  -0.088523
  115  H   8  X   0.008195   0.007575  -0.039671  -0.035270   0.084087
  116  H   8  Y   0.029176  -0.017585   0.000321   0.001078  -0.015651
  117  H   8  Z   0.006350   0.017647   0.004638   0.013242  -0.011034
  118  H   8  X  -0.249545  -0.103163   0.145443  -0.027733  -0.279592
  119  H   8  Y  -0.161080  -0.093726   0.280559   0.180203  -0.351137
  120  H   8  Z   0.032313   0.032574   0.003155   0.047835  -0.036687
  121  H   9  S  -0.018704   0.018554   0.081634   0.013085  -0.040326
  122  H   9  S  -0.118325  -0.661253  -0.545916  -1.110547  -1.043362
  123  H   9  S   0.157514  -0.065645   0.133865   0.016531   0.215231
  124  H   9  X   0.005502   0.009706   0.030498   0.034222   0.023525
  125  H   9  Y   0.006350   0.012028  -0.023677   0.009785  -0.026734
  126  H   9  Z   0.008489   0.000500  -0.013401  -0.001499  -0.010206
  127  H   9  X   0.043243  -0.088649   0.017589  -0.025067  -0.107586
  128  H   9  Y  -0.052771   0.081617   0.142901   0.259568   0.046140
  129  H   9  Z  -0.013829  -0.129652  -0.241577  -0.234861  -0.161076
  130  H  10  S  -0.003009  -0.031047  -0.008297  -0.043850   0.104448
  131  H  10  S  -0.154486   0.853612   0.298494   0.695794   0.565038
  132  H  10  S   0.021611  -0.015679   0.022201  -0.210441  -0.322335
  133  H  10  X  -0.007522   0.006391  -0.014150   0.190892  -0.344904
  134  H  10  Y  -0.004260   0.004851   0.053774   0.063855   0.107757
  135  H  10  Z  -0.000704   0.014712  -0.058398   0.010662   0.057881
  136  H  10  X   0.107856   0.011329  -0.067912  -0.362330  -1.644448
  137  H  10  Y  -0.160155   0.325231   0.461714   0.780102   0.625562
  138  H  10  Z   0.107019   0.460534  -0.436894   0.515534   0.435962
  139  F  11  S   0.009569   0.028344  -0.000508   0.025165  -0.132717
  140  F  11  S   0.019494   0.056761  -0.001061   0.046356  -0.253681
  141  F  11  S  -0.057298  -0.164693  -0.003517  -0.101490   0.896950
  142  F  11  S   0.045695  -0.135968  -0.103301   0.069324   0.645239
  143  F  11  X   0.001511  -0.001495  -0.002046   0.013761  -0.044392
  144  F  11  Y  -0.006745   0.010061   0.027763   0.046615   0.036720
  145  F  11  Z   0.005975   0.012952  -0.033287   0.027512   0.024365
  146  F  11  X  -0.005783   0.034091   0.006031   0.093661  -0.206925
  147  F  11  Y   0.032727  -0.058878  -0.121139  -0.216673  -0.104869
  148  F  11  Z  -0.032278  -0.080181   0.136681  -0.137908  -0.043361
  149  F  11  X  -0.023036   0.028959   0.036633  -0.131007   0.068774
  150  F  11  Y   0.004948  -0.016488  -0.185118  -0.281337  -0.159415
  151  F  11  Z   0.029260  -0.030602   0.244511  -0.195065  -0.093210
  152  F  11 XX   0.020107   0.015635   0.131309  -0.746454   0.944699
  153  F  11 YY   0.932239   0.285387   0.193623   0.413322  -0.502210
  154  F  11 ZZ  -0.952347  -0.301022  -0.324931   0.333132  -0.442489
  155  F  11 XY   0.206993  -0.066586  -0.646207  -0.822352  -0.573201
  156  F  11 XZ  -0.171642  -0.257477   0.960688  -0.449757  -0.488516
  157  F  11 YZ   0.362519  -1.099838  -0.089528   0.157684   0.149431
  158  F  11 XX  -0.006533  -0.007275  -0.080315   0.416022  -0.538013
  159  F  11 YY  -0.508738  -0.159676  -0.131467  -0.234885   0.287182
  160  F  11 ZZ   0.515271   0.166951   0.211782  -0.181137   0.250831
  161  F  11 XY  -0.120443   0.046301   0.440305   0.601333   0.413749
  162  F  11 XZ   0.099156   0.160733  -0.648586   0.338723   0.329891
  163  F  11 YZ  -0.198168   0.611749   0.057460  -0.116079  -0.108790

 WARNING! THIS VERSION OF FIREFLY IS PROBABLY OUTDATED!
 PLEASE CHECK FIREFLY HOMEPAGE FOR INFORMATION ON UPDATES!

 ...... END OF DFT CALCULATION ......

                         TIMING STATISTICS ON RANK 0:
 CPU        TIME:   STEP =      5.41 ,  TOTAL =        5.7 SECONDS (    0.1 MIN)
 WALL CLOCK TIME:   STEP =     52.08 ,  TOTAL =       53.8 SECONDS (    0.9 MIN)
 CPU UTILIZATION:   STEP =     10.39%,  TOTAL =      10.67%


                       ----------------------------------
                       properties for the R-B3LYP density
                       ----------------------------------

          -----------------
          ENERGY COMPONENTS
          -----------------

         WAVEFUNCTION NORMALIZATION =       1.0000000000

                ONE ELECTRON ENERGY =    -531.3539811952
                TWO ELECTRON ENERGY =     194.9205432763
           NUCLEAR REPULSION ENERGY =     118.0881279536
                                      ------------------
                       TOTAL ENERGY =    -218.3453099653

 ELECTRON-ELECTRON POTENTIAL ENERGY =     194.9205432763
  NUCLEUS-ELECTRON POTENTIAL ENERGY =    -748.4455476225
   NUCLEUS-NUCLEUS POTENTIAL ENERGY =     118.0881279536
                                      ------------------
             TOTAL POTENTIAL ENERGY =    -435.4368763925
               TOTAL KINETIC ENERGY =     217.0915664272
                 VIRIAL RATIO (V/T) =       2.0057751831

          ---------------------------------------
          MULLIKEN AND LOWDIN POPULATION ANALYSES
          ---------------------------------------

     MULLIKEN ATOMIC POPULATION IN EACH MOLECULAR ORBITAL

                      1          2          3          4          5

                  2.000000   2.000000   2.000000   2.000000   2.000000

    1             0.000085   0.012575   0.003713   1.972013  -0.009583
    2            -0.000513   1.963395   0.017343   0.012043   0.021220
    3             0.000376   0.018057   1.968984   0.004712  -0.001450
    4             0.000004   0.000799   0.000002   0.003300  -0.001266
    5            -0.000001   0.001028   0.000067   0.003776   0.001115
    6            -0.000014   0.000071   0.000153   0.003194   0.002073
    7            -0.000007   0.001155   0.000520   0.000446  -0.001213
    8             0.000025   0.000961   0.004173   0.000412  -0.003680
    9             0.000007   0.001137   0.004332   0.000057   0.003894
   10             0.003222   0.000733   0.000598   0.000046  -0.025000
   11             1.996816   0.000088   0.000116   0.000002   2.013890

                      6          7          8          9         10

                  2.000000   2.000000   2.000000   2.000000   2.000000

    1             0.303116   0.543316   0.119780   0.249932   0.068848
    2             0.690319  -0.092872   0.470393   0.485922   0.189432
    3             0.383642   0.397063  -0.075230   0.154968   0.188923
    4             0.019328   0.253541   0.060746   0.098196   0.017180
    5             0.025871   0.225829   0.061332   0.074410   0.041101
    6             0.103750   0.188846   0.095651   0.032575   0.047636
    7             0.229221  -0.013596   0.591884   0.218655   0.021116
    8             0.214769   0.340910   0.608735  -0.022306   0.189977
    9             0.036093   0.154188   0.068277   0.678257   0.036594
   10            -0.020879  -0.003598  -0.004000   0.009701   0.342041
   11             0.014769   0.006372   0.002430   0.019692   0.857152

                     11         12         13         14         15

                  2.000000   2.000000   2.000000   2.000000   2.000000

    1             0.244540   0.555420   0.469888   0.445837   0.011187
    2             0.396967   0.155710   0.164430   0.240851   0.014412
    3             0.327561   0.023360   0.234837   0.068314   0.009389
    4             0.012121   0.622090   0.113778  -0.017797   0.009584
    5             0.023419   0.391628   0.306431   0.007397   0.006380
    6             0.217025   0.014273   0.452127   0.249627   0.000372
    7             0.063864  -0.001801   0.071999   0.486043   0.000373
    8             0.352119   0.001092  -0.021762   0.199318   0.001282
    9            -0.006918   0.003677   0.193717   0.300485   0.000285
   10             0.076855   0.034375   0.005131   0.002451   0.030127
   11             0.292447   0.200177   0.009422   0.017475   1.916610

                     16         17

                  2.000000   2.000000

    1             0.003034   0.047561
    2             0.000197   0.610268
    3             0.003052   0.912462
    4             0.001828   0.071229
    5             0.002060   0.047274
    6            -0.000162  -0.000449
    7             0.000017   0.020944
    8             0.000174   0.014284
    9             0.001149   0.025775
   10             0.031380   0.012203
   11             1.957272   0.238448

               ----- POPULATIONS IN EACH AO -----
                             MULLIKEN      LOWDIN
              1  C   1  S     2.02149     1.81391
              2  C   1  S     0.66073     0.42364
              3  C   1  S     0.09362     0.17968
              4  C   1  S     0.13832     0.04949
              5  C   1  X     0.74623     0.61596
              6  C   1  Y     0.73134     0.60728
              7  C   1  Z     0.71755     0.59456
              8  C   1  X    -0.05603     0.29479
              9  C   1  Y    -0.12304     0.28802
             10  C   1  Z     0.23181     0.26393
             11  C   1  X    -0.01539     0.02887
             12  C   1  Y    -0.02408     0.02868
             13  C   1  Z    -0.01079     0.03429
             14  C   1 XX     0.00691     0.11011
             15  C   1 YY     0.00746     0.11263
             16  C   1 ZZ     0.00741     0.11176
             17  C   1 XY     0.00683     0.01711
             18  C   1 XZ     0.00873     0.02094
             19  C   1 YZ     0.01152     0.02705
             20  C   1 XX    -0.01852     0.03751
             21  C   1 YY    -0.02499     0.06587
             22  C   1 ZZ    -0.01493     0.06987
             23  C   1 XY    -0.02232     0.03841
             24  C   1 XZ    -0.01012     0.06631
             25  C   1 YZ    -0.02846     0.06709
             26  C   2  S     2.02225     1.81521
             27  C   2  S     0.67997     0.44679
             28  C   2  S     0.43655     0.17848
             29  C   2  S    -0.09840     0.04836
             30  C   2  X     0.61678     0.51425
             31  C   2  Y     0.71031     0.58360
             32  C   2  Z     0.71398     0.58897
             33  C   2  X     0.11385     0.24091
             34  C   2  Y     0.02889     0.27123
             35  C   2  Z    -0.09667     0.22906
             36  C   2  X     0.01655     0.03533
             37  C   2  Y     0.03659     0.03573
             38  C   2  Z     0.03862     0.04744
             39  C   2 XX     0.00658     0.08800
             40  C   2 YY     0.01051     0.12756
             41  C   2 ZZ     0.01506     0.13943
             42  C   2 XY     0.00985     0.02182
             43  C   2 XZ     0.01344     0.02970
             44  C   2 YZ     0.01783     0.03600
             45  C   2 XX     0.00714     0.04904
             46  C   2 YY    -0.02111     0.08409
             47  C   2 ZZ    -0.00822     0.14106
             48  C   2 XY     0.03128     0.08834
             49  C   2 XZ     0.02572     0.13475
             50  C   2 YZ     0.01217     0.12760
             51  C   3  S     2.02271     1.79840
             52  C   3  S     0.65910     0.44988
             53  C   3  S     0.40819     0.18573
             54  C   3  S    -0.39652     0.04703
             55  C   3  X     0.68313     0.56646
             56  C   3  Y     0.73571     0.61041
             57  C   3  Z     0.73844     0.61091
             58  C   3  X     0.06619     0.26695
             59  C   3  Y    -0.09498     0.27317
             60  C   3  Z    -0.08149     0.26933
             61  C   3  X     0.01950     0.03467
             62  C   3  Y    -0.05119     0.03028
             63  C   3  Z     0.00197     0.03582
             64  C   3 XX     0.00622     0.10607
             65  C   3 YY     0.00370     0.10761
             66  C   3 ZZ     0.01016     0.12934
             67  C   3 XY     0.00974     0.02790
             68  C   3 XZ     0.00653     0.01987
             69  C   3 YZ     0.01024     0.02939
             70  C   3 XX    -0.00643     0.05162
             71  C   3 YY    -0.00825     0.03212
             72  C   3 ZZ    -0.01753     0.08077
             73  C   3 XY    -0.03897     0.06709
             74  C   3 XZ    -0.01357     0.05551
             75  C   3 YZ    -0.05360     0.07170
             76  H   4  S     0.78736     0.52496
             77  H   4  S     0.47759     0.15205
             78  H   4  S     0.01431     0.02007
             79  H   4  X     0.00908     0.01994
             80  H   4  Y     0.00877     0.01890
             81  H   4  Z     0.01227     0.02722
             82  H   4  X    -0.01412     0.06886
             83  H   4  Y    -0.01075     0.06686
             84  H   4  Z    -0.01984     0.06898
             85  H   5  S     0.78332     0.52741
             86  H   5  S     0.43757     0.14992
             87  H   5  S     0.00868     0.02042
             88  H   5  X     0.01690     0.03550
             89  H   5  Y     0.00662     0.01536
             90  H   5  Z     0.00631     0.01544
             91  H   5  X    -0.01599     0.08774
             92  H   5  Y    -0.01063     0.06117
             93  H   5  Z    -0.01367     0.05737
             94  H   6  S     0.79034     0.52739
             95  H   6  S     0.57894     0.15250
             96  H   6  S     0.03969     0.02123
             97  H   6  X     0.00821     0.01783
             98  H   6  Y     0.01520     0.03221
             99  H   6  Z     0.00582     0.01345
            100  H   6  X    -0.00622     0.06629
            101  H   6  Y    -0.02239     0.07945
            102  H   6  Z    -0.00284     0.05439
            103  H   7  S     0.79595     0.52402
            104  H   7  S     0.88437     0.15611
            105  H   7  S     0.03958     0.02105
            106  H   7  X     0.00688     0.01621
            107  H   7  Y     0.01403     0.03528
            108  H   7  Z     0.00392     0.01284
            109  H   7  X    -0.00845     0.05525
            110  H   7  Y    -0.00765     0.06616
            111  H   7  Z    -0.03899     0.04074
            112  H   8  S     0.86156     0.54849
            113  H   8  S     1.04580     0.14937
            114  H   8  S     0.02544     0.02096
            115  H   8  X     0.01188     0.03603
            116  H   8  Y     0.01366     0.04039
            117  H   8  Z     0.00724     0.02594
            118  H   8  X    -0.00861     0.07039
            119  H   8  Y    -0.03636     0.08938
            120  H   8  Z    -0.04014     0.06963
            121  H   9  S     0.78191     0.51498
            122  H   9  S     0.77098     0.16435
            123  H   9  S    -0.00990     0.02067
            124  H   9  X     0.00508     0.01347
            125  H   9  Y     0.01003     0.02299
            126  H   9  Z     0.01233     0.02744
            127  H   9  X    -0.01589     0.05314
            128  H   9  Y    -0.03114     0.06336
            129  H   9  Z    -0.02240     0.06258
            130  H  10  S     0.54228     0.35245
            131  H  10  S    -0.11823     0.10571
            132  H  10  S    -0.00270     0.02100
            133  H  10  X     0.05062     0.10348
            134  H  10  Y     0.01297     0.02743
            135  H  10  Z     0.01281     0.02652
            136  H  10  X    -0.03387     0.13941
            137  H  10  Y     0.01968     0.09091
            138  H  10  Z     0.01181     0.08511
            139  F  11  S     2.00740     1.87827
            140  F  11  S     0.89939     0.66542
            141  F  11  S     1.01768     0.42989
            142  F  11  S     0.14571     0.08382
            143  F  11  X     0.96204     0.88774
            144  F  11  Y     1.17491     1.12874
            145  F  11  Z     1.17143     1.12528
            146  F  11  X     0.52895     0.58706
            147  F  11  Y     0.70011     0.67557
            148  F  11  Z     0.70030     0.67276
            149  F  11  X     0.05631     0.09590
            150  F  11  Y     0.08946     0.09863
            151  F  11  Z     0.08875     0.09722
            152  F  11 XX     0.00109     0.19351
            153  F  11 YY     0.00028     0.19107
            154  F  11 ZZ     0.00027     0.19094
            155  F  11 XY     0.00026     0.00024
            156  F  11 XZ     0.00027     0.00025
            157  F  11 YZ     0.00001     0.00001
            158  F  11 XX    -0.00175     0.07481
            159  F  11 YY    -0.00045     0.05794
            160  F  11 ZZ    -0.00041     0.05838
            161  F  11 XY     0.00056     0.00071
            162  F  11 XZ     0.00061     0.00094
            163  F  11 YZ     0.00000     0.00019

          ----- MULLIKEN ATOMIC OVERLAP POPULATIONS -----
          (OFF-DIAGONAL ELEMENTS NEED TO BE MULTIPLIED BY 2)

             1           2           3           4           5

    1    4.4446639
    2    0.4047217   5.1383243
    3   -0.3504519   0.1275096   5.9036601
    4    0.1303324   0.0625577   0.1393902   1.6678642
    5    0.1780959   0.2152952  -0.0428798  -0.2262488   1.4313850
    6    0.4626894  -0.2211929  -0.2256842  -0.3694957  -0.2650529
    7   -0.1061385  -0.3376212  -0.3503390  -0.1301841  -0.0658975
    8   -0.1416956  -0.0335819  -0.7752856  -0.0273338   0.0058761
    9    0.0512341  -0.0057492   0.1843263   0.0179989  -0.0046411
   10   -0.0185314   0.0105623   0.0580997   0.0040945  -0.0045880
   11   -0.0136574  -0.0213100  -0.0493248  -0.0043129  -0.0022281

             6           7           8           9          10

    6    1.9955909
    7    0.1008729   2.6224173
    8   -0.0765012   0.2152159   3.7205753
    9    0.0092521  -0.2609944  -0.9836136   2.4699848
   10   -0.0104950  -0.0160680  -0.0442120   0.0194849   0.3414399
   11    0.0067645   0.0183569   0.0210401   0.0037230   0.1555976

            11

   11    9.4285314

          TOTAL MULLIKEN AND LOWDIN ATOMIC POPULATIONS
       ATOM         MULL.POP.    CHARGE          LOW.POP.     CHARGE
    1 C             5.041263    0.958737         5.967777    0.032223
    2 C             5.339515    0.660485         6.102750   -0.102750
    3 C             4.619021    1.380979         5.958019    0.041981
    4 H             1.264663   -0.264663         0.967840    0.032160
    5 H             1.219116   -0.219116         0.970322    0.029678
    6 H             1.406748   -0.406748         0.964734    0.035266
    7 H             1.689620   -0.689620         0.927675    0.072325
    8 H             1.880484   -0.880484         1.050574   -0.050574
    9 H             1.501006   -0.501006         0.942992    0.057008
   10 H             0.495385    0.504615         0.952011    0.047989
   11 F             9.543180   -0.543180         9.195306   -0.195306

          -------------------------------
          BOND ORDER AND VALENCE ANALYSIS     BOND ORDER THRESHOLD=0.050
          -------------------------------

                   BOND                       BOND                       BOND
  ATOM PAIR DIST  ORDER      ATOM PAIR DIST  ORDER      ATOM PAIR DIST  ORDER
    1   2  1.500  1.138        1   3  2.533 -0.056        1   4  1.064  0.801
    1   5  1.069  0.814        1   6  1.075  0.900        2   3  1.370  1.648
    2   4  2.117  0.091        2   5  2.134  0.101        2   6  2.158  0.087
    2   7  1.074  0.474        2   8  2.030  0.087        2   9  2.132  0.079
    2  11  2.770  0.088        3   6  2.694 -0.131        3   7  2.109 -0.077
    3   8  0.947  0.106        3   9  1.087  0.674        3  10  1.808  0.073
    4   5  1.713 -0.075        4   6  1.731 -0.098        5   6  1.729 -0.059
    7   9  2.438 -0.056        8   9  1.743 -0.413       10  11  1.105  0.610

                       TOTAL       BONDED        FREE
      ATOM            VALENCE     VALENCE     VALENCE
    1 C                 3.509       3.509       0.000
    2 C                 3.834       3.834       0.000
    3 C                 2.256       2.256       0.000
    4 H                 0.694       0.694       0.000
    5 H                 0.766       0.766       0.000
    6 H                 0.670       0.670       0.000
    7 H                 0.303       0.303       0.000
    8 H                -0.267      -0.267       0.000
    9 H                 0.319       0.319       0.000
   10 H                 0.688       0.688       0.000
   11 F                 0.707       0.707       0.000

          ---------------------
          ELECTROSTATIC MOMENTS
          ---------------------

 POINT   1           X           Y           Z (BOHR)    CHARGE
                 3.375676    7.159838   -3.958372        0.00 (A.U.)
         DX          DY          DZ         /D/  (DEBYE)
    -2.868897    1.101090    2.009170    3.671476
 ...... END OF PROPERTY EVALUATION ......

                         TIMING STATISTICS ON RANK 0:
 CPU        TIME:   STEP =      0.13 ,  TOTAL =        5.9 SECONDS (    0.1 MIN)
 WALL CLOCK TIME:   STEP =      1.09 ,  TOTAL =       54.9 SECONDS (    0.9 MIN)
 CPU UTILIZATION:   STEP =     11.97%,  TOTAL =      10.70%
 ......END OF NBO ANALYSIS......

                         TIMING STATISTICS ON RANK 0:
 CPU        TIME:   STEP =      0.00 ,  TOTAL =        5.9 SECONDS (    0.1 MIN)
 WALL CLOCK TIME:   STEP =      0.00 ,  TOTAL =       54.9 SECONDS (    0.9 MIN)
 CPU UTILIZATION:   STEP =      0.00%,  TOTAL =      10.69%

                         OVERALL  TIMING  STATISTICS:
 GLOBAL CPU TIME ELAPSED      =        51.9 SECONDS (     0.9 MIN)
 RANK 0 WALL CLOCK TIME       =        54.9 SECONDS (     0.9 MIN)
 JOB CPU UTILIZATION:   TOTAL =     94.52%, PER RANK AVERAGE =      9.45%

      912929 WORDS OF    DYNAMIC MEMORY USED
     5585795 BYTES OF    HEAP MEMORY    USED,      133350 BYTES REMAIN IN USE

 WARNING! THIS VERSION OF FIREFLY IS PROBABLY OUTDATED!
 PLEASE CHECK FIREFLY HOMEPAGE FOR INFORMATION ON UPDATES!

 EXECUTION OF FIREFLY TERMINATED NORMALLY  0:11:52  9-JUL-2026    
