11
mark_scan_08; coordinates in Angstrom
C   0.2313403250 -0.1576551314  1.3121968672
C   0.3783748385  0.3866202633 -0.0949775408
C  -0.7127828090  0.0221105994 -1.0390453447
H  -0.6267410252  0.3117418408  1.8143251567
H   1.1543013252  0.0184066174  1.8802527430
H   0.0720973713 -1.2449373444  1.2905782742
H   0.6285037849  1.4554347108 -0.1150720490
H  -0.8628312651  0.0562362498 -2.1261198140
H  -1.5255829843  0.7484260203 -0.8772468447
H  -0.2455685768 -1.0978651107 -1.2383052406
F   1.5088890154 -0.4985187153 -0.8065862072
