11
Frame 0
 C          0.015800324273       -0.188422260791        1.385926867718
 C         -0.162574678827        0.627215390209        0.139274798018
 C         -0.888483902627        0.268287664509       -0.930955341682
 H         -0.361111492927        0.362765839709        2.261233429718
 H          1.081302810073       -0.390711657591        1.572957488918
 H         -0.515335076427       -1.147061883791        1.322582003318
 H          0.345406237273        1.597127532709        0.122676833218
 H         -1.428754820427       -0.680457150191       -0.962326407182
 H         -0.990324054527        0.924538448709       -1.795937786182
 H          1.069068623373       -0.476068276591       -1.384405583382
 F          1.835006030773       -0.897213646891       -1.731026302482
11
Frame 1
 C          0.015248868741       -0.191752875827        1.378481409296
 C         -0.094082600974        0.577353095030        0.093183920362
 C         -0.827952411993        0.200054628622       -0.987526380004
 H         -0.290340713342        0.418534825541        2.241752355444
 H          1.055175506579       -0.499891703780        1.565064124625
 H         -0.614565169079       -1.091218027437        1.368597875135
 H          0.346722495444        1.579940227559        0.097406039623
 H         -1.389464808655       -0.737448023050       -0.982138610303
 H         -1.035333951460        0.918356174588       -1.782707398928
 H          1.121399669374       -0.316798789047       -1.197086687063
 F          1.713193115365       -0.857129532200       -1.795026648186
11
Frame 2
 C          0.013862623890       -0.192312195929        1.372377844646
 C         -0.027740196377        0.540530737042        0.060235919549
 C         -0.745283506317        0.132954198165       -1.043010856734
 H         -0.217538203870        0.458946709523        2.228259009296
 H          1.016234290417       -0.606194050230        1.559955846663
 H         -0.708090167851       -1.019666017995        1.400990048570
 H          0.328399430488        1.576194895165        0.086326202544
 H         -1.327022961729       -0.792200612958       -1.004790288061
 H         -1.067772970115        0.889280497443       -1.762301747614
 H          1.196715394955       -0.169898327390       -1.062364301099
 F          1.538236266509       -0.817635832837       -1.835677677761
11
Frame 3
 C          0.009139806494       -0.187429719332        1.369006013238
 C          0.049234746170        0.509288993458        0.034776464359
 C         -0.669920182192        0.080007117334       -1.082028015104
 H         -0.149421854767        0.496295569529        2.215643614952
 H          0.957890266858       -0.708863656152        1.566947926697
 H         -0.800702629299       -0.928056297981        1.422865261179
 H          0.311514085632        1.572572659926        0.077572953316
 H         -1.234704429529       -0.855681283596       -1.028247007740
 H         -1.101540947514        0.849472861983       -1.727635596920
 H          1.253140070444       -0.090164298669       -0.956829981212
 F          1.375371067702       -0.737441946499       -1.892071632764
11
Frame 4
 C         -0.000425577621       -0.178622039699        1.366276775975
 C          0.121640457744        0.482290988518        0.015993409150
 C         -0.606929847681        0.032669703971       -1.109968420594
 H         -0.065748255546        0.527811955079        2.206113948332
 H          0.873563907793       -0.816275320201        1.567899795260
 H         -0.897662518879       -0.808920834601        1.441045337982
 H          0.306345238115        1.562290654570        0.061058789205
 H         -1.127960815131       -0.928544731369       -1.049329679709
 H         -1.145606234633        0.795687334077       -1.679526606466
 H          1.293371677120       -0.048348425146       -0.863302213151
 F          1.249411968718       -0.620039285198       -1.956261135984
11
Frame 5
 C         -0.016184731042       -0.167411790661        1.365388711922
 C          0.183715772305        0.455752317980        0.003617422824
 C         -0.552046651660       -0.019387085699       -1.130585992746
 H          0.046516778604        0.544236744845        2.200586851156
 H          0.748755047173       -0.934761354821        1.557744181604
 H         -0.999813447174       -0.648299344170        1.463872893220
 H          0.316013509294        1.544414201691        0.035269838963
 H         -1.005423182992       -1.015093535118       -1.068623793733
 H         -1.195536858039        0.717840907240       -1.621271745486
 H          1.326384013321       -0.008666647285       -0.778267105294
 F          1.147619750211       -0.468624414001       -2.027731262430
11
Frame 6
 C         -0.033202930547       -0.155503199211        1.362840977155
 C          0.240490249626        0.432894397020       -0.004601859505
 C         -0.500728625725       -0.068888951394       -1.147103179631
 H          0.158866618947        0.536270316440        2.194643576556
 H          0.600501925012       -1.036990070574        1.542154421719
 H         -1.079859210245       -0.472098249583        1.478145527750
 H          0.330317947454        1.526753377682        0.008615856736
 H         -0.874086018138       -1.098272446670       -1.086926458029
 H         -1.243950683959        0.625001557794       -1.554749858681
 H          1.356988395618        0.028041131232       -0.694968531383
 F          1.044662331956       -0.317207862736       -2.098050472686
11
Frame 7
 C         -0.049567944652       -0.143858203211        1.357512795996
 C          0.294143766649        0.415120224930       -0.009984300686
 C         -0.450460462703       -0.114263843844       -1.160572585854
 H          0.260358877416        0.505186419596        2.187864603450
 H          0.438293973112       -1.116531009144        1.519881312999
 H         -1.132116498514       -0.292291603043        1.482463238031
 H          0.344194016654        1.512070683647       -0.015975118214
 H         -0.737555440963       -1.172052334364       -1.103870071100
 H         -1.283590816439        0.520566267824       -1.484259500481
 H          1.390843775824        0.063420094467       -0.603102741267
 F          0.925456753617       -0.177366696858       -2.169957632875
11
Frame 8
 C         -0.066525446715       -0.130119451640        1.348825203027
 C          0.347439880386        0.401164523277       -0.014665375840
 C         -0.399064438165       -0.156240653085       -1.172457004614
 H          0.347354729301        0.457820716034        2.179051779204
 H          0.266507873085       -1.168854958300        1.491224260174
 H         -1.158795981478       -0.112384110689        1.477781799777
 H          0.361191193657        1.499343979039       -0.041457978095
 H         -0.587522219063       -1.237304034360       -1.125156136785
 H         -1.314322195469        0.401501712669       -1.407586727141
 H          1.431150663806        0.078132353820       -0.483724078749
 F          0.772585940654       -0.033060076764       -2.251835740959
11
Frame 9
 C         -0.086358057440       -0.111888066527        1.334147502792
 C          0.406251439587        0.388362029819       -0.020898038362
 C         -0.342922444176       -0.191466903366       -1.186188370165
 H          0.413759749618        0.400950469309        2.166364399700
 H          0.093669683122       -1.190208608764        1.455698587901
 H         -1.165628687439        0.060736472408        1.458677204234
 H          0.392447856911        1.486274050347       -0.070017163500
 H         -0.417390596029       -1.287910486521       -1.160948875010
 H         -1.334576462498        0.262743951507       -1.317284241587
 H          1.480619987861        0.068845590093       -0.316084596660
 F          0.560127530482        0.113561501694       -2.343466409342
11
Frame 10
 C         -0.108781858527       -0.091359264491        1.310592596017
 C          0.477603018014        0.369202050610       -0.029050534890
 C         -0.283457092918       -0.212380607425       -1.205824828419
 H          0.453967236945        0.339385836376        2.149064794203
 H         -0.070754291458       -1.185999934038        1.411339688562
 H         -1.158155850003        0.220099646584        1.418731727827
 H          0.450051614454        1.466492308546       -0.098587007064
 H         -0.239792393468       -1.311703903890       -1.219565992294
 H         -1.336278345100        0.107182142037       -1.211294903559
 H          1.532093601466        0.066419580720       -0.106332940644
 F          0.283504360594        0.232662144971       -2.419072599739
