11
Optimized mark_product; coordinates in Angstrom
C   1.4299849135  3.7250434136 -0.3205569456
C   1.6091667265  4.0144007041 -1.7996774427
C   0.3436190106  3.8872869042 -2.6279206763
H   0.7418035586  4.4572985865  0.1254743811
H   2.3921770782  3.7904696386  0.2029934608
H   1.0143591152  2.7189043891 -0.1715227819
H   2.0635848577  5.0066005249 -1.9438156475
H   0.5599572782  4.0623078079 -3.6893880125
H  -0.3979618822  4.6289610990 -2.2981598906
H  -0.0917633982  2.8845275716 -2.5167087421
F   2.5633480502  3.0914138034 -2.3138913300
