11
Frame 0
 C          0.015800324273       -0.188422260791        1.385926867718
 C         -0.162574678827        0.627215390209        0.139274798018
 C         -0.888483902627        0.268287664509       -0.930955341682
 H         -0.361111492927        0.362765839709        2.261233429718
 H          1.081302810073       -0.390711657591        1.572957488918
 H         -0.515335076427       -1.147061883791        1.322582003318
 H          0.345406237273        1.597127532709        0.122676833218
 H         -1.428754820427       -0.680457150191       -0.962326407182
 H         -0.990324054527        0.924538448709       -1.795937786182
 H          1.069068623373       -0.476068276591       -1.384405583382
 F          1.835006030773       -0.897213646891       -1.731026302482
11
Frame 1
 C          0.060287800544       -0.192820439178        1.382706643825
 C         -0.025299375328        0.584403619196        0.100197450458
 C         -0.843780764231        0.245342613064       -0.930840318382
 H         -0.453129423954        0.352583519519        2.189473606068
 H          1.110955855727       -0.324783061609        1.681127292419
 H         -0.402855828005       -1.184013042350        1.289998850821
 H          0.374437013006        1.603663459332        0.123147774603
 H         -1.426566833180       -0.669056173975       -1.063117094676
 H         -1.005731613899        0.960523089140       -1.740199460736
 H          0.830702839600       -0.530108785082       -1.478544709941
 F          1.780980329720       -0.845734798056       -1.553950034459
11
Frame 2
 C          0.092214040080       -0.195741839131        1.377855710134
 C          0.074456000851        0.541343773561        0.066797222676
 C         -0.802575806436        0.203489769638       -0.940076290953
 H         -0.495033733200        0.359121467186        2.125477581492
 H          1.126011388737       -0.290237800274        1.741173243372
 H         -0.331896458892       -1.204322090367        1.283559205212
 H          0.429142923788        1.577385651055        0.093289137121
 H         -1.448426703239       -0.643380036159       -1.184746007697
 H         -1.040592446298        0.987424624762       -1.665157303762
 H          0.669113193927       -0.613623303233       -1.500307883661
 F          1.727587600682       -0.721460217039       -1.397864613934
11
Frame 3
 C          0.120406655180       -0.194630780122        1.374680374548
 C          0.143962535755        0.506960396053        0.042270845770
 C         -0.774127843283        0.159963540134       -0.950214037845
 H         -0.521018940936        0.362512514344        2.074274446384
 H          1.140338299298       -0.248607830135        1.782015544499
 H         -0.259341563514       -1.221389314049        1.285497444295
 H          0.478571356678        1.550114073000        0.058255769201
 H         -1.445014493695       -0.610677639684       -1.340219752970
 H         -1.094407356955        1.008674546736       -1.565848745305
 H          0.549235543577       -0.651916078586       -1.520283542671
 F          1.661395807896       -0.661003427691       -1.240428345906
11
Frame 4
 C          0.146259698271       -0.190362104691        1.370155249845
 C          0.202380749460        0.479388892183        0.020346474077
 C         -0.754165271156        0.126445690726       -0.960809896544
 H         -0.552681600546        0.354122497139        2.022715459406
 H          1.148621430998       -0.189563643807        1.821569606838
 H         -0.175499676451       -1.237375719268        1.286403429039
 H          0.524639699544        1.526778358302        0.026092367311
 H         -1.405139163508       -0.553842515690       -1.519412418776
 H         -1.160579810327        1.026826315642       -1.441779315250
 H          0.426392809522       -0.720968109620       -1.504959582486
 F          1.599771134192       -0.621449660915       -1.120321373461
11
Frame 5
 C          0.170181256127       -0.183010882075        1.361356143170
 C          0.255993809449        0.454631372568       -0.004578172131
 C         -0.739271800565        0.100640364683       -0.975273861913
 H         -0.592302663578        0.332224659286        1.964177918037
 H          1.147686046266       -0.113120842084        1.858854800188
 H         -0.077628721470       -1.250731366056        1.285477154711
 H          0.570545930010        1.504664957409       -0.008654089153
 H         -1.332317533273       -0.456167133842       -1.710156175923
 H         -1.246936009261        1.026174640927       -1.288168614289
 H          0.294472603617       -0.808222348411       -1.466135720632
 F          1.549577082678       -0.607083422405       -1.016899382065
11
Frame 6
 C          0.192352292754       -0.174956903337        1.346414660949
 C          0.303248642904        0.435161921648       -0.032600771517
 C         -0.723692891655        0.076201170421       -0.997767475027
 H         -0.614556555109        0.316071715955        1.909815842150
 H          1.148027482489       -0.058713039538        1.875931231736
 H         -0.005126946617       -1.254079702727        1.282553757787
 H          0.593821148861        1.492502235944       -0.039114575960
 H         -1.224226889423       -0.314652905954       -1.893013148111
 H         -1.335132826903        0.983951649071       -1.133216781965
 H          0.146183180606       -0.923027213556       -1.383042573744
 F          1.519103362093       -0.578458927925       -0.935960166300
11
Frame 7
 C          0.213285582274       -0.164926074809        1.330179961984
 C          0.343940568548        0.413817083338       -0.062961097050
 C         -0.715531046223        0.048533482211       -1.018195255094
 H         -0.624211030665        0.310762709889        1.860680913460
 H          1.152260506490       -0.018713996552        1.880917878444
 H          0.040939531448       -1.249450246541        1.285334140929
 H          0.609777243429        1.478165196310       -0.074888218669
 H         -1.059219370624       -0.134081749391       -2.045146989657
 H         -1.433884699650        0.885223846008       -0.987535196450
 H         -0.029527294888       -1.022440734698       -1.301045079611
 F          1.502170009860       -0.546889515764       -0.867341058286
11
Frame 8
 C          0.231340324956       -0.157655131433        1.312196867168
 C          0.378374838515        0.386620263308       -0.094977540808
 C         -0.712782808959        0.022110599365       -1.039045344676
 H         -0.626741025150        0.311741840826        1.814325156681
 H          1.154301325227        0.018406617428        1.880252743036
 H          0.072097371335       -1.244937344446        1.290578274173
 H          0.628503784948        1.455434710822       -0.115072049047
 H         -0.862831265121        0.056236249844       -2.126119813982
 H         -1.525582984279        0.748426020257       -0.877246844743
 H         -0.245568576834       -1.097865110693       -1.238305240610
 F          1.508889015363       -0.498518715279       -0.806586207194
11
Frame 9
 C          0.248267592302       -0.159174090565        1.289932818616
 C          0.411533530740        0.352951520261       -0.128482138031
 C         -0.706666454481       -0.000620520927       -1.067257350908
 H         -0.622007487616        0.313989704056        1.766812282973
 H          1.151856776897        0.052702402750        1.875996333033
 H          0.095696481549       -1.247502124492        1.291350245189
 H          0.644915294418        1.426707044387       -0.150915371841
 H         -0.663135817515        0.210245106026       -2.143247044413
 H         -1.589100108099        0.603458874308       -0.808115217644
 H         -0.526811567248       -1.142504422979       -1.177802857981
 F          1.555451759052       -0.410253492825       -0.748271698992
11
Frame 10
 C          0.266897901112       -0.169228403385        1.263054578290
 C          0.448750197576        0.312976486100       -0.164544593551
 C         -0.694010053987       -0.034612722463       -1.101046885533
 H         -0.609265556747        0.316771180580        1.715688160084
 H          1.149645636403        0.076412261099        1.866889390602
 H          0.114242547090       -1.257074971309        1.286674703790
 H          0.642134200029        1.396512618270       -0.181403487972
 H         -0.470474632810        0.301815903640       -2.121338590683
 H         -1.617615225256        0.459700994587       -0.767321782604
 H         -0.864481640093       -1.120043432401       -1.116272770442
 F          1.634176626682       -0.283229914719       -0.680378721980
