11
Optimized product; coordinates in Angstrom
C   1.3435679795  3.7664126766 -0.4170868183
C   1.5795994763  4.6769501303 -1.6277966698
C   0.8366067299  4.1841273491 -2.8555328400
H   1.8880723262  4.1387948319  0.4604723309
H   1.6882355798  2.7402626103 -0.6121625848
H   0.2771894356  3.7183076839 -0.1517394801
H   1.2488215940  5.7014514853 -1.4028004984
H   1.1709193480  3.1817792618 -3.1623561132
H  -0.2520725678  4.1687693671 -2.6970261185
H   2.6530973915  4.7274801391 -1.8615682018
F   1.0770526965  5.0452998877 -3.9473414733
