11
product MMFF seed, not a DFT result; coordinates in Angstrom
C   1.3426593856  3.7714735853 -0.4306040318
C   1.5749909836  4.6716109591 -1.6302041210
C   0.8326302161  4.1797249798 -2.8584327473
H   1.8889804067  4.1495598397  0.4391316172
H   1.6880934109  2.7524316517 -0.6320865398
H   0.2797862052  3.7290579891 -0.1720155091
H   1.2549977565  5.6936623581 -1.3977450378
H   1.1649277457  3.1811960204 -3.1569485654
H  -0.2488425161  4.1616198222 -2.6950871684
H   2.6466325869  4.7285944206 -1.8523745589
F   1.0862338082  5.0307037973 -3.8885718050
