              Grand Master is running on host yaroslavhonor
              rank #     1 is running on host yaroslavhonor
              rank #     2 is running on host yaroslavhonor
              rank #     3 is running on host yaroslavhonor
              rank #     4 is running on host yaroslavhonor
              rank #     5 is running on host yaroslavhonor

          ******************************************************
          *      Firefly version 8.2.0, build number 10203     *
          *   Compiled on    Monday,    19-09-2016, 15:30:23   *
          *Code development and Intel/AMD specific optimization*
          *  Copyright (c) 1994, 2016 by  Alex A. Granovsky,   *
          *          Firefly Project, Moscow, Russia.          *
          *   Some parts of this program include code due to   *
          * work of Jim Kress, Peter Burger, and Robert Ponec. *
          ******************************************************
          *             Firefly Project homepage:              *
          * http://classic.chem.msu.su/gran/firefly/index.html *
          *                      e-mail:                       *
          *               gran@classic.chem.msu.su             *
          *This program is not a free software and is provided *
          *exclusively to its registered users under the terms *
          *       of Firefly package license agreement         *
          * Unauthorized use of Firefly is strongly prohibited *
          *   This program may not be redistributed without    *
          * the specific, written permission of its developers.*
          ******************************************************

          ******************************************************
          *  PARTIALLY BASED ON  US GAMESS VERSION 6 JUN 1999, *
          *   US GAMESS VERSIONS  6 SEP 2001 AND 12 DEC 2003   *
          *             FROM IOWA STATE UNIVERSITY             *
          * M.W.SCHMIDT, K.K.BALDRIDGE, J.A.BOATZ, S.T.ELBERT, *
          *   M.S.GORDON, J.H.JENSEN, S.KOSEKI, N.MATSUNAGA,   *
          *          K.A.NGUYEN, S.J.SU, T.L.WINDUS,           *
          *       TOGETHER WITH M.DUPUIS, J.A.MONTGOMERY       *
          *         J.COMPUT.CHEM.  14, 1347-1363(1993)        *
          ******************************************************


 Core i7    / Linux  Firefly version running under Linux.
 Running on Intel CPU:  Brand ID  0, Family  6, Model 170, Stepping  4
 CPU Brand String    :  Intel(R) Core(TM) Ultra 5 125H                  
 CPU Features        :  x87 FPU, CMOV, MMX, SSE, SSE2, SSE3, SSSE3, SSE4.1, SSE4.2, AVX, AVX2, FMA3, HTT, MWAIT, EM64T
 Data cache size     :  L1 32 KB, L2 2048 KB, L3 18432 KB
 max    # of   cores/package :  64
 max    # of threads/package : 128
 max     cache sharing level :  64
 actual # of   cores/package :  18
 actual # of threads/package :  18
 actual # of threads/core    :   1
 Operating System successfully passed SSE support test.
 Operating System supports AVX/FMA.


 PARALLEL VERSION (MPICH) RUNNING USING    6 PROCESSES (RANKS)


 WARNING! THIS VERSION OF FIREFLY IS PROBABLY OUTDATED!
 PLEASE CHECK FIREFLY HOMEPAGE FOR INFORMATION ON UPDATES!

 EXECUTION OF FIREFLY BEGUN 23:06:20 18-MAY-2026    

            ECHO OF THE FIRST FEW INPUT CARDS -
 INPUT CARD> $CONTRL SCFTYP=RHF RUNTYP=ENERGY ICHARG=0 MULT=1 CITYP=CIS EXETYP=RUN          
 INPUT CARD>      INTTYP=HONDO ICUT=13 ITOL=30 D5=.T. MAXIT=100 GENCON=.F. WIDE=1 FSTINT=.T.
 INPUT CARD> $END                                                                           
 INPUT CARD> $SYSTEM TIMLIM=60000 MWORDS=200 MASMEM=200000000 MXBCST=-1 KDIAG=0 NOJAC=1 $END
 INPUT CARD> $MOORTH NOSTF=.T. NOZERO=.T. SYMS=.T. SYMDEN=.T. SYMVEC=.T. SYMVX=.T.          
 INPUT CARD>      TOLE=0.0D0 TOLZ=0.0D0 $END                                                
 INPUT CARD> $GUESS GUESS=HUCKEL $END                                                       
 INPUT CARD> $SCF DIRSCF=.T. FDIFF=.F. DIIS=.T. DAMP=.T. SHIFT=.T. SOSCF=.F. $END           
 INPUT CARD> $CIS ISTATE=1 MULT=1 NSTATE=4 $END                                             
 INPUT CARD> $DATA                                                                          
 INPUT CARD>p_bq CIS on starting geometry                                                   
 INPUT CARD>C1                                                                              
 INPUT CARD>C      6.0     0.0000000000     1.4000000000     0.0000000000                   
 INPUT CARD>S   8                                                                           
 INPUT CARD>  1    6665.0000000       0.0006920                                             
 INPUT CARD>  2    1000.0000000       0.0053290                                             
 INPUT CARD>  3     228.0000000       0.0270770                                             
 INPUT CARD>  4      64.7100000       0.1017180                                             
 INPUT CARD>  5      21.0600000       0.2747400                                             
 INPUT CARD>  6       7.4950000       0.4485640                                             
 INPUT CARD>  7       2.7970000       0.2850740                                             
 INPUT CARD>  8       0.5215000       0.0152040                                             
 INPUT CARD>S   8                                                                           
 INPUT CARD>  1    6665.0000000      -0.0001460                                             
 INPUT CARD>  2    1000.0000000      -0.0011540                                             
 INPUT CARD>  3     228.0000000      -0.0057250                                             
 INPUT CARD>  4      64.7100000      -0.0233120                                             
 INPUT CARD>  5      21.0600000      -0.0639550                                             
 INPUT CARD>  6       7.4950000      -0.1499810                                             
 INPUT CARD>  7       2.7970000      -0.1272620                                             
 INPUT CARD>  8       0.5215000       0.5445290                                             
 INPUT CARD>S   1                                                                           
 INPUT CARD>  1       0.1596000       1.0000000                                             
 INPUT CARD>P   3                                                                           
 INPUT CARD>  1       9.4390000       0.0381090                                             
 INPUT CARD>  2       2.0020000       0.2094800                                             
 INPUT CARD>  3       0.5456000       0.5085570                                             
 INPUT CARD>P   1                                                                           
 INPUT CARD>  1       0.1517000       1.0000000                                             
 INPUT CARD>D   1                                                                           
 INPUT CARD>  1       0.5500000       1.0000000                                             
 INPUT CARD>                                                                                
 INPUT CARD>C      6.0     1.2124355650     0.7000000000     0.0000000000                   
 INPUT CARD>S   8                                                                           
 INPUT CARD>  1    6665.0000000       0.0006920                                             
 INPUT CARD>  2    1000.0000000       0.0053290                                             
 INPUT CARD>  3     228.0000000       0.0270770                                             
 INPUT CARD>  4      64.7100000       0.1017180                                             
 INPUT CARD>  5      21.0600000       0.2747400                                             
 INPUT CARD>  6       7.4950000       0.4485640                                             
  200000000 WORDS OF MEMORY AVAILABLE

 This job is executing on     1 unique host(s)
 Minimum number of processes per host is:    6
 Maximum number of processes per host is:    6

 On master's host, detected   18 CPU core(s) in aggregate

 Using processor-specific dynamic link DGEMM library code.


 Creating thread pool to serve up to            128 threads.


 Loading P2P interface library... loaded successfully (version 2.4).
 Initializing global P2P interface... topology done.



     RUN TITLE
     ---------
 p_bq CIS on starting geometry                                                   

 THE POINT GROUP OF THE MOLECULE IS C1      
 THE ORDER OF THE PRINCIPAL AXIS IS     0
 *** WARNING! ATOM   1 SHELL    1 TYPE S HAS NORMALIZATION   0.99939879
 *** WARNING! ATOM   1 SHELL    2 TYPE S HAS NORMALIZATION   2.00869625
 *** WARNING! ATOM   1 SHELL    4 TYPE P HAS NORMALIZATION   1.49516523
 *** WARNING! ATOM   2 SHELL    7 TYPE S HAS NORMALIZATION   0.99939879
 *** WARNING! ATOM   2 SHELL    8 TYPE S HAS NORMALIZATION   2.00869625
 *** WARNING! ATOM   2 SHELL   10 TYPE P HAS NORMALIZATION   1.49516523
 *** WARNING! ATOM   3 SHELL   13 TYPE S HAS NORMALIZATION   0.99939879
 *** WARNING! ATOM   3 SHELL   14 TYPE S HAS NORMALIZATION   2.00869625
 *** WARNING! ATOM   3 SHELL   16 TYPE P HAS NORMALIZATION   1.49516523
 *** WARNING! ATOM   4 SHELL   19 TYPE S HAS NORMALIZATION   0.99939879
 *** WARNING! ATOM   4 SHELL   20 TYPE S HAS NORMALIZATION   2.00869625
 *** WARNING! ATOM   4 SHELL   22 TYPE P HAS NORMALIZATION   1.49516523
 *** WARNING! ATOM   5 SHELL   25 TYPE S HAS NORMALIZATION   0.99939879
 *** WARNING! ATOM   5 SHELL   26 TYPE S HAS NORMALIZATION   2.00869625
 *** WARNING! ATOM   5 SHELL   28 TYPE P HAS NORMALIZATION   1.49516523
 *** WARNING! ATOM   6 SHELL   31 TYPE S HAS NORMALIZATION   0.99939879
 *** WARNING! ATOM   6 SHELL   32 TYPE S HAS NORMALIZATION   2.00869625
 *** WARNING! ATOM   6 SHELL   34 TYPE P HAS NORMALIZATION   1.49516523
 *** WARNING! ATOM   7 SHELL   37 TYPE S HAS NORMALIZATION   0.99950133
 *** WARNING! ATOM   7 SHELL   38 TYPE S HAS NORMALIZATION   1.96527132
 *** WARNING! ATOM   7 SHELL   41 TYPE P HAS NORMALIZATION   1.45704510
 *** WARNING! ATOM   8 SHELL   46 TYPE S HAS NORMALIZATION   0.99950133
 *** WARNING! ATOM   8 SHELL   47 TYPE S HAS NORMALIZATION   1.96527132
 *** WARNING! ATOM   8 SHELL   50 TYPE P HAS NORMALIZATION   1.45704510
 *** WARNING! ATOM   9 SHELL   55 TYPE S HAS NORMALIZATION   1.70173870
 *** WARNING! ATOM  10 SHELL   58 TYPE S HAS NORMALIZATION   1.70173870
 *** WARNING! ATOM  11 SHELL   61 TYPE S HAS NORMALIZATION   1.70173870
 *** WARNING! ATOM  12 SHELL   64 TYPE S HAS NORMALIZATION   1.70173870

 ATOM      ATOMIC                      COORDINATES (BOHR)
           CHARGE         X                   Y                   Z
 C           6.0     0.0000000000        2.6456165756        0.0000000000
 C           6.0     2.2911711626        1.3228082878        0.0000000000
 C           6.0     2.2911711626       -1.3228082878        0.0000000000
 C           6.0     0.0000000000       -2.6456165756        0.0000000000
 C           6.0    -2.2911711626       -1.3228082878        0.0000000000
 C           6.0    -2.2911711626        1.3228082878        0.0000000000
 O           8.0     0.0000000000        4.9510824487        0.0000000000
 O           8.0     0.0000000000       -4.9510824487        0.0000000000
 H           1.0     4.0629111697        2.3451501217        0.0000000000
 H           1.0     4.0629111697       -2.3451501217        0.0000000000
 H           1.0    -4.0629111697       -2.3451501217        0.0000000000
 H           1.0    -4.0629111697        2.3451501217        0.0000000000

          INTERNUCLEAR DISTANCES (ANGS.)
          ------------------------------

                    C              C              C              C         

  1  C               0.0000000      1.4000000 *    2.4248711 *    2.8000000 *  
  2  C               1.4000000 *    0.0000000      1.4000000 *    2.4248711 *  
  3  C               2.4248711 *    1.4000000 *    0.0000000      1.4000000 *  
  4  C               2.8000000 *    2.4248711 *    1.4000000 *    0.0000000    
  5  C               2.4248711 *    2.8000000 *    2.4248711 *    1.4000000 *  
  6  C               1.4000000 *    2.4248711 *    2.8000000 *    2.4248711 *  
  7  O               1.2200000 *    2.2707708 *    3.5344589      4.0200000    
  8  O               4.0200000      3.5344589      2.2707708 *    1.2200000 *  
  9  H               2.1558713 *    1.0824547 *    2.1555760 *    3.4054928    
 10  H               3.4054928      2.1555760 *    1.0824547 *    2.1558713 *  
 11  H               3.4054928      3.8824546      3.4056797      2.1558713 *  
 12  H               2.1558713 *    3.4056797      3.8824546      3.4054928    

                    C              C              O              O         

  1  C               2.4248711 *    1.4000000 *    1.2200000 *    4.0200000    
  2  C               2.8000000 *    2.4248711 *    2.2707708 *    3.5344589    
  3  C               2.4248711 *    2.8000000 *    3.5344589      2.2707708 *  
  4  C               1.4000000 *    2.4248711 *    4.0200000      1.2200000 *  
  5  C               0.0000000      1.4000000 *    3.5344589      2.2707708 *  
  6  C               1.4000000 *    0.0000000      2.2707708 *    3.5344589    
  7  O               3.5344589      2.2707708 *    0.0000000      5.2400000    
  8  O               2.2707708 *    3.5344589      5.2400000      0.0000000    
  9  H               3.8824546      3.4056797      2.5542398 *    4.4192557    
 10  H               3.4056797      3.8824546      4.4192557      2.5542398 *  
 11  H               1.0824547 *    2.1555760 *    4.4192557      2.5542398 *  
 12  H               2.1555760 *    1.0824547 *    2.5542398 *    4.4192557    

                    H              H              H              H         

  1  C               2.1558713 *    3.4054928      3.4054928      2.1558713 *  
  2  C               1.0824547 *    2.1555760 *    3.8824546      3.4056797    
  3  C               2.1555760 *    1.0824547 *    3.4056797      3.8824546    
  4  C               3.4054928      2.1558713 *    2.1558713 *    3.4054928    
  5  C               3.8824546      3.4056797      1.0824547 *    2.1555760 *  
  6  C               3.4056797      3.8824546      2.1555760 *    1.0824547 *  
  7  O               2.5542398 *    4.4192557      4.4192557      2.5542398 *  
  8  O               4.4192557      2.5542398 *    2.5542398 *    4.4192557    
  9  H               0.0000000      2.4820000 *    4.9649093      4.3000000    
 10  H               2.4820000 *    0.0000000      4.3000000      4.9649093    
 11  H               4.9649093      4.3000000      0.0000000      2.4820000 *  
 12  H               4.3000000      4.9649093      2.4820000 *    0.0000000    

  * ... LESS THAN  3.000


     ATOMIC BASIS SET
     ----------------
 THE CONTRACTED PRIMITIVE FUNCTIONS HAVE BEEN UNNORMALIZED
 THE CONTRACTED BASIS FUNCTIONS ARE NOW NORMALIZED TO UNITY

 SHELL TYPE PRIM    EXPONENT          CONTRACTION COEFFICIENTS

 C         

   1   S    1    6665.000000    0.363584 (  0.000692) 
   1   S    2    1000.000000    0.674986 (  0.005329) 
   1   S    3     228.000000    1.131620 (  0.027077) 
   1   S    4      64.710000    1.653009 (  0.101718) 
   1   S    5      21.060000    1.923821 (  0.274740) 
   1   S    6       7.495000    1.447278 (  0.448564) 
   1   S    7       2.797000    0.439163 (  0.285074) 
   1   S    8       0.521500    0.006646 (  0.015204) 

   2   S    9    6665.000000   -0.154180 ( -0.000146) 
   2   S   10    1000.000000   -0.293785 ( -0.001154) 
   2   S   11     228.000000   -0.480896 ( -0.005725) 
   2   S   12      64.710000   -0.761434 ( -0.023312) 
   2   S   13      21.060000   -0.900104 ( -0.063955) 
   2   S   14       7.495000   -0.972611 ( -0.149981) 
   2   S   15       2.797000   -0.394042 ( -0.127262) 
   2   S   16       0.521500    0.478394 (  0.544529) 

   3   S   17       0.159600    0.179964 (  1.000000) 

   4   P   18       9.439000    1.343737 (  0.038109) 
   4   P   19       2.002000    1.063168 (  0.209480) 
   4   P   20       0.545600    0.508232 (  0.508557) 

   5   P   21       0.151700    0.134950 (  1.000000) 

   6   D   22       0.550000    0.578155 (  1.000000) 

 C         

   7   S   23    6665.000000    0.363584 (  0.000692) 
   7   S   24    1000.000000    0.674986 (  0.005329) 
   7   S   25     228.000000    1.131620 (  0.027077) 
   7   S   26      64.710000    1.653009 (  0.101718) 
   7   S   27      21.060000    1.923821 (  0.274740) 
   7   S   28       7.495000    1.447278 (  0.448564) 
   7   S   29       2.797000    0.439163 (  0.285074) 
   7   S   30       0.521500    0.006646 (  0.015204) 

   8   S   31    6665.000000   -0.154180 ( -0.000146) 
   8   S   32    1000.000000   -0.293785 ( -0.001154) 
   8   S   33     228.000000   -0.480896 ( -0.005725) 
   8   S   34      64.710000   -0.761434 ( -0.023312) 
   8   S   35      21.060000   -0.900104 ( -0.063955) 
   8   S   36       7.495000   -0.972611 ( -0.149981) 
   8   S   37       2.797000   -0.394042 ( -0.127262) 
   8   S   38       0.521500    0.478394 (  0.544529) 

   9   S   39       0.159600    0.179964 (  1.000000) 

  10   P   40       9.439000    1.343737 (  0.038109) 
  10   P   41       2.002000    1.063168 (  0.209480) 
  10   P   42       0.545600    0.508232 (  0.508557) 

  11   P   43       0.151700    0.134950 (  1.000000) 

  12   D   44       0.550000    0.578155 (  1.000000) 

 C         

  13   S   45    6665.000000    0.363584 (  0.000692) 
  13   S   46    1000.000000    0.674986 (  0.005329) 
  13   S   47     228.000000    1.131620 (  0.027077) 
  13   S   48      64.710000    1.653009 (  0.101718) 
  13   S   49      21.060000    1.923821 (  0.274740) 
  13   S   50       7.495000    1.447278 (  0.448564) 
  13   S   51       2.797000    0.439163 (  0.285074) 
  13   S   52       0.521500    0.006646 (  0.015204) 

  14   S   53    6665.000000   -0.154180 ( -0.000146) 
  14   S   54    1000.000000   -0.293785 ( -0.001154) 
  14   S   55     228.000000   -0.480896 ( -0.005725) 
  14   S   56      64.710000   -0.761434 ( -0.023312) 
  14   S   57      21.060000   -0.900104 ( -0.063955) 
  14   S   58       7.495000   -0.972611 ( -0.149981) 
  14   S   59       2.797000   -0.394042 ( -0.127262) 
  14   S   60       0.521500    0.478394 (  0.544529) 

  15   S   61       0.159600    0.179964 (  1.000000) 

  16   P   62       9.439000    1.343737 (  0.038109) 
  16   P   63       2.002000    1.063168 (  0.209480) 
  16   P   64       0.545600    0.508232 (  0.508557) 

  17   P   65       0.151700    0.134950 (  1.000000) 

  18   D   66       0.550000    0.578155 (  1.000000) 

 C         

  19   S   67    6665.000000    0.363584 (  0.000692) 
  19   S   68    1000.000000    0.674986 (  0.005329) 
  19   S   69     228.000000    1.131620 (  0.027077) 
  19   S   70      64.710000    1.653009 (  0.101718) 
  19   S   71      21.060000    1.923821 (  0.274740) 
  19   S   72       7.495000    1.447278 (  0.448564) 
  19   S   73       2.797000    0.439163 (  0.285074) 
  19   S   74       0.521500    0.006646 (  0.015204) 

  20   S   75    6665.000000   -0.154180 ( -0.000146) 
  20   S   76    1000.000000   -0.293785 ( -0.001154) 
  20   S   77     228.000000   -0.480896 ( -0.005725) 
  20   S   78      64.710000   -0.761434 ( -0.023312) 
  20   S   79      21.060000   -0.900104 ( -0.063955) 
  20   S   80       7.495000   -0.972611 ( -0.149981) 
  20   S   81       2.797000   -0.394042 ( -0.127262) 
  20   S   82       0.521500    0.478394 (  0.544529) 

  21   S   83       0.159600    0.179964 (  1.000000) 

  22   P   84       9.439000    1.343737 (  0.038109) 
  22   P   85       2.002000    1.063168 (  0.209480) 
  22   P   86       0.545600    0.508232 (  0.508557) 

  23   P   87       0.151700    0.134950 (  1.000000) 

  24   D   88       0.550000    0.578155 (  1.000000) 

 C         

  25   S   89    6665.000000    0.363584 (  0.000692) 
  25   S   90    1000.000000    0.674986 (  0.005329) 
  25   S   91     228.000000    1.131620 (  0.027077) 
  25   S   92      64.710000    1.653009 (  0.101718) 
  25   S   93      21.060000    1.923821 (  0.274740) 
  25   S   94       7.495000    1.447278 (  0.448564) 
  25   S   95       2.797000    0.439163 (  0.285074) 
  25   S   96       0.521500    0.006646 (  0.015204) 

  26   S   97    6665.000000   -0.154180 ( -0.000146) 
  26   S   98    1000.000000   -0.293785 ( -0.001154) 
  26   S   99     228.000000   -0.480896 ( -0.005725) 
  26   S  100      64.710000   -0.761434 ( -0.023312) 
  26   S  101      21.060000   -0.900104 ( -0.063955) 
  26   S  102       7.495000   -0.972611 ( -0.149981) 
  26   S  103       2.797000   -0.394042 ( -0.127262) 
  26   S  104       0.521500    0.478394 (  0.544529) 

  27   S  105       0.159600    0.179964 (  1.000000) 

  28   P  106       9.439000    1.343737 (  0.038109) 
  28   P  107       2.002000    1.063168 (  0.209480) 
  28   P  108       0.545600    0.508232 (  0.508557) 

  29   P  109       0.151700    0.134950 (  1.000000) 

  30   D  110       0.550000    0.578155 (  1.000000) 

 C         

  31   S  111    6665.000000    0.363584 (  0.000692) 
  31   S  112    1000.000000    0.674986 (  0.005329) 
  31   S  113     228.000000    1.131620 (  0.027077) 
  31   S  114      64.710000    1.653009 (  0.101718) 
  31   S  115      21.060000    1.923821 (  0.274740) 
  31   S  116       7.495000    1.447278 (  0.448564) 
  31   S  117       2.797000    0.439163 (  0.285074) 
  31   S  118       0.521500    0.006646 (  0.015204) 

  32   S  119    6665.000000   -0.154180 ( -0.000146) 
  32   S  120    1000.000000   -0.293785 ( -0.001154) 
  32   S  121     228.000000   -0.480896 ( -0.005725) 
  32   S  122      64.710000   -0.761434 ( -0.023312) 
  32   S  123      21.060000   -0.900104 ( -0.063955) 
  32   S  124       7.495000   -0.972611 ( -0.149981) 
  32   S  125       2.797000   -0.394042 ( -0.127262) 
  32   S  126       0.521500    0.478394 (  0.544529) 

  33   S  127       0.159600    0.179964 (  1.000000) 

  34   P  128       9.439000    1.343737 (  0.038109) 
  34   P  129       2.002000    1.063168 (  0.209480) 
  34   P  130       0.545600    0.508232 (  0.508557) 

  35   P  131       0.151700    0.134950 (  1.000000) 

  36   D  132       0.550000    0.578155 (  1.000000) 

 O         

  37   S  133   11720.000000    0.569702 (  0.000710) 
  37   S  134    1759.000000    1.058352 (  0.005470) 
  37   S  135     400.800000    1.776281 (  0.027837) 
  37   S  136     113.700000    2.599412 (  0.104800) 
  37   S  137      37.030000    3.026846 (  0.283062) 
  37   S  138      13.270000    2.222394 (  0.448719) 
  37   S  139       5.025000    0.647795 (  0.270952) 
  37   S  140       1.013000    0.011119 (  0.015458) 

  38   S  141   11720.000000   -0.252434 ( -0.000160) 
  38   S  142    1759.000000   -0.480491 ( -0.001263) 
  38   S  143     400.800000   -0.786300 ( -0.006267) 
  38   S  144     113.700000   -1.254170 ( -0.025716) 
  38   S  145      37.030000   -1.491218 ( -0.070924) 
  38   S  146      13.270000   -1.610832 ( -0.165411) 
  38   S  147       5.025000   -0.549798 ( -0.116955) 
  38   S  148       1.013000    0.788282 (  0.557368) 

  39   S  149       0.302300    0.290562 (  1.000000) 

  40   S  150       0.078960    0.106161 (  1.000000) 

  41   P  151      17.700000    3.243619 (  0.043018) 
  41   P  152       3.854000    2.567280 (  0.228913) 
  41   P  153       1.046000    1.117669 (  0.508728) 

  42   P  154       0.275300    0.284248 (  1.000000) 

  43   P  155       0.068560    0.050007 (  1.000000) 

  44   D  156       1.185000    2.215218 (  1.000000) 

  45   D  157       0.332000    0.239002 (  1.000000) 

 O         

  46   S  158   11720.000000    0.569702 (  0.000710) 
  46   S  159    1759.000000    1.058352 (  0.005470) 
  46   S  160     400.800000    1.776281 (  0.027837) 
  46   S  161     113.700000    2.599412 (  0.104800) 
  46   S  162      37.030000    3.026846 (  0.283062) 
  46   S  163      13.270000    2.222394 (  0.448719) 
  46   S  164       5.025000    0.647795 (  0.270952) 
  46   S  165       1.013000    0.011119 (  0.015458) 

  47   S  166   11720.000000   -0.252434 ( -0.000160) 
  47   S  167    1759.000000   -0.480491 ( -0.001263) 
  47   S  168     400.800000   -0.786300 ( -0.006267) 
  47   S  169     113.700000   -1.254170 ( -0.025716) 
  47   S  170      37.030000   -1.491218 ( -0.070924) 
  47   S  171      13.270000   -1.610832 ( -0.165411) 
  47   S  172       5.025000   -0.549798 ( -0.116955) 
  47   S  173       1.013000    0.788282 (  0.557368) 

  48   S  174       0.302300    0.290562 (  1.000000) 

  49   S  175       0.078960    0.106161 (  1.000000) 

  50   P  176      17.700000    3.243619 (  0.043018) 
  50   P  177       3.854000    2.567280 (  0.228913) 
  50   P  178       1.046000    1.117669 (  0.508728) 

  51   P  179       0.275300    0.284248 (  1.000000) 

  52   P  180       0.068560    0.050007 (  1.000000) 

  53   D  181       1.185000    2.215218 (  1.000000) 

  54   D  182       0.332000    0.239002 (  1.000000) 

 H         

  55   S  183      13.010000    0.163548 (  0.019685) 
  55   S  184       1.962000    0.277418 (  0.137977) 
  55   S  185       0.444600    0.315749 (  0.478148) 

  56   S  186       0.122000    0.147123 (  1.000000) 

  57   P  187       0.727000    0.956881 (  1.000000) 

 H         

  58   S  188      13.010000    0.163548 (  0.019685) 
  58   S  189       1.962000    0.277418 (  0.137977) 
  58   S  190       0.444600    0.315749 (  0.478148) 

  59   S  191       0.122000    0.147123 (  1.000000) 

  60   P  192       0.727000    0.956881 (  1.000000) 

 H         

  61   S  193      13.010000    0.163548 (  0.019685) 
  61   S  194       1.962000    0.277418 (  0.137977) 
  61   S  195       0.444600    0.315749 (  0.478148) 

  62   S  196       0.122000    0.147123 (  1.000000) 

  63   P  197       0.727000    0.956881 (  1.000000) 

 H         

  64   S  198      13.010000    0.163548 (  0.019685) 
  64   S  199       1.962000    0.277418 (  0.137977) 
  64   S  200       0.444600    0.315749 (  0.478148) 

  65   S  201       0.122000    0.147123 (  1.000000) 

  66   P  202       0.727000    0.956881 (  1.000000) 

 TOTAL NUMBER OF SHELLS              =   66
 TOTAL NUMBER OF BASIS FUNCTIONS     =  160
 NUMBER OF ELECTRONS                 =   56
 CHARGE OF MOLECULE                  =    0
 STATE MULTIPLICITY                  =    1
 NUMBER OF OCCUPIED ORBITALS (ALPHA) =   28
 NUMBER OF OCCUPIED ORBITALS (BETA ) =   28
 TOTAL NUMBER OF ATOMS               =   12
 THE NUCLEAR REPULSION ENERGY IS      329.0155399456
 TOTAL NUMBER OF CONTAMINANTS DROPPED=   10


     $CONTRL OPTIONS
     ---------------
     SCFTYP=RHF          RUNTYP=ENERGY       EXETYP=RUN     
     MPLEVL=       0     LOCAL =NONE         UNITS =ANGS    
     MULT  =       1     ICHARG=       0     MAXIT =     100
     NPRINT=       7     IREST =       0     COORD =UNIQUE  
     ECP   =NONE         NORMF =       0     NORMP =       0
     ITOL  =      30     ICUT  =      13     NZVAR =       0
     NOSYM =       0     INTTYP=HONDO        GEOM  =INPUT   
     PLTORB=       F     MOLPLT=       F     RPAC  =       F
     AIMPAC=       0     FRIEND=             CITYP =CIS     
     DFTTYP=NONE    

     $SYSTEM OPTIONS
     ---------------
     KDIAG =       0     MEMORY=200000000     TIMLIM=  3600000.0 SEC.
     COREFL=       F     PTIME =        F     XDR   =       F
     BALTYP=NXTVAL       CBASE = 09001000     FBASE = EB4410C0

          ----------------
          PROPERTIES INPUT
          ----------------

     MOMENTS            FIELD           POTENTIAL          DENSITY
 IEMOM =       1   IEFLD =       0   IEPOT =       0   IEDEN =       0
 WHERE =COMASS     WHERE =NUCLEI     WHERE =NUCLEI     WHERE =NUCLEI  
 OUTPUT=BOTH       OUTPUT=BOTH       OUTPUT=BOTH       OUTPUT=BOTH    
 IEMINT=       0   IEFINT=       0                     IEDINT=       0
                                                       MORB  =       0

          EXTRAPOLATION IN EFFECT
          DAMPING IN EFFECT
          LEVEL SHIFTING IN EFFECT
          DIIS IN EFFECT

          ----------------------
          INTEGRAL INPUT OPTIONS
          ----------------------
 NOPK  =       1 NORDER=       0 SCHWRZ=       T

 ATTENTION! AO INTEGRALS WILL BE PACKED.
 THRESHOLD FOR PACKING PKTHR =  0.10000000D-05

     -------------------------------
     INTEGRAL TRANSFORMATION OPTIONS
     -------------------------------
     NWORD  =       0     CUTTRF = 1.0E-09
     MPTRAN =       0     DIRTRF =       T
     AOINTS =DUP          IREST  =       0

     ------------------------------
     CI-SINGLES CONTROL INFORMATION
     ------------------------------
     NACORE =        8  NBCORE   =        8
     NSTATE =        4  ISTATE   =        1
     HAMTYP = SAPS      SAP MULT =        1
     DIAGZN = DAVID     MXVEC    =       32
     NDAVIT =       50  DAVCVG   = 1.00E-05
     CISPRP =        F  NGSVEC   =       10
     MNMEDG =        F  MNMEOP   =        F
     CHFSLV = CONJG     RDCISV   =        F
     DGAPRX =        T  ISTSYM   =        0

     NUMBER OF CORE -A-  ORBITALS =     8
     NUMBER OF CORE -B-  ORBITALS =     8
     NUMBER OF OCC. -A-  ORBITALS =    28
     NUMBER OF OCC. -B-  ORBITALS =    28
     NUMBER OF MOLECULAR ORBITALS =   150
     NUMBER OF   BASIS  FUNCTIONS =   160


     ------------------------------------------
     THE POINT GROUP IS C1 , NAXIS= 0, ORDER= 1
     ------------------------------------------

     DIMENSIONS OF THE SYMMETRY SUBSPACES ARE
 A   = 160

 ..... DONE SETTING UP THE RUN .....

                         TIMING STATISTICS ON RANK 0:
 CPU        TIME:   STEP =      0.11 ,  TOTAL =        0.2 SECONDS (    0.0 MIN)
 WALL CLOCK TIME:   STEP =      0.13 ,  TOTAL =        0.1 SECONDS (    0.0 MIN)
 CPU UTILIZATION:   STEP =     84.70%,  TOTAL =     161.70%

          ********************
          1 ELECTRON INTEGRALS
          ********************
 ...... END OF ONE-ELECTRON INTEGRALS ......

                         TIMING STATISTICS ON RANK 0:
 CPU        TIME:   STEP =      0.01 ,  TOTAL =        0.2 SECONDS (    0.0 MIN)
 WALL CLOCK TIME:   STEP =      0.01 ,  TOTAL =        0.1 SECONDS (    0.0 MIN)
 CPU UTILIZATION:   STEP =    110.33%,  TOTAL =     158.35%

          -------------
          GUESS OPTIONS
          -------------
          GUESS =HUCKEL            NORB  =       0          NORDER=       0
          MIX   =       F          PRTMO =       F          SYMDEN=       F
          TOLZ  = 0.0E+00          TOLE  = 0.0E+00

 INITIAL GUESS ORBITALS GENERATED BY HUCKEL   ROUTINE.
 HUCKEL GUESS REQUIRES    199152 WORDS.

 LOG10 OF CONDITION NUMBER OF OVERLAP MATRIX IS:  4.35339028E+00

 SYMMETRIES FOR INITIAL GUESS ORBITALS FOLLOW.   BOTH SET(S).
    28 ORBITALS ARE OCCUPIED (    8 CORE ORBITALS).
     9=A       10=A       11=A       12=A       13=A       14=A       15=A   
    16=A       17=A       18=A       19=A       20=A       21=A       22=A   
    23=A       24=A       25=A       26=A       27=A       28=A       29=A   
    30=A       31=A       32=A       33=A       34=A       35=A       36=A   
    37=A       38=A   
 ...... END OF INITIAL ORBITAL SELECTION ......

                         TIMING STATISTICS ON RANK 0:
 CPU        TIME:   STEP =      0.06 ,  TOTAL =        0.3 SECONDS (    0.0 MIN)
 WALL CLOCK TIME:   STEP =      0.06 ,  TOTAL =        0.2 SECONDS (    0.0 MIN)
 CPU UTILIZATION:   STEP =     95.05%,  TOTAL =     138.58%

          --------------------
          2 ELECTRON INTEGRALS
          --------------------

 DIRECT SCF METHOD SKIPS INTEGRAL STORAGE ON DISK.
 DIRECT TRANSFORMATION SKIPS AO INTEGRAL STORAGE ON DISK.
 SCHWARZ INEQUALITY OVERHEAD:     12759 INTEGRALS, CPU TIME=        0.00
 ...... END OF TWO-ELECTRON INTEGRALS .....

                         TIMING STATISTICS ON RANK 0:
 CPU        TIME:   STEP =      0.00 ,  TOTAL =        0.3 SECONDS (    0.0 MIN)
 WALL CLOCK TIME:   STEP =      0.00 ,  TOTAL =        0.2 SECONDS (    0.0 MIN)
 CPU UTILIZATION:   STEP =      0.00%,  TOTAL =     135.39%

          -------------------
          RHF SCF CALCULATION
          -------------------

     NUCLEAR ENERGY =       329.0155399456
     MAXIT =  100     NPUNCH=    2
     EXTRAP=T  DAMP=T  SHIFT=T  RSTRCT=F  DIIS=T  DEM=F  SOSCF=F
     DENSITY CONV=  2.00E-05
     MEMORY REQUIRED FOR RHF STEP=    300948 WORDS.

 DIRECT SCF CALCULATION, SCHWRZ=T   FDIFF=F
 SCHWARZ INEQUALITY OVERHEAD:     12759 INTEGRALS, CPU TIME=        0.01

                                                                                                              NONZERO    BLOCKS
 ITER EX DEM  TOTAL ENERGY      E CHANGE  DENSITY CHANGE    DIIS ERROR      VIR. SHIFT       DAMPING        INTEGRALS   SKIPPED
   1  0  0  -378.085304342  -378.085304342   0.313715166   0.640106924     0.000000000     1.000000000       80508857    152473
          * * *   INITIATING DIIS PROCEDURE   * * *
   2  1  0  -379.056898694    -0.971594353   0.195515664   0.234647421     0.000000000     1.000000000       80699251    157187
   3  2  0  -379.130383996    -0.073485301   0.100503494   0.139882799     0.000000000     1.000000000       80615509    156874
   4  3  0  -379.242371823    -0.111987827   0.013085111   0.016434279     0.000000000     1.000000000       80653857    156472
   5  4  0  -379.244492648    -0.002120825   0.006247009   0.007018002     0.000000000     1.000000000       80660781    156444
   6  5  0  -379.244852721    -0.000360073   0.004245232   0.002449913     0.000000000     1.000000000       80659545    156410
   7  6  0  -379.244931182    -0.000078461   0.001606558   0.000665934     0.000000000     1.000000000       80659589    156384
   8  7  0  -379.244940517    -0.000009335   0.000268619   0.000153510     0.000000000     1.000000000       80659639    156386
   9  8  0  -379.244940827    -0.000000310   0.000045886   0.000041030     0.000000000     1.000000000       80659639    156384
  10  9  0  -379.244940850    -0.000000023   0.000013567   0.000008926     0.000000000     1.000000000       80659639    156384
  11 10  0  -379.244940851    -0.000000001   0.000002157   0.000001455     0.000000000     1.000000000       80659639    156384

          -----------------
          DENSITY CONVERGED
          -----------------
     TIME TO FORM FOCK OPERATORS =      10.71 SECONDS (       0.97 SEC/ITER)
     FOCK TIME ON FIRST ITERATION=       0.99, LAST ITERATION=       0.96
     TIME TO SOLVE SCF EQUATIONS =       0.15 SECONDS (       0.01 SEC/ITER)

 FINAL ENERGY IS     -379.2449408512 AFTER  11 ITERATIONS

          ------------
          EIGENVECTORS
          ------------

                      1          2          3          4          5
                  -20.5861   -20.5861   -11.3531   -11.3530   -11.2907
                     A          A          A          A          A   
    1  C   1  S  -0.000498  -0.000433   0.709096  -0.709056   0.000000
    2  C   1  S  -0.000807  -0.000679   0.004141  -0.004051   0.000000
    3  C   1  S  -0.002286  -0.002024  -0.002769   0.004708   0.000000
    4  C   1  X   0.000000   0.000000   0.000000   0.000000   0.000103
    5  C   1  Y  -0.000251  -0.000291   0.000580  -0.000632   0.000000
    6  C   1  Z   0.000000   0.000000   0.000000   0.000000   0.000000
    7  C   1  X   0.000000   0.000000   0.000000   0.000000  -0.002533
    8  C   1  Y  -0.005330  -0.004320   0.000171  -0.000838   0.000000
    9  C   1  Z   0.000000   0.000000   0.000000   0.000000   0.000000
   10  C   1 XX  -0.000380  -0.000311   0.000164  -0.000192   0.000000
   11  C   1 YY   0.000444   0.000382   0.000502  -0.000469   0.000000
   12  C   1 ZZ  -0.000064  -0.000072  -0.000666   0.000662   0.000000
   13  C   1 XY   0.000000   0.000000   0.000000   0.000000  -0.000135
   14  C   1 XZ   0.000000   0.000000   0.000000   0.000000   0.000000
   15  C   1 YZ   0.000000   0.000000   0.000000   0.000000   0.000000
   16  C   2  S   0.000116   0.000171   0.005955  -0.005866  -0.501018
   17  C   2  S   0.000212   0.000320   0.000109   0.000148  -0.002255
   18  C   2  S  -0.003299  -0.000893  -0.001460  -0.000776   0.004797
   19  C   2  X  -0.000084  -0.000137   0.000027  -0.000073   0.000140
   20  C   2  Y   0.000071   0.000009  -0.000061   0.000037  -0.000062
   21  C   2  Z   0.000000   0.000000   0.000000   0.000000   0.000000
   22  C   2  X   0.001049   0.001101   0.000720   0.000376  -0.000924
   23  C   2  Y   0.001846   0.000826   0.000947   0.000044   0.000817
   24  C   2  Z   0.000000   0.000000   0.000000   0.000000   0.000000
   25  C   2 XX  -0.000215  -0.000163  -0.000320   0.000208  -0.000085
   26  C   2 YY   0.000143   0.000051  -0.000049  -0.000049   0.000021
   27  C   2 ZZ   0.000072   0.000113   0.000369  -0.000159   0.000064
   28  C   2 XY  -0.000357  -0.000157  -0.000014  -0.000130  -0.000033
   29  C   2 XZ   0.000000   0.000000   0.000000   0.000000   0.000000
   30  C   2 YZ   0.000000   0.000000   0.000000   0.000000   0.000000
   31  C   3  S  -0.000116   0.000171  -0.005955  -0.005866  -0.501018
   32  C   3  S  -0.000212   0.000320  -0.000109   0.000148  -0.002255
   33  C   3  S   0.003299  -0.000893   0.001460  -0.000776   0.004797
   34  C   3  X   0.000084  -0.000137  -0.000027  -0.000073   0.000140
   35  C   3  Y   0.000071  -0.000009  -0.000061  -0.000037   0.000062
   36  C   3  Z   0.000000   0.000000   0.000000   0.000000   0.000000
   37  C   3  X  -0.001049   0.001101  -0.000720   0.000376  -0.000924
   38  C   3  Y   0.001846  -0.000826   0.000947  -0.000044  -0.000817
   39  C   3  Z   0.000000   0.000000   0.000000   0.000000   0.000000
   40  C   3 XX   0.000215  -0.000163   0.000320   0.000208  -0.000085
   41  C   3 YY  -0.000143   0.000051   0.000049  -0.000049   0.000021
   42  C   3 ZZ  -0.000072   0.000113  -0.000369  -0.000159   0.000064
   43  C   3 XY  -0.000357   0.000157  -0.000014   0.000130   0.000033
   44  C   3 XZ   0.000000   0.000000   0.000000   0.000000   0.000000
   45  C   3 YZ   0.000000   0.000000   0.000000   0.000000   0.000000
   46  C   4  S   0.000498  -0.000433  -0.709096  -0.709056   0.000000
   47  C   4  S   0.000807  -0.000679  -0.004141  -0.004051   0.000000
   48  C   4  S   0.002286  -0.002024   0.002769   0.004708   0.000000
   49  C   4  X   0.000000   0.000000   0.000000   0.000000   0.000103
   50  C   4  Y  -0.000251   0.000291   0.000580   0.000632   0.000000
   51  C   4  Z   0.000000   0.000000   0.000000   0.000000   0.000000
   52  C   4  X   0.000000   0.000000   0.000000   0.000000  -0.002533
   53  C   4  Y  -0.005330   0.004320   0.000171   0.000838   0.000000
   54  C   4  Z   0.000000   0.000000   0.000000   0.000000   0.000000
   55  C   4 XX   0.000380  -0.000311  -0.000164  -0.000192   0.000000
   56  C   4 YY  -0.000444   0.000382  -0.000502  -0.000469   0.000000
   57  C   4 ZZ   0.000064  -0.000072   0.000666   0.000662   0.000000
   58  C   4 XY   0.000000   0.000000   0.000000   0.000000   0.000135
   59  C   4 XZ   0.000000   0.000000   0.000000   0.000000   0.000000
   60  C   4 YZ   0.000000   0.000000   0.000000   0.000000   0.000000
   61  C   5  S  -0.000116   0.000171  -0.005955  -0.005866   0.501018
   62  C   5  S  -0.000212   0.000320  -0.000109   0.000148   0.002255
   63  C   5  S   0.003299  -0.000893   0.001460  -0.000776  -0.004797
   64  C   5  X  -0.000084   0.000137   0.000027   0.000073   0.000140
   65  C   5  Y   0.000071  -0.000009  -0.000061  -0.000037  -0.000062
   66  C   5  Z   0.000000   0.000000   0.000000   0.000000   0.000000
   67  C   5  X   0.001049  -0.001101   0.000720  -0.000376  -0.000924
   68  C   5  Y   0.001846  -0.000826   0.000947  -0.000044   0.000817
   69  C   5  Z   0.000000   0.000000   0.000000   0.000000   0.000000
   70  C   5 XX   0.000215  -0.000163   0.000320   0.000208   0.000085
   71  C   5 YY  -0.000143   0.000051   0.000049  -0.000049  -0.000021
   72  C   5 ZZ  -0.000072   0.000113  -0.000369  -0.000159  -0.000064
   73  C   5 XY   0.000357  -0.000157   0.000014  -0.000130   0.000033
   74  C   5 XZ   0.000000   0.000000   0.000000   0.000000   0.000000
   75  C   5 YZ   0.000000   0.000000   0.000000   0.000000   0.000000
   76  C   6  S   0.000116   0.000171   0.005955  -0.005866   0.501018
   77  C   6  S   0.000212   0.000320   0.000109   0.000148   0.002255
   78  C   6  S  -0.003299  -0.000893  -0.001460  -0.000776  -0.004797
   79  C   6  X   0.000084   0.000137  -0.000027   0.000073   0.000140
   80  C   6  Y   0.000071   0.000009  -0.000061   0.000037   0.000062
   81  C   6  Z   0.000000   0.000000   0.000000   0.000000   0.000000
   82  C   6  X  -0.001049  -0.001101  -0.000720  -0.000376  -0.000924
   83  C   6  Y   0.001846   0.000826   0.000947   0.000044  -0.000817
   84  C   6  Z   0.000000   0.000000   0.000000   0.000000   0.000000
   85  C   6 XX  -0.000215  -0.000163  -0.000320   0.000208   0.000085
   86  C   6 YY   0.000143   0.000051  -0.000049  -0.000049  -0.000021
   87  C   6 ZZ   0.000072   0.000113   0.000369  -0.000159  -0.000064
   88  C   6 XY   0.000357   0.000157   0.000014   0.000130  -0.000033
   89  C   6 XZ   0.000000   0.000000   0.000000   0.000000   0.000000
   90  C   6 YZ   0.000000   0.000000   0.000000   0.000000   0.000000
   91  O   7  S  -0.708326  -0.708259   0.000099  -0.000067   0.000000
   92  O   7  S  -0.001841  -0.001719   0.000694  -0.000636   0.000000
   93  O   7  S   0.006764   0.006205  -0.001775   0.001592   0.000000
   94  O   7  S   0.001747   0.001465   0.000764  -0.000842   0.000000
   95  O   7  X   0.000000   0.000000   0.000000   0.000000  -0.000034
   96  O   7  Y   0.001298   0.001283  -0.000368   0.000361   0.000000
   97  O   7  Z   0.000000   0.000000   0.000000   0.000000   0.000000
   98  O   7  X   0.000000   0.000000   0.000000   0.000000   0.000376
   99  O   7  Y  -0.002465  -0.002316   0.001673  -0.001485   0.000000
  100  O   7  Z   0.000000   0.000000   0.000000   0.000000   0.000000
  101  O   7  X   0.000000   0.000000   0.000000   0.000000  -0.000080
  102  O   7  Y  -0.000593  -0.000492  -0.000711   0.000748   0.000000
  103  O   7  Z   0.000000   0.000000   0.000000   0.000000   0.000000
  104  O   7 XX  -0.000006  -0.000017  -0.000117   0.000129   0.000000
  105  O   7 YY  -0.000191  -0.000191   0.000229  -0.000238   0.000000
  106  O   7 ZZ   0.000197   0.000209  -0.000113   0.000109   0.000000
  107  O   7 XY   0.000000   0.000000   0.000000   0.000000   0.000039
  108  O   7 XZ   0.000000   0.000000   0.000000   0.000000   0.000000
  109  O   7 YZ   0.000000   0.000000   0.000000   0.000000   0.000000
  110  O   7 XX  -0.000345  -0.000312   0.000298  -0.000307   0.000000
  111  O   7 YY   0.000553   0.000557  -0.000916   0.000888   0.000000
  112  O   7 ZZ  -0.000208  -0.000244   0.000619  -0.000581   0.000000
  113  O   7 XY   0.000000   0.000000   0.000000   0.000000  -0.000127
  114  O   7 XZ   0.000000   0.000000   0.000000   0.000000   0.000000
  115  O   7 YZ   0.000000   0.000000   0.000000   0.000000   0.000000
  116  O   8  S   0.708326  -0.708259  -0.000099  -0.000067   0.000000
  117  O   8  S   0.001841  -0.001719  -0.000694  -0.000636   0.000000
  118  O   8  S  -0.006764   0.006205   0.001775   0.001592   0.000000
  119  O   8  S  -0.001747   0.001465  -0.000764  -0.000842   0.000000
  120  O   8  X   0.000000   0.000000   0.000000   0.000000  -0.000034
  121  O   8  Y   0.001298  -0.001283  -0.000368  -0.000361   0.000000
  122  O   8  Z   0.000000   0.000000   0.000000   0.000000   0.000000
  123  O   8  X   0.000000   0.000000   0.000000   0.000000   0.000376
  124  O   8  Y  -0.002465   0.002316   0.001673   0.001485   0.000000
  125  O   8  Z   0.000000   0.000000   0.000000   0.000000   0.000000
  126  O   8  X   0.000000   0.000000   0.000000   0.000000  -0.000080
  127  O   8  Y  -0.000593   0.000492  -0.000711  -0.000748   0.000000
  128  O   8  Z   0.000000   0.000000   0.000000   0.000000   0.000000
  129  O   8 XX   0.000006  -0.000017   0.000117   0.000129   0.000000
  130  O   8 YY   0.000191  -0.000191  -0.000229  -0.000238   0.000000
  131  O   8 ZZ  -0.000197   0.000209   0.000113   0.000109   0.000000
  132  O   8 XY   0.000000   0.000000   0.000000   0.000000  -0.000039
  133  O   8 XZ   0.000000   0.000000   0.000000   0.000000   0.000000
  134  O   8 YZ   0.000000   0.000000   0.000000   0.000000   0.000000
  135  O   8 XX   0.000345  -0.000312  -0.000298  -0.000307   0.000000
  136  O   8 YY  -0.000553   0.000557   0.000916   0.000888   0.000000
  137  O   8 ZZ   0.000208  -0.000244  -0.000619  -0.000581   0.000000
  138  O   8 XY   0.000000   0.000000   0.000000   0.000000   0.000127
  139  O   8 XZ   0.000000   0.000000   0.000000   0.000000   0.000000
  140  O   8 YZ   0.000000   0.000000   0.000000   0.000000   0.000000
  141  H   9  S   0.000201   0.000018   0.000133  -0.000074   0.000073
  142  H   9  S  -0.000618  -0.000602  -0.000459   0.000029  -0.000465
  143  H   9  X  -0.000137  -0.000082  -0.000128   0.000046  -0.000145
  144  H   9  Y  -0.000092  -0.000044  -0.000090   0.000039  -0.000115
  145  H   9  Z   0.000000   0.000000   0.000000   0.000000   0.000000
  146  H  10  S  -0.000201   0.000018  -0.000133  -0.000074   0.000073
  147  H  10  S   0.000618  -0.000602   0.000459   0.000029  -0.000465
  148  H  10  X   0.000137  -0.000082   0.000128   0.000046  -0.000145
  149  H  10  Y  -0.000092   0.000044  -0.000090  -0.000039   0.000115
  150  H  10  Z   0.000000   0.000000   0.000000   0.000000   0.000000
  151  H  11  S  -0.000201   0.000018  -0.000133  -0.000074  -0.000073
  152  H  11  S   0.000618  -0.000602   0.000459   0.000029   0.000465
  153  H  11  X  -0.000137   0.000082  -0.000128  -0.000046  -0.000145
  154  H  11  Y  -0.000092   0.000044  -0.000090  -0.000039  -0.000115
  155  H  11  Z   0.000000   0.000000   0.000000   0.000000   0.000000
  156  H  12  S   0.000201   0.000018   0.000133  -0.000074  -0.000073
  157  H  12  S  -0.000618  -0.000602  -0.000459   0.000029   0.000465
  158  H  12  X   0.000137   0.000082   0.000128  -0.000046  -0.000145
  159  H  12  Y  -0.000092  -0.000044  -0.000090   0.000039   0.000115
  160  H  12  Z   0.000000   0.000000   0.000000   0.000000   0.000000

                      6          7          8          9         10
                  -11.2907   -11.2895   -11.2895    -1.4234    -1.4199
                     A          A          A          A          A   
    1  C   1  S  -0.008805   0.000000   0.008699   0.010668   0.011829
    2  C   1  S  -0.000260   0.000000   0.000267  -0.168482  -0.159428
    3  C   1  S   0.000965   0.000000  -0.004122  -0.085237  -0.085356
    4  C   1  X   0.000000  -0.000082   0.000000   0.000000   0.000000
    5  C   1  Y  -0.000044   0.000000   0.000001  -0.109888  -0.120486
    6  C   1  Z   0.000000   0.000000   0.000000   0.000000   0.000000
    7  C   1  X   0.000000   0.004083   0.000000   0.000000   0.000000
    8  C   1  Y  -0.003311   0.000000   0.004137   0.021792   0.037834
    9  C   1  Z   0.000000   0.000000   0.000000   0.000000   0.000000
   10  C   1 XX  -0.000183   0.000000   0.000195   0.012812   0.015183
   11  C   1 YY  -0.000144   0.000000   0.000247  -0.026219  -0.027845
   12  C   1 ZZ   0.000327   0.000000  -0.000443   0.013407   0.012661
   13  C   1 XY   0.000000   0.000319   0.000000   0.000000   0.000000
   14  C   1 XZ   0.000000   0.000000   0.000000   0.000000   0.000000
   15  C   1 YZ   0.000000   0.000000   0.000000   0.000000   0.000000
   16  C   2  S   0.500984   0.501332  -0.501350   0.000966   0.000352
   17  C   2  S   0.002270   0.002567  -0.002675  -0.046494  -0.030215
   18  C   2  S  -0.004320  -0.007988   0.009521  -0.007183   0.031534
   19  C   2  X  -0.000149  -0.000149   0.000157   0.024686   0.018962
   20  C   2  Y   0.000126   0.000090  -0.000068  -0.011494  -0.022043
   21  C   2  Z   0.000000   0.000000   0.000000   0.000000   0.000000
   22  C   2  X   0.001204   0.002616  -0.002932  -0.007830  -0.011137
   23  C   2  Y  -0.000045  -0.000106  -0.002241  -0.007280  -0.022032
   24  C   2  Z   0.000000   0.000000   0.000000   0.000000   0.000000
   25  C   2 XX   0.000152   0.000260  -0.000234   0.000542   0.000172
   26  C   2 YY   0.000047   0.000149  -0.000248  -0.002246  -0.001585
   27  C   2 ZZ  -0.000199  -0.000409   0.000481   0.001704   0.001413
   28  C   2 XY   0.000021   0.000062  -0.000040   0.006239   0.011251
   29  C   2 XZ   0.000000   0.000000   0.000000   0.000000   0.000000
   30  C   2 YZ   0.000000   0.000000   0.000000   0.000000   0.000000
   31  C   3  S   0.500984  -0.501332   0.501350   0.000966  -0.000352
   32  C   3  S   0.002270  -0.002567   0.002675  -0.046494   0.030215
   33  C   3  S  -0.004320   0.007988  -0.009521  -0.007183  -0.031534
   34  C   3  X  -0.000149   0.000149  -0.000157   0.024686  -0.018962
   35  C   3  Y  -0.000126   0.000090  -0.000068   0.011494  -0.022043
   36  C   3  Z   0.000000   0.000000   0.000000   0.000000   0.000000
   37  C   3  X   0.001204  -0.002616   0.002932  -0.007830   0.011137
   38  C   3  Y   0.000045  -0.000106  -0.002241   0.007280  -0.022032
   39  C   3  Z   0.000000   0.000000   0.000000   0.000000   0.000000
   40  C   3 XX   0.000152  -0.000260   0.000234   0.000542  -0.000172
   41  C   3 YY   0.000047  -0.000149   0.000248  -0.002246   0.001585
   42  C   3 ZZ  -0.000199   0.000409  -0.000481   0.001704  -0.001413
   43  C   3 XY  -0.000021   0.000062  -0.000040  -0.006239   0.011251
   44  C   3 XZ   0.000000   0.000000   0.000000   0.000000   0.000000
   45  C   3 YZ   0.000000   0.000000   0.000000   0.000000   0.000000
   46  C   4  S  -0.008805   0.000000  -0.008699   0.010668  -0.011829
   47  C   4  S  -0.000260   0.000000  -0.000267  -0.168482   0.159428
   48  C   4  S   0.000965   0.000000   0.004122  -0.085237   0.085356
   49  C   4  X   0.000000   0.000082   0.000000   0.000000   0.000000
   50  C   4  Y   0.000044   0.000000   0.000001   0.109888  -0.120486
   51  C   4  Z   0.000000   0.000000   0.000000   0.000000   0.000000
   52  C   4  X   0.000000  -0.004083   0.000000   0.000000   0.000000
   53  C   4  Y   0.003311   0.000000   0.004137  -0.021792   0.037834
   54  C   4  Z   0.000000   0.000000   0.000000   0.000000   0.000000
   55  C   4 XX  -0.000183   0.000000  -0.000195   0.012812  -0.015183
   56  C   4 YY  -0.000144   0.000000  -0.000247  -0.026219   0.027845
   57  C   4 ZZ   0.000327   0.000000   0.000443   0.013407  -0.012661
   58  C   4 XY   0.000000   0.000319   0.000000   0.000000   0.000000
   59  C   4 XZ   0.000000   0.000000   0.000000   0.000000   0.000000
   60  C   4 YZ   0.000000   0.000000   0.000000   0.000000   0.000000
   61  C   5  S   0.500984   0.501332   0.501350   0.000966  -0.000352
   62  C   5  S   0.002270   0.002567   0.002675  -0.046494   0.030215
   63  C   5  S  -0.004320  -0.007988  -0.009521  -0.007183  -0.031534
   64  C   5  X   0.000149   0.000149   0.000157  -0.024686   0.018962
   65  C   5  Y  -0.000126  -0.000090  -0.000068   0.011494  -0.022043
   66  C   5  Z   0.000000   0.000000   0.000000   0.000000   0.000000
   67  C   5  X  -0.001204  -0.002616  -0.002932   0.007830  -0.011137
   68  C   5  Y   0.000045   0.000106  -0.002241   0.007280  -0.022032
   69  C   5  Z   0.000000   0.000000   0.000000   0.000000   0.000000
   70  C   5 XX   0.000152   0.000260   0.000234   0.000542  -0.000172
   71  C   5 YY   0.000047   0.000149   0.000248  -0.002246   0.001585
   72  C   5 ZZ  -0.000199  -0.000409  -0.000481   0.001704  -0.001413
   73  C   5 XY   0.000021   0.000062   0.000040   0.006239  -0.011251
   74  C   5 XZ   0.000000   0.000000   0.000000   0.000000   0.000000
   75  C   5 YZ   0.000000   0.000000   0.000000   0.000000   0.000000
   76  C   6  S   0.500984  -0.501332  -0.501350   0.000966   0.000352
   77  C   6  S   0.002270  -0.002567  -0.002675  -0.046494  -0.030215
   78  C   6  S  -0.004320   0.007988   0.009521  -0.007183   0.031534
   79  C   6  X   0.000149  -0.000149  -0.000157  -0.024686  -0.018962
   80  C   6  Y   0.000126  -0.000090  -0.000068  -0.011494  -0.022043
   81  C   6  Z   0.000000   0.000000   0.000000   0.000000   0.000000
   82  C   6  X  -0.001204   0.002616   0.002932   0.007830   0.011137
   83  C   6  Y  -0.000045   0.000106  -0.002241  -0.007280  -0.022032
   84  C   6  Z   0.000000   0.000000   0.000000   0.000000   0.000000
   85  C   6 XX   0.000152  -0.000260  -0.000234   0.000542   0.000172
   86  C   6 YY   0.000047  -0.000149  -0.000248  -0.002246  -0.001585
   87  C   6 ZZ  -0.000199   0.000409   0.000481   0.001704   0.001413
   88  C   6 XY  -0.000021   0.000062   0.000040  -0.006239  -0.011251
   89  C   6 XZ   0.000000   0.000000   0.000000   0.000000   0.000000
   90  C   6 YZ   0.000000   0.000000   0.000000   0.000000   0.000000
   91  O   7  S  -0.000177   0.000000   0.000103   0.007442   0.008393
   92  O   7  S  -0.000330   0.000000   0.000193  -0.274444  -0.279274
   93  O   7  S   0.001644   0.000000  -0.001307  -0.267340  -0.281213
   94  O   7  S   0.002363   0.000000  -0.001826  -0.004601  -0.008947
   95  O   7  X   0.000000   0.000059   0.000000   0.000000   0.000000
   96  O   7  Y   0.000014   0.000000   0.000029   0.093621   0.094615
   97  O   7  Z   0.000000   0.000000   0.000000   0.000000   0.000000
   98  O   7  X   0.000000  -0.000744   0.000000   0.000000   0.000000
   99  O   7  Y  -0.000848   0.000000   0.000494   0.027301   0.029207
  100  O   7  Z   0.000000   0.000000   0.000000   0.000000   0.000000
  101  O   7  X   0.000000  -0.000076   0.000000   0.000000   0.000000
  102  O   7  Y  -0.001165   0.000000   0.000860  -0.004327  -0.003224
  103  O   7  Z   0.000000   0.000000   0.000000   0.000000   0.000000
  104  O   7 XX  -0.000023   0.000000   0.000001   0.005791   0.005791
  105  O   7 YY   0.000041   0.000000  -0.000047  -0.011983  -0.012173
  106  O   7 ZZ  -0.000018   0.000000   0.000047   0.006193   0.006382
  107  O   7 XY   0.000000  -0.000041   0.000000   0.000000   0.000000
  108  O   7 XZ   0.000000   0.000000   0.000000   0.000000   0.000000
  109  O   7 YZ   0.000000   0.000000   0.000000   0.000000   0.000000
  110  O   7 XX   0.000049   0.000000  -0.000005  -0.001634  -0.001756
  111  O   7 YY   0.000110   0.000000  -0.000043   0.003749   0.004350
  112  O   7 ZZ  -0.000158   0.000000   0.000048  -0.002115  -0.002594
  113  O   7 XY   0.000000   0.000315   0.000000   0.000000   0.000000
  114  O   7 XZ   0.000000   0.000000   0.000000   0.000000   0.000000
  115  O   7 YZ   0.000000   0.000000   0.000000   0.000000   0.000000
  116  O   8  S  -0.000177   0.000000  -0.000103   0.007442  -0.008393
  117  O   8  S  -0.000330   0.000000  -0.000193  -0.274444   0.279274
  118  O   8  S   0.001644   0.000000   0.001307  -0.267340   0.281213
  119  O   8  S   0.002363   0.000000   0.001826  -0.004601   0.008947
  120  O   8  X   0.000000  -0.000059   0.000000   0.000000   0.000000
  121  O   8  Y  -0.000014   0.000000   0.000029  -0.093621   0.094615
  122  O   8  Z   0.000000   0.000000   0.000000   0.000000   0.000000
  123  O   8  X   0.000000   0.000744   0.000000   0.000000   0.000000
  124  O   8  Y   0.000848   0.000000   0.000494  -0.027301   0.029207
  125  O   8  Z   0.000000   0.000000   0.000000   0.000000   0.000000
  126  O   8  X   0.000000   0.000076   0.000000   0.000000   0.000000
  127  O   8  Y   0.001165   0.000000   0.000860   0.004327  -0.003224
  128  O   8  Z   0.000000   0.000000   0.000000   0.000000   0.000000
  129  O   8 XX  -0.000023   0.000000  -0.000001   0.005791  -0.005791
  130  O   8 YY   0.000041   0.000000   0.000047  -0.011983   0.012173
  131  O   8 ZZ  -0.000018   0.000000  -0.000047   0.006193  -0.006382
  132  O   8 XY   0.000000  -0.000041   0.000000   0.000000   0.000000
  133  O   8 XZ   0.000000   0.000000   0.000000   0.000000   0.000000
  134  O   8 YZ   0.000000   0.000000   0.000000   0.000000   0.000000
  135  O   8 XX   0.000049   0.000000   0.000005  -0.001634   0.001756
  136  O   8 YY   0.000110   0.000000   0.000043   0.003749  -0.004350
  137  O   8 ZZ  -0.000158   0.000000  -0.000048  -0.002115   0.002594
  138  O   8 XY   0.000000   0.000315   0.000000   0.000000   0.000000
  139  O   8 XZ   0.000000   0.000000   0.000000   0.000000   0.000000
  140  O   8 YZ   0.000000   0.000000   0.000000   0.000000   0.000000
  141  H   9  S  -0.000162  -0.000288   0.000323  -0.010832  -0.011084
  142  H   9  S   0.000018   0.000038   0.000607   0.004754   0.005656
  143  H   9  X   0.000162   0.000238  -0.000242   0.002722   0.003679
  144  H   9  Y   0.000121   0.000185  -0.000144   0.001278   0.001281
  145  H   9  Z   0.000000   0.000000   0.000000   0.000000   0.000000
  146  H  10  S  -0.000162   0.000288  -0.000323  -0.010832   0.011084
  147  H  10  S   0.000018  -0.000038  -0.000607   0.004754  -0.005656
  148  H  10  X   0.000162  -0.000238   0.000242   0.002722  -0.003679
  149  H  10  Y  -0.000121   0.000185  -0.000144  -0.001278   0.001281
  150  H  10  Z   0.000000   0.000000   0.000000   0.000000   0.000000
  151  H  11  S  -0.000162  -0.000288  -0.000323  -0.010832   0.011084
  152  H  11  S   0.000018   0.000038  -0.000607   0.004754  -0.005656
  153  H  11  X  -0.000162  -0.000238  -0.000242  -0.002722   0.003679
  154  H  11  Y  -0.000121  -0.000185  -0.000144  -0.001278   0.001281
  155  H  11  Z   0.000000   0.000000   0.000000   0.000000   0.000000
  156  H  12  S  -0.000162   0.000288   0.000323  -0.010832  -0.011084
  157  H  12  S   0.000018  -0.000038   0.000607   0.004754   0.005656
  158  H  12  X  -0.000162   0.000238   0.000242  -0.002722  -0.003679
  159  H  12  Y   0.000121  -0.000185  -0.000144   0.001278   0.001281
  160  H  12  Z   0.000000   0.000000   0.000000   0.000000   0.000000

                     11         12         13         14         15
                   -1.1789    -1.0733    -1.0017    -0.9044    -0.8335
                     A          A          A          A          A   
    1  C   1  S  -0.004432   0.000000   0.007241   0.000000   0.002518
    2  C   1  S   0.116856   0.000000  -0.203742   0.000000  -0.177872
    3  C   1  S   0.050682   0.000000  -0.088713   0.000000  -0.131459
    4  C   1  X   0.000000  -0.136924   0.000000  -0.234000   0.000000
    5  C   1  Y  -0.144777   0.000000   0.152699   0.000000   0.066846
    6  C   1  Z   0.000000   0.000000   0.000000   0.000000   0.000000
    7  C   1  X   0.000000  -0.021175   0.000000  -0.005804   0.000000
    8  C   1  Y   0.013474   0.000000   0.006132   0.000000   0.049163
    9  C   1  Z   0.000000   0.000000   0.000000   0.000000   0.000000
   10  C   1 XX   0.014792   0.000000  -0.022441   0.000000  -0.004598
   11  C   1 YY  -0.007668   0.000000   0.013534   0.000000   0.000493
   12  C   1 ZZ  -0.007123   0.000000   0.008908   0.000000   0.004106
   13  C   1 XY   0.000000   0.021445   0.000000   0.013792   0.000000
   14  C   1 XZ   0.000000   0.000000   0.000000   0.000000   0.000000
   15  C   1 YZ   0.000000   0.000000   0.000000   0.000000   0.000000
   16  C   2  S  -0.013066   0.015456   0.009308   0.008695  -0.006144
   17  C   2  S   0.177957  -0.213104  -0.136184  -0.165081   0.088058
   18  C   2  S   0.116295  -0.143085  -0.143340  -0.174699   0.087596
   19  C   2  X  -0.054750   0.005466   0.073293   0.023533   0.170725
   20  C   2  Y  -0.046055   0.053934  -0.083475  -0.112114  -0.101362
   21  C   2  Z   0.000000   0.000000   0.000000   0.000000   0.000000
   22  C   2  X  -0.028779   0.016206   0.052303   0.049412   0.042265
   23  C   2  Y  -0.019530   0.025137   0.003046  -0.026846  -0.035444
   24  C   2  Z   0.000000   0.000000   0.000000   0.000000   0.000000
   25  C   2 XX   0.003837   0.005902  -0.018316  -0.007229  -0.013580
   26  C   2 YY   0.005300  -0.013882   0.012369   0.003072   0.012978
   27  C   2 ZZ  -0.009137   0.007980   0.005947   0.004157   0.000602
   28  C   2 XY  -0.001631   0.002187   0.009114   0.007630   0.004178
   29  C   2 XZ   0.000000   0.000000   0.000000   0.000000   0.000000
   30  C   2 YZ   0.000000   0.000000   0.000000   0.000000   0.000000
   31  C   3  S  -0.013066   0.015456  -0.009308  -0.008695  -0.006144
   32  C   3  S   0.177957  -0.213104   0.136184   0.165081   0.088058
   33  C   3  S   0.116295  -0.143085   0.143340   0.174699   0.087596
   34  C   3  X  -0.054750   0.005466  -0.073293  -0.023533   0.170725
   35  C   3  Y   0.046055  -0.053934  -0.083475  -0.112114   0.101362
   36  C   3  Z   0.000000   0.000000   0.000000   0.000000   0.000000
   37  C   3  X  -0.028779   0.016206  -0.052303  -0.049412   0.042265
   38  C   3  Y   0.019530  -0.025137   0.003046  -0.026846   0.035444
   39  C   3  Z   0.000000   0.000000   0.000000   0.000000   0.000000
   40  C   3 XX   0.003837   0.005902   0.018316   0.007229  -0.013580
   41  C   3 YY   0.005300  -0.013882  -0.012369  -0.003072   0.012978
   42  C   3 ZZ  -0.009137   0.007980  -0.005947  -0.004157   0.000602
   43  C   3 XY   0.001631  -0.002187   0.009114   0.007630  -0.004178
   44  C   3 XZ   0.000000   0.000000   0.000000   0.000000   0.000000
   45  C   3 YZ   0.000000   0.000000   0.000000   0.000000   0.000000
   46  C   4  S  -0.004432   0.000000  -0.007241   0.000000   0.002518
   47  C   4  S   0.116856   0.000000   0.203742   0.000000  -0.177872
   48  C   4  S   0.050682   0.000000   0.088713   0.000000  -0.131459
   49  C   4  X   0.000000  -0.136924   0.000000   0.234000   0.000000
   50  C   4  Y   0.144777   0.000000   0.152699   0.000000  -0.066846
   51  C   4  Z   0.000000   0.000000   0.000000   0.000000   0.000000
   52  C   4  X   0.000000  -0.021175   0.000000   0.005804   0.000000
   53  C   4  Y  -0.013474   0.000000   0.006132   0.000000  -0.049163
   54  C   4  Z   0.000000   0.000000   0.000000   0.000000   0.000000
   55  C   4 XX   0.014792   0.000000   0.022441   0.000000  -0.004598
   56  C   4 YY  -0.007668   0.000000  -0.013534   0.000000   0.000493
   57  C   4 ZZ  -0.007123   0.000000  -0.008908   0.000000   0.004106
   58  C   4 XY   0.000000  -0.021445   0.000000   0.013792   0.000000
   59  C   4 XZ   0.000000   0.000000   0.000000   0.000000   0.000000
   60  C   4 YZ   0.000000   0.000000   0.000000   0.000000   0.000000
   61  C   5  S  -0.013066  -0.015456  -0.009308   0.008695  -0.006144
   62  C   5  S   0.177957   0.213104   0.136184  -0.165081   0.088058
   63  C   5  S   0.116295   0.143085   0.143340  -0.174699   0.087596
   64  C   5  X   0.054750   0.005466   0.073293  -0.023533  -0.170725
   65  C   5  Y   0.046055   0.053934  -0.083475   0.112114   0.101362
   66  C   5  Z   0.000000   0.000000   0.000000   0.000000   0.000000
   67  C   5  X   0.028779   0.016206   0.052303  -0.049412  -0.042265
   68  C   5  Y   0.019530   0.025137   0.003046   0.026846   0.035444
   69  C   5  Z   0.000000   0.000000   0.000000   0.000000   0.000000
   70  C   5 XX   0.003837  -0.005902   0.018316  -0.007229  -0.013580
   71  C   5 YY   0.005300   0.013882  -0.012369   0.003072   0.012978
   72  C   5 ZZ  -0.009137  -0.007980  -0.005947   0.004157   0.000602
   73  C   5 XY  -0.001631  -0.002187  -0.009114   0.007630   0.004178
   74  C   5 XZ   0.000000   0.000000   0.000000   0.000000   0.000000
   75  C   5 YZ   0.000000   0.000000   0.000000   0.000000   0.000000
   76  C   6  S  -0.013066  -0.015456   0.009308  -0.008695  -0.006144
   77  C   6  S   0.177957   0.213104  -0.136184   0.165081   0.088058
   78  C   6  S   0.116295   0.143085  -0.143340   0.174699   0.087596
   79  C   6  X   0.054750   0.005466  -0.073293   0.023533  -0.170725
   80  C   6  Y  -0.046055  -0.053934  -0.083475   0.112114  -0.101362
   81  C   6  Z   0.000000   0.000000   0.000000   0.000000   0.000000
   82  C   6  X   0.028779   0.016206  -0.052303   0.049412  -0.042265
   83  C   6  Y  -0.019530  -0.025137   0.003046   0.026846  -0.035444
   84  C   6  Z   0.000000   0.000000   0.000000   0.000000   0.000000
   85  C   6 XX   0.003837  -0.005902  -0.018316   0.007229  -0.013580
   86  C   6 YY   0.005300   0.013882   0.012369  -0.003072   0.012978
   87  C   6 ZZ  -0.009137  -0.007980   0.005947  -0.004157   0.000602
   88  C   6 XY   0.001631   0.002187  -0.009114   0.007630  -0.004178
   89  C   6 XZ   0.000000   0.000000   0.000000   0.000000   0.000000
   90  C   6 YZ   0.000000   0.000000   0.000000   0.000000   0.000000
   91  O   7  S   0.002495   0.000000  -0.000892   0.000000   0.001528
   92  O   7  S  -0.113136   0.000000   0.138509   0.000000   0.088774
   93  O   7  S  -0.134246   0.000000   0.168787   0.000000   0.107915
   94  O   7  S  -0.026093   0.000000   0.029213   0.000000   0.021126
   95  O   7  X   0.000000  -0.032770   0.000000  -0.094047   0.000000
   96  O   7  Y   0.006388   0.000000   0.043723   0.000000   0.093161
   97  O   7  Z   0.000000   0.000000   0.000000   0.000000   0.000000
   98  O   7  X   0.000000  -0.020517   0.000000  -0.058802   0.000000
   99  O   7  Y   0.001044   0.000000   0.027933   0.000000   0.052651
  100  O   7  Z   0.000000   0.000000   0.000000   0.000000   0.000000
  101  O   7  X   0.000000   0.000109   0.000000   0.001182   0.000000
  102  O   7  Y   0.010680   0.000000  -0.009319   0.000000  -0.004709
  103  O   7  Z   0.000000   0.000000   0.000000   0.000000   0.000000
  104  O   7 XX   0.000987   0.000000   0.000881   0.000000   0.002530
  105  O   7 YY  -0.002360   0.000000  -0.000962   0.000000  -0.004706
  106  O   7 ZZ   0.001372   0.000000   0.000080   0.000000   0.002176
  107  O   7 XY   0.000000   0.003734   0.000000   0.006859   0.000000
  108  O   7 XZ   0.000000   0.000000   0.000000   0.000000   0.000000
  109  O   7 YZ   0.000000   0.000000   0.000000   0.000000   0.000000
  110  O   7 XX  -0.003140   0.000000   0.004887   0.000000   0.004882
  111  O   7 YY   0.003670   0.000000  -0.006730   0.000000  -0.004444
  112  O   7 ZZ  -0.000530   0.000000   0.001842   0.000000  -0.000438
  113  O   7 XY   0.000000   0.006016   0.000000   0.009484   0.000000
  114  O   7 XZ   0.000000   0.000000   0.000000   0.000000   0.000000
  115  O   7 YZ   0.000000   0.000000   0.000000   0.000000   0.000000
  116  O   8  S   0.002495   0.000000   0.000892   0.000000   0.001528
  117  O   8  S  -0.113136   0.000000  -0.138509   0.000000   0.088774
  118  O   8  S  -0.134246   0.000000  -0.168787   0.000000   0.107915
  119  O   8  S  -0.026093   0.000000  -0.029213   0.000000   0.021126
  120  O   8  X   0.000000  -0.032770   0.000000   0.094047   0.000000
  121  O   8  Y  -0.006388   0.000000   0.043723   0.000000  -0.093161
  122  O   8  Z   0.000000   0.000000   0.000000   0.000000   0.000000
  123  O   8  X   0.000000  -0.020517   0.000000   0.058802   0.000000
  124  O   8  Y  -0.001044   0.000000   0.027933   0.000000  -0.052651
  125  O   8  Z   0.000000   0.000000   0.000000   0.000000   0.000000
  126  O   8  X   0.000000   0.000109   0.000000  -0.001182   0.000000
  127  O   8  Y  -0.010680   0.000000  -0.009319   0.000000   0.004709
  128  O   8  Z   0.000000   0.000000   0.000000   0.000000   0.000000
  129  O   8 XX   0.000987   0.000000  -0.000881   0.000000   0.002530
  130  O   8 YY  -0.002360   0.000000   0.000962   0.000000  -0.004706
  131  O   8 ZZ   0.001372   0.000000  -0.000080   0.000000   0.002176
  132  O   8 XY   0.000000  -0.003734   0.000000   0.006859   0.000000
  133  O   8 XZ   0.000000   0.000000   0.000000   0.000000   0.000000
  134  O   8 YZ   0.000000   0.000000   0.000000   0.000000   0.000000
  135  O   8 XX  -0.003140   0.000000  -0.004887   0.000000   0.004882
  136  O   8 YY   0.003670   0.000000   0.006730   0.000000  -0.004444
  137  O   8 ZZ  -0.000530   0.000000  -0.001842   0.000000  -0.000438
  138  O   8 XY   0.000000  -0.006016   0.000000   0.009484   0.000000
  139  O   8 XZ   0.000000   0.000000   0.000000   0.000000   0.000000
  140  O   8 YZ   0.000000   0.000000   0.000000   0.000000   0.000000
  141  H   9  S   0.045118  -0.086603  -0.057014  -0.113459   0.117517
  142  H   9  S   0.011342  -0.011253  -0.019846  -0.025561   0.017993
  143  H   9  X  -0.006659   0.010814   0.008023   0.013107  -0.009201
  144  H   9  Y  -0.003751   0.007578   0.000239   0.004883  -0.009464
  145  H   9  Z   0.000000   0.000000   0.000000   0.000000   0.000000
  146  H  10  S   0.045118  -0.086603   0.057014   0.113459   0.117517
  147  H  10  S   0.011342  -0.011253   0.019846   0.025561   0.017993
  148  H  10  X  -0.006659   0.010814  -0.008023  -0.013107  -0.009201
  149  H  10  Y   0.003751  -0.007578   0.000239   0.004883   0.009464
  150  H  10  Z   0.000000   0.000000   0.000000   0.000000   0.000000
  151  H  11  S   0.045118   0.086603   0.057014  -0.113459   0.117517
  152  H  11  S   0.011342   0.011253   0.019846  -0.025561   0.017993
  153  H  11  X   0.006659   0.010814   0.008023  -0.013107   0.009201
  154  H  11  Y   0.003751   0.007578   0.000239  -0.004883   0.009464
  155  H  11  Z   0.000000   0.000000   0.000000   0.000000   0.000000
  156  H  12  S   0.045118   0.086603  -0.057014   0.113459   0.117517
  157  H  12  S   0.011342   0.011253  -0.019846   0.025561   0.017993
  158  H  12  X   0.006659   0.010814  -0.008023   0.013107   0.009201
  159  H  12  Y  -0.003751  -0.007578   0.000239  -0.004883  -0.009464
  160  H  12  Z   0.000000   0.000000   0.000000   0.000000   0.000000

                     16         17         18         19         20
                   -0.7308    -0.7188    -0.6890    -0.6468    -0.6367
                     A          A          A          A          A   
    1  C   1  S   0.000000  -0.001390   0.000985  -0.003191   0.000000
    2  C   1  S   0.000000  -0.088435   0.132756   0.024065   0.000000
    3  C   1  S   0.000000  -0.089621   0.180887   0.053376   0.000000
    4  C   1  X  -0.261842   0.000000   0.000000   0.000000  -0.080129
    5  C   1  Y   0.000000  -0.161332   0.101651  -0.258456   0.000000
    6  C   1  Z   0.000000   0.000000   0.000000   0.000000   0.000000
    7  C   1  X  -0.041528   0.000000   0.000000   0.000000   0.041697
    8  C   1  Y   0.000000  -0.023609  -0.036135  -0.073264   0.000000
    9  C   1  Z   0.000000   0.000000   0.000000   0.000000   0.000000
   10  C   1 XX   0.000000  -0.005459  -0.021939   0.004801   0.000000
   11  C   1 YY   0.000000   0.001488   0.025408  -0.009328   0.000000
   12  C   1 ZZ   0.000000   0.003970  -0.003469   0.004526   0.000000
   13  C   1 XY  -0.004259   0.000000   0.000000   0.000000   0.025433
   14  C   1 XZ   0.000000   0.000000   0.000000   0.000000   0.000000
   15  C   1 YZ   0.000000   0.000000   0.000000   0.000000   0.000000
   16  C   2  S  -0.002931  -0.000400   0.006142   0.001601   0.000883
   17  C   2  S   0.020838  -0.005683  -0.089935  -0.015520  -0.029753
   18  C   2  S   0.004004   0.000496  -0.152871  -0.031545  -0.072201
   19  C   2  X   0.123818  -0.101249  -0.115064  -0.155248   0.197793
   20  C   2  Y  -0.198906  -0.133878  -0.055986  -0.026389   0.167541
   21  C   2  Z   0.000000   0.000000   0.000000   0.000000   0.000000
   22  C   2  X   0.045313  -0.049450   0.003135  -0.052239   0.100118
   23  C   2  Y  -0.070843  -0.041223  -0.009514  -0.010442   0.043928
   24  C   2  Z   0.000000   0.000000   0.000000   0.000000   0.000000
   25  C   2 XX  -0.009465  -0.000222  -0.006062   0.009402   0.008023
   26  C   2 YY   0.008696   0.003100   0.006292  -0.007160  -0.009505
   27  C   2 ZZ   0.000769  -0.002879  -0.000231  -0.002242   0.001483
   28  C   2 XY   0.006869   0.005105  -0.020009  -0.014148   0.000093
   29  C   2 XZ   0.000000   0.000000   0.000000   0.000000   0.000000
   30  C   2 YZ   0.000000   0.000000   0.000000   0.000000   0.000000
   31  C   3  S  -0.002931  -0.000400  -0.006142  -0.001601   0.000883
   32  C   3  S   0.020838  -0.005683   0.089935   0.015520  -0.029753
   33  C   3  S   0.004004   0.000496   0.152871   0.031545  -0.072201
   34  C   3  X   0.123818  -0.101249   0.115064   0.155248   0.197793
   35  C   3  Y   0.198906   0.133878  -0.055986  -0.026389  -0.167541
   36  C   3  Z   0.000000   0.000000   0.000000   0.000000   0.000000
   37  C   3  X   0.045313  -0.049450  -0.003135   0.052239   0.100118
   38  C   3  Y   0.070843   0.041223  -0.009514  -0.010442  -0.043928
   39  C   3  Z   0.000000   0.000000   0.000000   0.000000   0.000000
   40  C   3 XX  -0.009465  -0.000222   0.006062  -0.009402   0.008023
   41  C   3 YY   0.008696   0.003100  -0.006292   0.007160  -0.009505
   42  C   3 ZZ   0.000769  -0.002879   0.000231   0.002242   0.001483
   43  C   3 XY  -0.006869  -0.005105  -0.020009  -0.014148  -0.000093
   44  C   3 XZ   0.000000   0.000000   0.000000   0.000000   0.000000
   45  C   3 YZ   0.000000   0.000000   0.000000   0.000000   0.000000
   46  C   4  S   0.000000  -0.001390  -0.000985   0.003191   0.000000
   47  C   4  S   0.000000  -0.088435  -0.132756  -0.024065   0.000000
   48  C   4  S   0.000000  -0.089621  -0.180887  -0.053376   0.000000
   49  C   4  X  -0.261842   0.000000   0.000000   0.000000  -0.080129
   50  C   4  Y   0.000000   0.161332   0.101651  -0.258456   0.000000
   51  C   4  Z   0.000000   0.000000   0.000000   0.000000   0.000000
   52  C   4  X  -0.041528   0.000000   0.000000   0.000000   0.041697
   53  C   4  Y   0.000000   0.023609  -0.036135  -0.073264   0.000000
   54  C   4  Z   0.000000   0.000000   0.000000   0.000000   0.000000
   55  C   4 XX   0.000000  -0.005459   0.021939  -0.004801   0.000000
   56  C   4 YY   0.000000   0.001488  -0.025408   0.009328   0.000000
   57  C   4 ZZ   0.000000   0.003970   0.003469  -0.004526   0.000000
   58  C   4 XY   0.004259   0.000000   0.000000   0.000000  -0.025433
   59  C   4 XZ   0.000000   0.000000   0.000000   0.000000   0.000000
   60  C   4 YZ   0.000000   0.000000   0.000000   0.000000   0.000000
   61  C   5  S   0.002931  -0.000400  -0.006142  -0.001601  -0.000883
   62  C   5  S  -0.020838  -0.005683   0.089935   0.015520   0.029753
   63  C   5  S  -0.004004   0.000496   0.152871   0.031545   0.072201
   64  C   5  X   0.123818   0.101249  -0.115064  -0.155248   0.197793
   65  C   5  Y  -0.198906   0.133878  -0.055986  -0.026389   0.167541
   66  C   5  Z   0.000000   0.000000   0.000000   0.000000   0.000000
   67  C   5  X   0.045313   0.049450   0.003135  -0.052239   0.100118
   68  C   5  Y  -0.070843   0.041223  -0.009514  -0.010442   0.043928
   69  C   5  Z   0.000000   0.000000   0.000000   0.000000   0.000000
   70  C   5 XX   0.009465  -0.000222   0.006062  -0.009402  -0.008023
   71  C   5 YY  -0.008696   0.003100  -0.006292   0.007160   0.009505
   72  C   5 ZZ  -0.000769  -0.002879   0.000231   0.002242  -0.001483
   73  C   5 XY  -0.006869   0.005105   0.020009   0.014148  -0.000093
   74  C   5 XZ   0.000000   0.000000   0.000000   0.000000   0.000000
   75  C   5 YZ   0.000000   0.000000   0.000000   0.000000   0.000000
   76  C   6  S   0.002931  -0.000400   0.006142   0.001601  -0.000883
   77  C   6  S  -0.020838  -0.005683  -0.089935  -0.015520   0.029753
   78  C   6  S  -0.004004   0.000496  -0.152871  -0.031545   0.072201
   79  C   6  X   0.123818   0.101249   0.115064   0.155248   0.197793
   80  C   6  Y   0.198906  -0.133878  -0.055986  -0.026389  -0.167541
   81  C   6  Z   0.000000   0.000000   0.000000   0.000000   0.000000
   82  C   6  X   0.045313   0.049450  -0.003135   0.052239   0.100118
   83  C   6  Y   0.070843  -0.041223  -0.009514  -0.010442  -0.043928
   84  C   6  Z   0.000000   0.000000   0.000000   0.000000   0.000000
   85  C   6 XX   0.009465  -0.000222  -0.006062   0.009402  -0.008023
   86  C   6 YY  -0.008696   0.003100   0.006292  -0.007160   0.009505
   87  C   6 ZZ  -0.000769  -0.002879  -0.000231  -0.002242  -0.001483
   88  C   6 XY   0.006869  -0.005105   0.020009   0.014148   0.000093
   89  C   6 XZ   0.000000   0.000000   0.000000   0.000000   0.000000
   90  C   6 YZ   0.000000   0.000000   0.000000   0.000000   0.000000
   91  O   7  S   0.000000  -0.000312  -0.001602   0.000090   0.000000
   92  O   7  S   0.000000   0.124930  -0.090647   0.081063   0.000000
   93  O   7  S   0.000000   0.217480  -0.154037   0.161944   0.000000
   94  O   7  S   0.000000   0.040135  -0.031454   0.044978   0.000000
   95  O   7  X  -0.188483   0.000000   0.000000   0.000000   0.025435
   96  O   7  Y   0.000000   0.255235  -0.244384   0.270759   0.000000
   97  O   7  Z   0.000000   0.000000   0.000000   0.000000   0.000000
   98  O   7  X  -0.117259   0.000000   0.000000   0.000000   0.005707
   99  O   7  Y   0.000000   0.132515  -0.124730   0.145182   0.000000
  100  O   7  Z   0.000000   0.000000   0.000000   0.000000   0.000000
  101  O   7  X  -0.000703   0.000000   0.000000   0.000000   0.003446
  102  O   7  Y   0.000000   0.009488  -0.007142   0.009332   0.000000
  103  O   7  Z   0.000000   0.000000   0.000000   0.000000   0.000000
  104  O   7 XX   0.000000   0.006629  -0.006640   0.006819   0.000000
  105  O   7 YY   0.000000  -0.012417   0.012114  -0.013176   0.000000
  106  O   7 ZZ   0.000000   0.005788  -0.005473   0.006357   0.000000
  107  O   7 XY   0.009962   0.000000   0.000000   0.000000   0.001461
  108  O   7 XZ   0.000000   0.000000   0.000000   0.000000   0.000000
  109  O   7 YZ   0.000000   0.000000   0.000000   0.000000   0.000000
  110  O   7 XX   0.000000   0.002087  -0.001562   0.000802   0.000000
  111  O   7 YY   0.000000  -0.005053  -0.000112  -0.002125   0.000000
  112  O   7 ZZ   0.000000   0.002967   0.001674   0.001323   0.000000
  113  O   7 XY   0.009372   0.000000   0.000000   0.000000   0.003618
  114  O   7 XZ   0.000000   0.000000   0.000000   0.000000   0.000000
  115  O   7 YZ   0.000000   0.000000   0.000000   0.000000   0.000000
  116  O   8  S   0.000000  -0.000312   0.001602  -0.000090   0.000000
  117  O   8  S   0.000000   0.124930   0.090647  -0.081063   0.000000
  118  O   8  S   0.000000   0.217480   0.154037  -0.161944   0.000000
  119  O   8  S   0.000000   0.040135   0.031454  -0.044978   0.000000
  120  O   8  X  -0.188483   0.000000   0.000000   0.000000   0.025435
  121  O   8  Y   0.000000  -0.255235  -0.244384   0.270759   0.000000
  122  O   8  Z   0.000000   0.000000   0.000000   0.000000   0.000000
  123  O   8  X  -0.117259   0.000000   0.000000   0.000000   0.005707
  124  O   8  Y   0.000000  -0.132515  -0.124730   0.145182   0.000000
  125  O   8  Z   0.000000   0.000000   0.000000   0.000000   0.000000
  126  O   8  X  -0.000703   0.000000   0.000000   0.000000   0.003446
  127  O   8  Y   0.000000  -0.009488  -0.007142   0.009332   0.000000
  128  O   8  Z   0.000000   0.000000   0.000000   0.000000   0.000000
  129  O   8 XX   0.000000   0.006629   0.006640  -0.006819   0.000000
  130  O   8 YY   0.000000  -0.012417  -0.012114   0.013176   0.000000
  131  O   8 ZZ   0.000000   0.005788   0.005473  -0.006357   0.000000
  132  O   8 XY  -0.009962   0.000000   0.000000   0.000000  -0.001461
  133  O   8 XZ   0.000000   0.000000   0.000000   0.000000   0.000000
  134  O   8 YZ   0.000000   0.000000   0.000000   0.000000   0.000000
  135  O   8 XX   0.000000   0.002087   0.001562  -0.000802   0.000000
  136  O   8 YY   0.000000  -0.005053   0.000112   0.002125   0.000000
  137  O   8 ZZ   0.000000   0.002967  -0.001674  -0.001323   0.000000
  138  O   8 XY  -0.009372   0.000000   0.000000   0.000000  -0.003618
  139  O   8 XZ   0.000000   0.000000   0.000000   0.000000   0.000000
  140  O   8 YZ   0.000000   0.000000   0.000000   0.000000   0.000000
  141  H   9  S   0.020488  -0.117544  -0.165277  -0.132424   0.192443
  142  H   9  S   0.000698  -0.021119  -0.057925  -0.040046   0.051736
  143  H   9  X   0.000806   0.009955   0.009688   0.007274  -0.013174
  144  H   9  Y  -0.005602   0.003737   0.006895   0.007639  -0.004729
  145  H   9  Z   0.000000   0.000000   0.000000   0.000000   0.000000
  146  H  10  S   0.020488  -0.117544   0.165277   0.132424   0.192443
  147  H  10  S   0.000698  -0.021119   0.057925   0.040046   0.051736
  148  H  10  X   0.000806   0.009955  -0.009688  -0.007274  -0.013174
  149  H  10  Y   0.005602  -0.003737   0.006895   0.007639   0.004729
  150  H  10  Z   0.000000   0.000000   0.000000   0.000000   0.000000
  151  H  11  S  -0.020488  -0.117544   0.165277   0.132424  -0.192443
  152  H  11  S  -0.000698  -0.021119   0.057925   0.040046  -0.051736
  153  H  11  X   0.000806  -0.009955   0.009688   0.007274  -0.013174
  154  H  11  Y  -0.005602  -0.003737   0.006895   0.007639  -0.004729
  155  H  11  Z   0.000000   0.000000   0.000000   0.000000   0.000000
  156  H  12  S  -0.020488  -0.117544  -0.165277  -0.132424  -0.192443
  157  H  12  S  -0.000698  -0.021119  -0.057925  -0.040046  -0.051736
  158  H  12  X   0.000806  -0.009955  -0.009688  -0.007274  -0.013174
  159  H  12  Y   0.005602   0.003737   0.006895   0.007639   0.004729
  160  H  12  Z   0.000000   0.000000   0.000000   0.000000   0.000000

                     21         22         23         24         25
                   -0.6094    -0.5933    -0.5867    -0.5600    -0.4637
                     A          A          A          A          A   
    1  C   1  S   0.000000   0.000000  -0.004167   0.000000   0.000000
    2  C   1  S   0.000000   0.000000   0.006426   0.000000   0.000000
    3  C   1  S   0.000000   0.000000   0.018302   0.000000   0.000000
    4  C   1  X   0.000000   0.186593   0.000000   0.000000   0.105691
    5  C   1  Y   0.000000   0.000000  -0.204215   0.000000   0.000000
    6  C   1  Z   0.237673   0.000000   0.000000  -0.248416   0.000000
    7  C   1  X   0.000000  -0.026402   0.000000   0.000000   0.082503
    8  C   1  Y   0.000000   0.000000  -0.043566   0.000000   0.000000
    9  C   1  Z   0.107072   0.000000   0.000000  -0.121389   0.000000
   10  C   1 XX   0.000000   0.000000   0.032901   0.000000   0.000000
   11  C   1 YY   0.000000   0.000000  -0.037835   0.000000   0.000000
   12  C   1 ZZ   0.000000   0.000000   0.004934   0.000000   0.000000
   13  C   1 XY   0.000000   0.007050   0.000000   0.000000  -0.047113
   14  C   1 XZ   0.000000   0.000000   0.000000   0.000000   0.000000
   15  C   1 YZ   0.008985   0.000000   0.000000  -0.024815   0.000000
   16  C   2  S   0.000000   0.003198  -0.001505   0.000000  -0.002160
   17  C   2  S   0.000000  -0.047162  -0.011413   0.000000   0.026065
   18  C   2  S   0.000000  -0.031793   0.001732   0.000000   0.012659
   19  C   2  X   0.000000  -0.175985   0.004587   0.000000  -0.074862
   20  C   2  Y   0.000000  -0.020997   0.243634   0.000000   0.153632
   21  C   2  Z   0.146730   0.000000   0.000000  -0.053916   0.000000
   22  C   2  X   0.000000  -0.100274   0.001987   0.000000  -0.033259
   23  C   2  Y   0.000000   0.034923   0.090029   0.000000   0.047546
   24  C   2  Z   0.081254   0.000000   0.000000  -0.028744   0.000000
   25  C   2 XX   0.000000  -0.000619   0.018246   0.000000   0.002391
   26  C   2 YY   0.000000   0.001823  -0.017200   0.000000  -0.003519
   27  C   2 ZZ   0.000000  -0.001204  -0.001046   0.000000   0.001128
   28  C   2 XY   0.000000  -0.021705   0.001338   0.000000  -0.001911
   29  C   2 XZ  -0.013415   0.000000   0.000000   0.011505   0.000000
   30  C   2 YZ  -0.005509   0.000000   0.000000  -0.009077   0.000000
   31  C   3  S   0.000000  -0.003198  -0.001505   0.000000  -0.002160
   32  C   3  S   0.000000   0.047162  -0.011413   0.000000   0.026065
   33  C   3  S   0.000000   0.031793   0.001732   0.000000   0.012659
   34  C   3  X   0.000000   0.175985   0.004587   0.000000  -0.074862
   35  C   3  Y   0.000000  -0.020997  -0.243634   0.000000  -0.153632
   36  C   3  Z   0.146730   0.000000   0.000000   0.053916   0.000000
   37  C   3  X   0.000000   0.100274   0.001987   0.000000  -0.033259
   38  C   3  Y   0.000000   0.034923  -0.090029   0.000000  -0.047546
   39  C   3  Z   0.081254   0.000000   0.000000   0.028744   0.000000
   40  C   3 XX   0.000000   0.000619   0.018246   0.000000   0.002391
   41  C   3 YY   0.000000  -0.001823  -0.017200   0.000000  -0.003519
   42  C   3 ZZ   0.000000   0.001204  -0.001046   0.000000   0.001128
   43  C   3 XY   0.000000  -0.021705  -0.001338   0.000000   0.001911
   44  C   3 XZ  -0.013415   0.000000   0.000000  -0.011505   0.000000
   45  C   3 YZ   0.005509   0.000000   0.000000  -0.009077   0.000000
   46  C   4  S   0.000000   0.000000  -0.004167   0.000000   0.000000
   47  C   4  S   0.000000   0.000000   0.006426   0.000000   0.000000
   48  C   4  S   0.000000   0.000000   0.018302   0.000000   0.000000
   49  C   4  X   0.000000  -0.186593   0.000000   0.000000   0.105691
   50  C   4  Y   0.000000   0.000000   0.204215   0.000000   0.000000
   51  C   4  Z   0.237673   0.000000   0.000000   0.248416   0.000000
   52  C   4  X   0.000000   0.026402   0.000000   0.000000   0.082503
   53  C   4  Y   0.000000   0.000000   0.043566   0.000000   0.000000
   54  C   4  Z   0.107072   0.000000   0.000000   0.121389   0.000000
   55  C   4 XX   0.000000   0.000000   0.032901   0.000000   0.000000
   56  C   4 YY   0.000000   0.000000  -0.037835   0.000000   0.000000
   57  C   4 ZZ   0.000000   0.000000   0.004934   0.000000   0.000000
   58  C   4 XY   0.000000   0.007050   0.000000   0.000000   0.047113
   59  C   4 XZ   0.000000   0.000000   0.000000   0.000000   0.000000
   60  C   4 YZ  -0.008985   0.000000   0.000000  -0.024815   0.000000
   61  C   5  S   0.000000   0.003198  -0.001505   0.000000   0.002160
   62  C   5  S   0.000000  -0.047162  -0.011413   0.000000  -0.026065
   63  C   5  S   0.000000  -0.031793   0.001732   0.000000  -0.012659
   64  C   5  X   0.000000   0.175985  -0.004587   0.000000  -0.074862
   65  C   5  Y   0.000000   0.020997  -0.243634   0.000000   0.153632
   66  C   5  Z   0.146730   0.000000   0.000000   0.053916   0.000000
   67  C   5  X   0.000000   0.100274  -0.001987   0.000000  -0.033259
   68  C   5  Y   0.000000  -0.034923  -0.090029   0.000000   0.047546
   69  C   5  Z   0.081254   0.000000   0.000000   0.028744   0.000000
   70  C   5 XX   0.000000  -0.000619   0.018246   0.000000  -0.002391
   71  C   5 YY   0.000000   0.001823  -0.017200   0.000000   0.003519
   72  C   5 ZZ   0.000000  -0.001204  -0.001046   0.000000  -0.001128
   73  C   5 XY   0.000000  -0.021705   0.001338   0.000000   0.001911
   74  C   5 XZ   0.013415   0.000000   0.000000   0.011505   0.000000
   75  C   5 YZ   0.005509   0.000000   0.000000  -0.009077   0.000000
   76  C   6  S   0.000000  -0.003198  -0.001505   0.000000   0.002160
   77  C   6  S   0.000000   0.047162  -0.011413   0.000000  -0.026065
   78  C   6  S   0.000000   0.031793   0.001732   0.000000  -0.012659
   79  C   6  X   0.000000  -0.175985  -0.004587   0.000000  -0.074862
   80  C   6  Y   0.000000   0.020997   0.243634   0.000000  -0.153632
   81  C   6  Z   0.146730   0.000000   0.000000  -0.053916   0.000000
   82  C   6  X   0.000000  -0.100274  -0.001987   0.000000  -0.033259
   83  C   6  Y   0.000000  -0.034923   0.090029   0.000000  -0.047546
   84  C   6  Z   0.081254   0.000000   0.000000  -0.028744   0.000000
   85  C   6 XX   0.000000   0.000619   0.018246   0.000000  -0.002391
   86  C   6 YY   0.000000  -0.001823  -0.017200   0.000000   0.003519
   87  C   6 ZZ   0.000000   0.001204  -0.001046   0.000000  -0.001128
   88  C   6 XY   0.000000  -0.021705  -0.001338   0.000000  -0.001911
   89  C   6 XZ   0.013415   0.000000   0.000000  -0.011505   0.000000
   90  C   6 YZ  -0.005509   0.000000   0.000000  -0.009077   0.000000
   91  O   7  S   0.000000   0.000000   0.000852   0.000000   0.000000
   92  O   7  S   0.000000   0.000000   0.035118   0.000000   0.000000
   93  O   7  S   0.000000   0.000000   0.088335   0.000000   0.000000
   94  O   7  S   0.000000   0.000000   0.034723   0.000000   0.000000
   95  O   7  X   0.000000   0.241279   0.000000   0.000000  -0.411409
   96  O   7  Y   0.000000   0.000000   0.249294   0.000000   0.000000
   97  O   7  Z   0.233677   0.000000   0.000000  -0.321401   0.000000
   98  O   7  X   0.000000   0.173606   0.000000   0.000000  -0.315058
   99  O   7  Y   0.000000   0.000000   0.130964   0.000000   0.000000
  100  O   7  Z   0.160682   0.000000   0.000000  -0.229314   0.000000
  101  O   7  X   0.000000   0.016340   0.000000   0.000000  -0.062498
  102  O   7  Y   0.000000   0.000000   0.010873   0.000000   0.000000
  103  O   7  Z   0.010480   0.000000   0.000000  -0.025724   0.000000
  104  O   7 XX   0.000000   0.000000   0.006585   0.000000   0.000000
  105  O   7 YY   0.000000   0.000000  -0.012039   0.000000   0.000000
  106  O   7 ZZ   0.000000   0.000000   0.005455   0.000000   0.000000
  107  O   7 XY   0.000000  -0.010311   0.000000   0.000000   0.007475
  108  O   7 XZ   0.000000   0.000000   0.000000   0.000000   0.000000
  109  O   7 YZ  -0.014515   0.000000   0.000000   0.017273   0.000000
  110  O   7 XX   0.000000   0.000000  -0.000434   0.000000   0.000000
  111  O   7 YY   0.000000   0.000000   0.003880   0.000000   0.000000
  112  O   7 ZZ   0.000000   0.000000  -0.003446   0.000000   0.000000
  113  O   7 XY   0.000000  -0.011831   0.000000   0.000000   0.011293
  114  O   7 XZ   0.000000   0.000000   0.000000   0.000000   0.000000
  115  O   7 YZ  -0.015869   0.000000   0.000000   0.021487   0.000000
  116  O   8  S   0.000000   0.000000   0.000852   0.000000   0.000000
  117  O   8  S   0.000000   0.000000   0.035118   0.000000   0.000000
  118  O   8  S   0.000000   0.000000   0.088335   0.000000   0.000000
  119  O   8  S   0.000000   0.000000   0.034723   0.000000   0.000000
  120  O   8  X   0.000000  -0.241279   0.000000   0.000000  -0.411409
  121  O   8  Y   0.000000   0.000000  -0.249294   0.000000   0.000000
  122  O   8  Z   0.233677   0.000000   0.000000   0.321401   0.000000
  123  O   8  X   0.000000  -0.173606   0.000000   0.000000  -0.315058
  124  O   8  Y   0.000000   0.000000  -0.130964   0.000000   0.000000
  125  O   8  Z   0.160682   0.000000   0.000000   0.229314   0.000000
  126  O   8  X   0.000000  -0.016340   0.000000   0.000000  -0.062498
  127  O   8  Y   0.000000   0.000000  -0.010873   0.000000   0.000000
  128  O   8  Z   0.010480   0.000000   0.000000   0.025724   0.000000
  129  O   8 XX   0.000000   0.000000   0.006585   0.000000   0.000000
  130  O   8 YY   0.000000   0.000000  -0.012039   0.000000   0.000000
  131  O   8 ZZ   0.000000   0.000000   0.005455   0.000000   0.000000
  132  O   8 XY   0.000000  -0.010311   0.000000   0.000000  -0.007475
  133  O   8 XZ   0.000000   0.000000   0.000000   0.000000   0.000000
  134  O   8 YZ   0.014515   0.000000   0.000000   0.017273   0.000000
  135  O   8 XX   0.000000   0.000000  -0.000434   0.000000   0.000000
  136  O   8 YY   0.000000   0.000000   0.003880   0.000000   0.000000
  137  O   8 ZZ   0.000000   0.000000  -0.003446   0.000000   0.000000
  138  O   8 XY   0.000000  -0.011831   0.000000   0.000000  -0.011293
  139  O   8 XZ   0.000000   0.000000   0.000000   0.000000   0.000000
  140  O   8 YZ   0.015869   0.000000   0.000000   0.021487   0.000000
  141  H   9  S   0.000000  -0.183194   0.107923   0.000000   0.030759
  142  H   9  S   0.000000  -0.065653   0.042533   0.000000   0.021809
  143  H   9  X   0.000000   0.009585  -0.008537   0.000000  -0.003501
  144  H   9  Y   0.000000   0.009578   0.002206   0.000000  -0.001135
  145  H   9  Z   0.005098   0.000000   0.000000  -0.002349   0.000000
  146  H  10  S   0.000000   0.183194   0.107923   0.000000   0.030759
  147  H  10  S   0.000000   0.065653   0.042533   0.000000   0.021809
  148  H  10  X   0.000000  -0.009585  -0.008537   0.000000  -0.003501
  149  H  10  Y   0.000000   0.009578  -0.002206   0.000000   0.001135
  150  H  10  Z   0.005098   0.000000   0.000000   0.002349   0.000000
  151  H  11  S   0.000000  -0.183194   0.107923   0.000000  -0.030759
  152  H  11  S   0.000000  -0.065653   0.042533   0.000000  -0.021809
  153  H  11  X   0.000000  -0.009585   0.008537   0.000000  -0.003501
  154  H  11  Y   0.000000  -0.009578  -0.002206   0.000000  -0.001135
  155  H  11  Z   0.005098   0.000000   0.000000   0.002349   0.000000
  156  H  12  S   0.000000   0.183194   0.107923   0.000000  -0.030759
  157  H  12  S   0.000000   0.065653   0.042533   0.000000  -0.021809
  158  H  12  X   0.000000   0.009585   0.008537   0.000000  -0.003501
  159  H  12  Y   0.000000  -0.009578   0.002206   0.000000   0.001135
  160  H  12  Z   0.005098   0.000000   0.000000  -0.002349   0.000000

                     26         27         28         29         30
                   -0.4628    -0.4010    -0.3973    -0.0176     0.1048
                     A          A          A          A          A   
    1  C   1  S   0.000000   0.000000   0.000000   0.000000   0.000000
    2  C   1  S   0.000000   0.000000   0.000000   0.000000   0.000000
    3  C   1  S   0.000000   0.000000   0.000000   0.000000   0.000000
    4  C   1  X  -0.158003   0.000000   0.000000   0.000000   0.000000
    5  C   1  Y   0.000000   0.000000   0.000000   0.000000   0.000000
    6  C   1  Z   0.000000  -0.044243   0.000000  -0.203756   0.000000
    7  C   1  X  -0.095109   0.000000   0.000000   0.000000   0.000000
    8  C   1  Y   0.000000   0.000000   0.000000   0.000000   0.000000
    9  C   1  Z   0.000000  -0.038756   0.000000  -0.180496   0.000000
   10  C   1 XX   0.000000   0.000000   0.000000   0.000000   0.000000
   11  C   1 YY   0.000000   0.000000   0.000000   0.000000   0.000000
   12  C   1 ZZ   0.000000   0.000000   0.000000   0.000000   0.000000
   13  C   1 XY   0.057101   0.000000   0.000000   0.000000   0.000000
   14  C   1 XZ   0.000000   0.000000   0.028707   0.000000   0.039235
   15  C   1 YZ   0.000000  -0.042064   0.000000   0.038609   0.000000
   16  C   2  S   0.001826   0.000000   0.000000   0.000000   0.000000
   17  C   2  S  -0.059508   0.000000   0.000000   0.000000   0.000000
   18  C   2  S  -0.114053   0.000000   0.000000   0.000000   0.000000
   19  C   2  X   0.154241   0.000000   0.000000   0.000000   0.000000
   20  C   2  Y  -0.032709   0.000000   0.000000   0.000000   0.000000
   21  C   2  Z   0.000000   0.197175   0.280660  -0.185978   0.272400
   22  C   2  X   0.076113   0.000000   0.000000   0.000000   0.000000
   23  C   2  Y   0.045135   0.000000   0.000000   0.000000   0.000000
   24  C   2  Z   0.000000   0.168525   0.221119  -0.230667   0.495463
   25  C   2 XX   0.003065   0.000000   0.000000   0.000000   0.000000
   26  C   2 YY  -0.002524   0.000000   0.000000   0.000000   0.000000
   27  C   2 ZZ  -0.000542   0.000000   0.000000   0.000000   0.000000
   28  C   2 XY   0.022148   0.000000   0.000000   0.000000   0.000000
   29  C   2 XZ   0.000000  -0.004894  -0.004275   0.013856  -0.004120
   30  C   2 YZ   0.000000  -0.020481  -0.022197  -0.016920   0.022901
   31  C   3  S  -0.001826   0.000000   0.000000   0.000000   0.000000
   32  C   3  S   0.059508   0.000000   0.000000   0.000000   0.000000
   33  C   3  S   0.114053   0.000000   0.000000   0.000000   0.000000
   34  C   3  X  -0.154241   0.000000   0.000000   0.000000   0.000000
   35  C   3  Y  -0.032709   0.000000   0.000000   0.000000   0.000000
   36  C   3  Z   0.000000   0.197175   0.280660   0.185978  -0.272400
   37  C   3  X  -0.076113   0.000000   0.000000   0.000000   0.000000
   38  C   3  Y   0.045135   0.000000   0.000000   0.000000   0.000000
   39  C   3  Z   0.000000   0.168525   0.221119   0.230667  -0.495463
   40  C   3 XX  -0.003065   0.000000   0.000000   0.000000   0.000000
   41  C   3 YY   0.002524   0.000000   0.000000   0.000000   0.000000
   42  C   3 ZZ   0.000542   0.000000   0.000000   0.000000   0.000000
   43  C   3 XY   0.022148   0.000000   0.000000   0.000000   0.000000
   44  C   3 XZ   0.000000  -0.004894  -0.004275  -0.013856   0.004120
   45  C   3 YZ   0.000000   0.020481   0.022197  -0.016920   0.022901
   46  C   4  S   0.000000   0.000000   0.000000   0.000000   0.000000
   47  C   4  S   0.000000   0.000000   0.000000   0.000000   0.000000
   48  C   4  S   0.000000   0.000000   0.000000   0.000000   0.000000
   49  C   4  X   0.158003   0.000000   0.000000   0.000000   0.000000
   50  C   4  Y   0.000000   0.000000   0.000000   0.000000   0.000000
   51  C   4  Z   0.000000  -0.044243   0.000000   0.203756   0.000000
   52  C   4  X   0.095109   0.000000   0.000000   0.000000   0.000000
   53  C   4  Y   0.000000   0.000000   0.000000   0.000000   0.000000
   54  C   4  Z   0.000000  -0.038756   0.000000   0.180496   0.000000
   55  C   4 XX   0.000000   0.000000   0.000000   0.000000   0.000000
   56  C   4 YY   0.000000   0.000000   0.000000   0.000000   0.000000
   57  C   4 ZZ   0.000000   0.000000   0.000000   0.000000   0.000000
   58  C   4 XY   0.057101   0.000000   0.000000   0.000000   0.000000
   59  C   4 XZ   0.000000   0.000000   0.028707   0.000000  -0.039235
   60  C   4 YZ   0.000000   0.042064   0.000000   0.038609   0.000000
   61  C   5  S   0.001826   0.000000   0.000000   0.000000   0.000000
   62  C   5  S  -0.059508   0.000000   0.000000   0.000000   0.000000
   63  C   5  S  -0.114053   0.000000   0.000000   0.000000   0.000000
   64  C   5  X  -0.154241   0.000000   0.000000   0.000000   0.000000
   65  C   5  Y   0.032709   0.000000   0.000000   0.000000   0.000000
   66  C   5  Z   0.000000   0.197175  -0.280660   0.185978   0.272400
   67  C   5  X  -0.076113   0.000000   0.000000   0.000000   0.000000
   68  C   5  Y  -0.045135   0.000000   0.000000   0.000000   0.000000
   69  C   5  Z   0.000000   0.168525  -0.221119   0.230667   0.495463
   70  C   5 XX   0.003065   0.000000   0.000000   0.000000   0.000000
   71  C   5 YY  -0.002524   0.000000   0.000000   0.000000   0.000000
   72  C   5 ZZ  -0.000542   0.000000   0.000000   0.000000   0.000000
   73  C   5 XY   0.022148   0.000000   0.000000   0.000000   0.000000
   74  C   5 XZ   0.000000   0.004894  -0.004275   0.013856   0.004120
   75  C   5 YZ   0.000000   0.020481  -0.022197  -0.016920  -0.022901
   76  C   6  S  -0.001826   0.000000   0.000000   0.000000   0.000000
   77  C   6  S   0.059508   0.000000   0.000000   0.000000   0.000000
   78  C   6  S   0.114053   0.000000   0.000000   0.000000   0.000000
   79  C   6  X   0.154241   0.000000   0.000000   0.000000   0.000000
   80  C   6  Y   0.032709   0.000000   0.000000   0.000000   0.000000
   81  C   6  Z   0.000000   0.197175  -0.280660  -0.185978  -0.272400
   82  C   6  X   0.076113   0.000000   0.000000   0.000000   0.000000
   83  C   6  Y  -0.045135   0.000000   0.000000   0.000000   0.000000
   84  C   6  Z   0.000000   0.168525  -0.221119  -0.230667  -0.495463
   85  C   6 XX  -0.003065   0.000000   0.000000   0.000000   0.000000
   86  C   6 YY   0.002524   0.000000   0.000000   0.000000   0.000000
   87  C   6 ZZ   0.000542   0.000000   0.000000   0.000000   0.000000
   88  C   6 XY   0.022148   0.000000   0.000000   0.000000   0.000000
   89  C   6 XZ   0.000000   0.004894  -0.004275  -0.013856  -0.004120
   90  C   6 YZ   0.000000  -0.020481   0.022197  -0.016920  -0.022901
   91  O   7  S   0.000000   0.000000   0.000000   0.000000   0.000000
   92  O   7  S   0.000000   0.000000   0.000000   0.000000   0.000000
   93  O   7  S   0.000000   0.000000   0.000000   0.000000   0.000000
   94  O   7  S   0.000000   0.000000   0.000000   0.000000   0.000000
   95  O   7  X   0.369585   0.000000   0.000000   0.000000   0.000000
   96  O   7  Y   0.000000   0.000000   0.000000   0.000000   0.000000
   97  O   7  Z   0.000000  -0.289505   0.000000   0.261115   0.000000
   98  O   7  X   0.277019   0.000000   0.000000   0.000000   0.000000
   99  O   7  Y   0.000000   0.000000   0.000000   0.000000   0.000000
  100  O   7  Z   0.000000  -0.231339   0.000000   0.257533   0.000000
  101  O   7  X   0.055051   0.000000   0.000000   0.000000   0.000000
  102  O   7  Y   0.000000   0.000000   0.000000   0.000000   0.000000
  103  O   7  Z   0.000000  -0.046988   0.000000   0.081310   0.000000
  104  O   7 XX   0.000000   0.000000   0.000000   0.000000   0.000000
  105  O   7 YY   0.000000   0.000000   0.000000   0.000000   0.000000
  106  O   7 ZZ   0.000000   0.000000   0.000000   0.000000   0.000000
  107  O   7 XY  -0.004936   0.000000   0.000000   0.000000   0.000000
  108  O   7 XZ   0.000000   0.000000   0.001315   0.000000   0.001365
  109  O   7 YZ   0.000000   0.009188   0.000000   0.000159   0.000000
  110  O   7 XX   0.000000   0.000000   0.000000   0.000000   0.000000
  111  O   7 YY   0.000000   0.000000   0.000000   0.000000   0.000000
  112  O   7 ZZ   0.000000   0.000000   0.000000   0.000000   0.000000
  113  O   7 XY  -0.005899   0.000000   0.000000   0.000000   0.000000
  114  O   7 XZ   0.000000   0.000000  -0.002695   0.000000   0.015902
  115  O   7 YZ   0.000000   0.018355   0.000000  -0.003604   0.000000
  116  O   8  S   0.000000   0.000000   0.000000   0.000000   0.000000
  117  O   8  S   0.000000   0.000000   0.000000   0.000000   0.000000
  118  O   8  S   0.000000   0.000000   0.000000   0.000000   0.000000
  119  O   8  S   0.000000   0.000000   0.000000   0.000000   0.000000
  120  O   8  X  -0.369585   0.000000   0.000000   0.000000   0.000000
  121  O   8  Y   0.000000   0.000000   0.000000   0.000000   0.000000
  122  O   8  Z   0.000000  -0.289505   0.000000  -0.261115   0.000000
  123  O   8  X  -0.277019   0.000000   0.000000   0.000000   0.000000
  124  O   8  Y   0.000000   0.000000   0.000000   0.000000   0.000000
  125  O   8  Z   0.000000  -0.231339   0.000000  -0.257533   0.000000
  126  O   8  X  -0.055051   0.000000   0.000000   0.000000   0.000000
  127  O   8  Y   0.000000   0.000000   0.000000   0.000000   0.000000
  128  O   8  Z   0.000000  -0.046988   0.000000  -0.081310   0.000000
  129  O   8 XX   0.000000   0.000000   0.000000   0.000000   0.000000
  130  O   8 YY   0.000000   0.000000   0.000000   0.000000   0.000000
  131  O   8 ZZ   0.000000   0.000000   0.000000   0.000000   0.000000
  132  O   8 XY  -0.004936   0.000000   0.000000   0.000000   0.000000
  133  O   8 XZ   0.000000   0.000000   0.001315   0.000000  -0.001365
  134  O   8 YZ   0.000000  -0.009188   0.000000   0.000159   0.000000
  135  O   8 XX   0.000000   0.000000   0.000000   0.000000   0.000000
  136  O   8 YY   0.000000   0.000000   0.000000   0.000000   0.000000
  137  O   8 ZZ   0.000000   0.000000   0.000000   0.000000   0.000000
  138  O   8 XY  -0.005899   0.000000   0.000000   0.000000   0.000000
  139  O   8 XZ   0.000000   0.000000  -0.002695   0.000000  -0.015902
  140  O   8 YZ   0.000000  -0.018355   0.000000  -0.003604   0.000000
  141  H   9  S   0.082129   0.000000   0.000000   0.000000   0.000000
  142  H   9  S   0.034220   0.000000   0.000000   0.000000   0.000000
  143  H   9  X   0.000236   0.000000   0.000000   0.000000   0.000000
  144  H   9  Y  -0.001727   0.000000   0.000000   0.000000   0.000000
  145  H   9  Z   0.000000   0.006073   0.010054  -0.007366   0.014214
  146  H  10  S  -0.082129   0.000000   0.000000   0.000000   0.000000
  147  H  10  S  -0.034220   0.000000   0.000000   0.000000   0.000000
  148  H  10  X  -0.000236   0.000000   0.000000   0.000000   0.000000
  149  H  10  Y  -0.001727   0.000000   0.000000   0.000000   0.000000
  150  H  10  Z   0.000000   0.006073   0.010054   0.007366  -0.014214
  151  H  11  S   0.082129   0.000000   0.000000   0.000000   0.000000
  152  H  11  S   0.034220   0.000000   0.000000   0.000000   0.000000
  153  H  11  X  -0.000236   0.000000   0.000000   0.000000   0.000000
  154  H  11  Y   0.001727   0.000000   0.000000   0.000000   0.000000
  155  H  11  Z   0.000000   0.006073  -0.010054   0.007366   0.014214
  156  H  12  S  -0.082129   0.000000   0.000000   0.000000   0.000000
  157  H  12  S  -0.034220   0.000000   0.000000   0.000000   0.000000
  158  H  12  X   0.000236   0.000000   0.000000   0.000000   0.000000
  159  H  12  Y   0.001727   0.000000   0.000000   0.000000   0.000000
  160  H  12  Z   0.000000   0.006073  -0.010054  -0.007366  -0.014214

                     31         32         33         34         35
                    0.1689     0.1755     0.1833     0.1912     0.1936
                     A          A          A          A          A   
    1  C   1  S   0.000000   0.003668   0.000000   0.001562   0.006655
    2  C   1  S   0.000000   0.006872   0.000000  -0.049790  -0.008622
    3  C   1  S   0.000000   0.037148   0.000000  -0.924708   1.007591
    4  C   1  X   0.000000   0.000000  -0.028088   0.000000   0.000000
    5  C   1  Y   0.000000   0.023884   0.000000  -0.010491  -0.001516
    6  C   1  Z   0.288635   0.000000   0.000000   0.000000   0.000000
    7  C   1  X   0.000000   0.000000  -0.304302   0.000000   0.000000
    8  C   1  Y   0.000000  -0.115289   0.000000  -0.895718   0.160837
    9  C   1  Z   0.674454   0.000000   0.000000   0.000000   0.000000
   10  C   1 XX   0.000000   0.019129   0.000000   0.014301  -0.007748
   11  C   1 YY   0.000000  -0.019560   0.000000  -0.049717   0.040875
   12  C   1 ZZ   0.000000   0.000430   0.000000   0.035417  -0.033127
   13  C   1 XY   0.000000   0.000000  -0.009839   0.000000   0.000000
   14  C   1 XZ   0.000000   0.000000   0.000000   0.000000   0.000000
   15  C   1 YZ  -0.007752   0.000000   0.000000   0.000000   0.000000
   16  C   2  S   0.000000  -0.019078   0.010579   0.014368   0.007189
   17  C   2  S   0.000000   0.057984  -0.022586  -0.011487   0.071919
   18  C   2  S   0.000000   0.716394  -0.378915  -0.448523   0.151088
   19  C   2  X   0.000000   0.075174  -0.117787   0.007796   0.031976
   20  C   2  Y   0.000000   0.067516  -0.038193   0.001689   0.016606
   21  C   2  Z  -0.055510   0.000000   0.000000   0.000000   0.000000
   22  C   2  X   0.000000   0.336483  -0.427467   0.335133   0.565470
   23  C   2  Y   0.000000   0.293016  -0.187546   0.031343   0.003927
   24  C   2  Z  -0.188061   0.000000   0.000000   0.000000   0.000000
   25  C   2 XX   0.000000  -0.004627  -0.005996  -0.026169   0.004486
   26  C   2 YY   0.000000   0.008193   0.000966  -0.001330  -0.012011
   27  C   2 ZZ   0.000000  -0.003566   0.005030   0.027498   0.007525
   28  C   2 XY   0.000000  -0.004307  -0.000062  -0.001200   0.008652
   29  C   2 XZ  -0.023748   0.000000   0.000000   0.000000   0.000000
   30  C   2 YZ   0.008267   0.000000   0.000000   0.000000   0.000000
   31  C   3  S   0.000000  -0.019078   0.010579   0.014368  -0.007189
   32  C   3  S   0.000000   0.057984  -0.022586  -0.011487  -0.071919
   33  C   3  S   0.000000   0.716394  -0.378915  -0.448523  -0.151088
   34  C   3  X   0.000000   0.075174  -0.117787   0.007796  -0.031976
   35  C   3  Y   0.000000  -0.067516   0.038193  -0.001689   0.016606
   36  C   3  Z  -0.055510   0.000000   0.000000   0.000000   0.000000
   37  C   3  X   0.000000   0.336483  -0.427467   0.335133  -0.565470
   38  C   3  Y   0.000000  -0.293016   0.187546  -0.031343   0.003927
   39  C   3  Z  -0.188061   0.000000   0.000000   0.000000   0.000000
   40  C   3 XX   0.000000  -0.004627  -0.005996  -0.026169  -0.004486
   41  C   3 YY   0.000000   0.008193   0.000966  -0.001330   0.012011
   42  C   3 ZZ   0.000000  -0.003566   0.005030   0.027498  -0.007525
   43  C   3 XY   0.000000   0.004307   0.000062   0.001200   0.008652
   44  C   3 XZ  -0.023748   0.000000   0.000000   0.000000   0.000000
   45  C   3 YZ  -0.008267   0.000000   0.000000   0.000000   0.000000
   46  C   4  S   0.000000   0.003668   0.000000   0.001562  -0.006655
   47  C   4  S   0.000000   0.006872   0.000000  -0.049790   0.008622
   48  C   4  S   0.000000   0.037148   0.000000  -0.924708  -1.007591
   49  C   4  X   0.000000   0.000000  -0.028088   0.000000   0.000000
   50  C   4  Y   0.000000  -0.023884   0.000000   0.010491  -0.001516
   51  C   4  Z   0.288635   0.000000   0.000000   0.000000   0.000000
   52  C   4  X   0.000000   0.000000  -0.304302   0.000000   0.000000
   53  C   4  Y   0.000000   0.115289   0.000000   0.895718   0.160837
   54  C   4  Z   0.674454   0.000000   0.000000   0.000000   0.000000
   55  C   4 XX   0.000000   0.019129   0.000000   0.014301   0.007748
   56  C   4 YY   0.000000  -0.019560   0.000000  -0.049717  -0.040875
   57  C   4 ZZ   0.000000   0.000430   0.000000   0.035417   0.033127
   58  C   4 XY   0.000000   0.000000   0.009839   0.000000   0.000000
   59  C   4 XZ   0.000000   0.000000   0.000000   0.000000   0.000000
   60  C   4 YZ   0.007752   0.000000   0.000000   0.000000   0.000000
   61  C   5  S   0.000000  -0.019078  -0.010579   0.014368  -0.007189
   62  C   5  S   0.000000   0.057984   0.022586  -0.011487  -0.071919
   63  C   5  S   0.000000   0.716394   0.378915  -0.448523  -0.151088
   64  C   5  X   0.000000  -0.075174  -0.117787  -0.007796   0.031976
   65  C   5  Y   0.000000  -0.067516  -0.038193  -0.001689   0.016606
   66  C   5  Z  -0.055510   0.000000   0.000000   0.000000   0.000000
   67  C   5  X   0.000000  -0.336483  -0.427467  -0.335133   0.565470
   68  C   5  Y   0.000000  -0.293016  -0.187546  -0.031343   0.003927
   69  C   5  Z  -0.188061   0.000000   0.000000   0.000000   0.000000
   70  C   5 XX   0.000000  -0.004627   0.005996  -0.026169  -0.004486
   71  C   5 YY   0.000000   0.008193  -0.000966  -0.001330   0.012011
   72  C   5 ZZ   0.000000  -0.003566  -0.005030   0.027498  -0.007525
   73  C   5 XY   0.000000  -0.004307   0.000062  -0.001200  -0.008652
   74  C   5 XZ   0.023748   0.000000   0.000000   0.000000   0.000000
   75  C   5 YZ  -0.008267   0.000000   0.000000   0.000000   0.000000
   76  C   6  S   0.000000  -0.019078  -0.010579   0.014368   0.007189
   77  C   6  S   0.000000   0.057984   0.022586  -0.011487   0.071919
   78  C   6  S   0.000000   0.716394   0.378915  -0.448523   0.151088
   79  C   6  X   0.000000  -0.075174  -0.117787  -0.007796  -0.031976
   80  C   6  Y   0.000000   0.067516   0.038193   0.001689   0.016606
   81  C   6  Z  -0.055510   0.000000   0.000000   0.000000   0.000000
   82  C   6  X   0.000000  -0.336483  -0.427467  -0.335133  -0.565470
   83  C   6  Y   0.000000   0.293016   0.187546   0.031343   0.003927
   84  C   6  Z  -0.188061   0.000000   0.000000   0.000000   0.000000
   85  C   6 XX   0.000000  -0.004627   0.005996  -0.026169   0.004486
   86  C   6 YY   0.000000   0.008193  -0.000966  -0.001330  -0.012011
   87  C   6 ZZ   0.000000  -0.003566  -0.005030   0.027498   0.007525
   88  C   6 XY   0.000000   0.004307  -0.000062   0.001200  -0.008652
   89  C   6 XZ   0.023748   0.000000   0.000000   0.000000   0.000000
   90  C   6 YZ   0.008267   0.000000   0.000000   0.000000   0.000000
   91  O   7  S   0.000000  -0.005149   0.000000  -0.016578   0.006841
   92  O   7  S   0.000000  -0.002806   0.000000  -0.036467   0.086624
   93  O   7  S   0.000000   0.100591   0.000000   0.240902   0.079894
   94  O   7  S   0.000000  -0.075521   0.000000   1.656964  -0.760481
   95  O   7  X   0.000000   0.000000  -0.053172   0.000000   0.000000
   96  O   7  Y   0.000000   0.059216   0.000000   0.029951   0.034936
   97  O   7  Z  -0.102248   0.000000   0.000000   0.000000   0.000000
   98  O   7  X   0.000000   0.000000  -0.080447   0.000000   0.000000
   99  O   7  Y   0.000000   0.081871   0.000000  -0.214113   0.324770
  100  O   7  Z  -0.108400   0.000000   0.000000   0.000000   0.000000
  101  O   7  X   0.000000   0.000000   0.507253   0.000000   0.000000
  102  O   7  Y   0.000000  -0.107827   0.000000  -1.370497  -0.404786
  103  O   7  Z  -0.662395   0.000000   0.000000   0.000000   0.000000
  104  O   7 XX   0.000000  -0.000872   0.000000   0.003791   0.000057
  105  O   7 YY   0.000000   0.000841   0.000000  -0.010932  -0.006055
  106  O   7 ZZ   0.000000   0.000031   0.000000   0.007141   0.005998
  107  O   7 XY   0.000000   0.000000   0.010372   0.000000   0.000000
  108  O   7 XZ   0.000000   0.000000   0.000000   0.000000   0.000000
  109  O   7 YZ  -0.016568   0.000000   0.000000   0.000000   0.000000
  110  O   7 XX   0.000000   0.007653   0.000000  -0.048293   0.030743
  111  O   7 YY   0.000000  -0.012368   0.000000   0.087965  -0.034760
  112  O   7 ZZ   0.000000   0.004715   0.000000  -0.039672   0.004016
  113  O   7 XY   0.000000   0.000000  -0.032732   0.000000   0.000000
  114  O   7 XZ   0.000000   0.000000   0.000000   0.000000   0.000000
  115  O   7 YZ   0.037976   0.000000   0.000000   0.000000   0.000000
  116  O   8  S   0.000000  -0.005149   0.000000  -0.016578  -0.006841
  117  O   8  S   0.000000  -0.002806   0.000000  -0.036467  -0.086624
  118  O   8  S   0.000000   0.100591   0.000000   0.240902  -0.079894
  119  O   8  S   0.000000  -0.075521   0.000000   1.656964   0.760481
  120  O   8  X   0.000000   0.000000  -0.053172   0.000000   0.000000
  121  O   8  Y   0.000000  -0.059216   0.000000  -0.029951   0.034936
  122  O   8  Z  -0.102248   0.000000   0.000000   0.000000   0.000000
  123  O   8  X   0.000000   0.000000  -0.080447   0.000000   0.000000
  124  O   8  Y   0.000000  -0.081871   0.000000   0.214113   0.324770
  125  O   8  Z  -0.108400   0.000000   0.000000   0.000000   0.000000
  126  O   8  X   0.000000   0.000000   0.507253   0.000000   0.000000
  127  O   8  Y   0.000000   0.107827   0.000000   1.370497  -0.404786
  128  O   8  Z  -0.662395   0.000000   0.000000   0.000000   0.000000
  129  O   8 XX   0.000000  -0.000872   0.000000   0.003791  -0.000057
  130  O   8 YY   0.000000   0.000841   0.000000  -0.010932   0.006055
  131  O   8 ZZ   0.000000   0.000031   0.000000   0.007141  -0.005998
  132  O   8 XY   0.000000   0.000000  -0.010372   0.000000   0.000000
  133  O   8 XZ   0.000000   0.000000   0.000000   0.000000   0.000000
  134  O   8 YZ   0.016568   0.000000   0.000000   0.000000   0.000000
  135  O   8 XX   0.000000   0.007653   0.000000  -0.048293  -0.030743
  136  O   8 YY   0.000000  -0.012368   0.000000   0.087965   0.034760
  137  O   8 ZZ   0.000000   0.004715   0.000000  -0.039672  -0.004016
  138  O   8 XY   0.000000   0.000000   0.032732   0.000000   0.000000
  139  O   8 XZ   0.000000   0.000000   0.000000   0.000000   0.000000
  140  O   8 YZ  -0.037976   0.000000   0.000000   0.000000   0.000000
  141  H   9  S   0.000000  -0.040340   0.013542  -0.033693   0.004171
  142  H   9  S   0.000000  -0.992297   0.736577  -0.390775  -0.637869
  143  H   9  X   0.000000   0.006555  -0.007994  -0.001558   0.003323
  144  H   9  Y   0.000000   0.006250  -0.002242   0.002005   0.002915
  145  H   9  Z  -0.007068   0.000000   0.000000   0.000000   0.000000
  146  H  10  S   0.000000  -0.040340   0.013542  -0.033693  -0.004171
  147  H  10  S   0.000000  -0.992297   0.736577  -0.390775   0.637869
  148  H  10  X   0.000000   0.006555  -0.007994  -0.001558  -0.003323
  149  H  10  Y   0.000000  -0.006250   0.002242  -0.002005   0.002915
  150  H  10  Z  -0.007068   0.000000   0.000000   0.000000   0.000000
  151  H  11  S   0.000000  -0.040340  -0.013542  -0.033693  -0.004171
  152  H  11  S   0.000000  -0.992297  -0.736577  -0.390775   0.637869
  153  H  11  X   0.000000  -0.006555  -0.007994   0.001558   0.003323
  154  H  11  Y   0.000000  -0.006250  -0.002242  -0.002005   0.002915
  155  H  11  Z  -0.007068   0.000000   0.000000   0.000000   0.000000
  156  H  12  S   0.000000  -0.040340  -0.013542  -0.033693   0.004171
  157  H  12  S   0.000000  -0.992297  -0.736577  -0.390775  -0.637869
  158  H  12  X   0.000000  -0.006555  -0.007994   0.001558  -0.003323
  159  H  12  Y   0.000000   0.006250   0.002242   0.002005   0.002915
  160  H  12  Z  -0.007068   0.000000   0.000000   0.000000   0.000000

                     36         37         38         39         40
                    0.2017     0.2045     0.2150     0.2314     0.2349
                     A          A          A          A          A   
    1  C   1  S   0.000000   0.000000  -0.010543   0.000000   0.011518
    2  C   1  S   0.000000   0.000000  -0.033033   0.000000   0.002617
    3  C   1  S   0.000000   0.000000  -0.742032   0.000000  -1.333758
    4  C   1  X   0.000000  -0.014484   0.000000   0.000000   0.000000
    5  C   1  Y   0.000000   0.000000   0.043001   0.000000  -0.063156
    6  C   1  Z   0.131389   0.000000   0.000000  -0.195376   0.000000
    7  C   1  X   0.000000   0.902442   0.000000   0.000000   0.000000
    8  C   1  Y   0.000000   0.000000  -0.749007   0.000000  -0.156821
    9  C   1  Z   0.462095   0.000000   0.000000  -0.280335   0.000000
   10  C   1 XX   0.000000   0.000000   0.017806   0.000000  -0.002803
   11  C   1 YY   0.000000   0.000000  -0.058072   0.000000  -0.029727
   12  C   1 ZZ   0.000000   0.000000   0.040266   0.000000   0.032530
   13  C   1 XY   0.000000   0.008652   0.000000   0.000000   0.000000
   14  C   1 XZ   0.000000   0.000000   0.000000   0.000000   0.000000
   15  C   1 YZ   0.008491   0.000000   0.000000   0.013376   0.000000
   16  C   2  S   0.000000   0.016562  -0.001595   0.000000  -0.002781
   17  C   2  S   0.000000   0.067105   0.012676   0.000000  -0.061265
   18  C   2  S   0.000000  -0.551758   0.156920   0.000000   0.104444
   19  C   2  X   0.000000   0.080766   0.015795   0.000000  -0.034394
   20  C   2  Y   0.000000   0.014993  -0.027304   0.000000  -0.037198
   21  C   2  Z  -0.027869   0.000000   0.000000   0.118645   0.000000
   22  C   2  X   0.000000   0.840253   0.211502   0.000000  -0.378627
   23  C   2  Y   0.000000   0.224644   0.227236   0.000000  -0.590258
   24  C   2  Z  -0.177443   0.000000   0.000000   0.177540   0.000000
   25  C   2 XX   0.000000   0.014857  -0.020934   0.000000  -0.009080
   26  C   2 YY   0.000000  -0.030835   0.010634   0.000000   0.018501
   27  C   2 ZZ   0.000000   0.015978   0.010300   0.000000  -0.009421
   28  C   2 XY   0.000000   0.012361  -0.012446   0.000000  -0.004557
   29  C   2 XZ  -0.003269   0.000000   0.000000   0.023302   0.000000
   30  C   2 YZ  -0.002555   0.000000   0.000000  -0.021865   0.000000
   31  C   3  S   0.000000  -0.016562  -0.001595   0.000000   0.002781
   32  C   3  S   0.000000  -0.067105   0.012676   0.000000   0.061265
   33  C   3  S   0.000000   0.551758   0.156920   0.000000  -0.104444
   34  C   3  X   0.000000  -0.080766   0.015795   0.000000   0.034394
   35  C   3  Y   0.000000   0.014993   0.027304   0.000000  -0.037198
   36  C   3  Z   0.027869   0.000000   0.000000   0.118645   0.000000
   37  C   3  X   0.000000  -0.840253   0.211502   0.000000   0.378627
   38  C   3  Y   0.000000   0.224644  -0.227236   0.000000  -0.590258
   39  C   3  Z   0.177443   0.000000   0.000000   0.177540   0.000000
   40  C   3 XX   0.000000  -0.014857  -0.020934   0.000000   0.009080
   41  C   3 YY   0.000000   0.030835   0.010634   0.000000  -0.018501
   42  C   3 ZZ   0.000000  -0.015978   0.010300   0.000000   0.009421
   43  C   3 XY   0.000000   0.012361   0.012446   0.000000  -0.004557
   44  C   3 XZ   0.003269   0.000000   0.000000   0.023302   0.000000
   45  C   3 YZ  -0.002555   0.000000   0.000000   0.021865   0.000000
   46  C   4  S   0.000000   0.000000  -0.010543   0.000000  -0.011518
   47  C   4  S   0.000000   0.000000  -0.033033   0.000000  -0.002617
   48  C   4  S   0.000000   0.000000  -0.742032   0.000000   1.333758
   49  C   4  X   0.000000   0.014484   0.000000   0.000000   0.000000
   50  C   4  Y   0.000000   0.000000  -0.043001   0.000000  -0.063156
   51  C   4  Z  -0.131389   0.000000   0.000000  -0.195376   0.000000
   52  C   4  X   0.000000  -0.902442   0.000000   0.000000   0.000000
   53  C   4  Y   0.000000   0.000000   0.749007   0.000000  -0.156821
   54  C   4  Z  -0.462095   0.000000   0.000000  -0.280335   0.000000
   55  C   4 XX   0.000000   0.000000   0.017806   0.000000   0.002803
   56  C   4 YY   0.000000   0.000000  -0.058072   0.000000   0.029727
   57  C   4 ZZ   0.000000   0.000000   0.040266   0.000000  -0.032530
   58  C   4 XY   0.000000   0.008652   0.000000   0.000000   0.000000
   59  C   4 XZ   0.000000   0.000000   0.000000   0.000000   0.000000
   60  C   4 YZ   0.008491   0.000000   0.000000  -0.013376   0.000000
   61  C   5  S   0.000000   0.016562  -0.001595   0.000000   0.002781
   62  C   5  S   0.000000   0.067105   0.012676   0.000000   0.061265
   63  C   5  S   0.000000  -0.551758   0.156920   0.000000  -0.104444
   64  C   5  X   0.000000  -0.080766  -0.015795   0.000000  -0.034394
   65  C   5  Y   0.000000  -0.014993   0.027304   0.000000  -0.037198
   66  C   5  Z   0.027869   0.000000   0.000000   0.118645   0.000000
   67  C   5  X   0.000000  -0.840253  -0.211502   0.000000  -0.378627
   68  C   5  Y   0.000000  -0.224644  -0.227236   0.000000  -0.590258
   69  C   5  Z   0.177443   0.000000   0.000000   0.177540   0.000000
   70  C   5 XX   0.000000   0.014857  -0.020934   0.000000   0.009080
   71  C   5 YY   0.000000  -0.030835   0.010634   0.000000  -0.018501
   72  C   5 ZZ   0.000000   0.015978   0.010300   0.000000   0.009421
   73  C   5 XY   0.000000   0.012361  -0.012446   0.000000   0.004557
   74  C   5 XZ  -0.003269   0.000000   0.000000  -0.023302   0.000000
   75  C   5 YZ  -0.002555   0.000000   0.000000   0.021865   0.000000
   76  C   6  S   0.000000  -0.016562  -0.001595   0.000000  -0.002781
   77  C   6  S   0.000000  -0.067105   0.012676   0.000000  -0.061265
   78  C   6  S   0.000000   0.551758   0.156920   0.000000   0.104444
   79  C   6  X   0.000000   0.080766  -0.015795   0.000000   0.034394
   80  C   6  Y   0.000000  -0.014993  -0.027304   0.000000  -0.037198
   81  C   6  Z  -0.027869   0.000000   0.000000   0.118645   0.000000
   82  C   6  X   0.000000   0.840253  -0.211502   0.000000   0.378627
   83  C   6  Y   0.000000  -0.224644   0.227236   0.000000  -0.590258
   84  C   6  Z  -0.177443   0.000000   0.000000   0.177540   0.000000
   85  C   6 XX   0.000000  -0.014857  -0.020934   0.000000  -0.009080
   86  C   6 YY   0.000000   0.030835   0.010634   0.000000   0.018501
   87  C   6 ZZ   0.000000  -0.015978   0.010300   0.000000  -0.009421
   88  C   6 XY   0.000000   0.012361   0.012446   0.000000   0.004557
   89  C   6 XZ   0.003269   0.000000   0.000000  -0.023302   0.000000
   90  C   6 YZ  -0.002555   0.000000   0.000000  -0.021865   0.000000
   91  O   7  S   0.000000   0.000000  -0.010146   0.000000  -0.009823
   92  O   7  S   0.000000   0.000000  -0.106040   0.000000  -0.017820
   93  O   7  S   0.000000   0.000000  -0.028188   0.000000   0.086282
   94  O   7  S   0.000000   0.000000   1.458508   0.000000   1.234348
   95  O   7  X   0.000000   0.099801   0.000000   0.000000   0.000000
   96  O   7  Y   0.000000   0.000000  -0.026451   0.000000   0.032899
   97  O   7  Z   0.057065   0.000000   0.000000   0.223363   0.000000
   98  O   7  X   0.000000   0.058260   0.000000   0.000000   0.000000
   99  O   7  Y   0.000000   0.000000  -0.403801   0.000000  -0.144240
  100  O   7  Z   0.125666   0.000000   0.000000   0.383134   0.000000
  101  O   7  X   0.000000  -0.795487   0.000000   0.000000   0.000000
  102  O   7  Y   0.000000   0.000000   0.127694   0.000000  -1.315855
  103  O   7  Z  -0.893928   0.000000   0.000000  -0.621336   0.000000
  104  O   7 XX   0.000000   0.000000  -0.001347   0.000000   0.004666
  105  O   7 YY   0.000000   0.000000   0.006346   0.000000  -0.013914
  106  O   7 ZZ   0.000000   0.000000  -0.004998   0.000000   0.009248
  107  O   7 XY   0.000000  -0.014942   0.000000   0.000000   0.000000
  108  O   7 XZ   0.000000   0.000000   0.000000   0.000000   0.000000
  109  O   7 YZ  -0.016013   0.000000   0.000000  -0.003151   0.000000
  110  O   7 XX   0.000000   0.000000  -0.033449   0.000000  -0.041803
  111  O   7 YY   0.000000   0.000000   0.042259   0.000000   0.089169
  112  O   7 ZZ   0.000000   0.000000  -0.008810   0.000000  -0.047367
  113  O   7 XY   0.000000   0.081400   0.000000   0.000000   0.000000
  114  O   7 XZ   0.000000   0.000000   0.000000   0.000000   0.000000
  115  O   7 YZ   0.037372   0.000000   0.000000   0.011142   0.000000
  116  O   8  S   0.000000   0.000000  -0.010146   0.000000   0.009823
  117  O   8  S   0.000000   0.000000  -0.106040   0.000000   0.017820
  118  O   8  S   0.000000   0.000000  -0.028188   0.000000  -0.086282
  119  O   8  S   0.000000   0.000000   1.458508   0.000000  -1.234348
  120  O   8  X   0.000000  -0.099801   0.000000   0.000000   0.000000
  121  O   8  Y   0.000000   0.000000   0.026451   0.000000   0.032899
  122  O   8  Z  -0.057065   0.000000   0.000000   0.223363   0.000000
  123  O   8  X   0.000000  -0.058260   0.000000   0.000000   0.000000
  124  O   8  Y   0.000000   0.000000   0.403801   0.000000  -0.144240
  125  O   8  Z  -0.125666   0.000000   0.000000   0.383134   0.000000
  126  O   8  X   0.000000   0.795487   0.000000   0.000000   0.000000
  127  O   8  Y   0.000000   0.000000  -0.127694   0.000000  -1.315855
  128  O   8  Z   0.893928   0.000000   0.000000  -0.621336   0.000000
  129  O   8 XX   0.000000   0.000000  -0.001347   0.000000  -0.004666
  130  O   8 YY   0.000000   0.000000   0.006346   0.000000   0.013914
  131  O   8 ZZ   0.000000   0.000000  -0.004998   0.000000  -0.009248
  132  O   8 XY   0.000000  -0.014942   0.000000   0.000000   0.000000
  133  O   8 XZ   0.000000   0.000000   0.000000   0.000000   0.000000
  134  O   8 YZ  -0.016013   0.000000   0.000000   0.003151   0.000000
  135  O   8 XX   0.000000   0.000000  -0.033449   0.000000   0.041803
  136  O   8 YY   0.000000   0.000000   0.042259   0.000000  -0.089169
  137  O   8 ZZ   0.000000   0.000000  -0.008810   0.000000   0.047367
  138  O   8 XY   0.000000   0.081400   0.000000   0.000000   0.000000
  139  O   8 XZ   0.000000   0.000000   0.000000   0.000000   0.000000
  140  O   8 YZ   0.037372   0.000000   0.000000  -0.011142   0.000000
  141  H   9  S   0.000000   0.006544  -0.057328   0.000000   0.002174
  142  H   9  S   0.000000  -0.631877  -0.414658   0.000000   0.500027
  143  H   9  X   0.000000   0.002685  -0.002554   0.000000  -0.001453
  144  H   9  Y   0.000000  -0.001296   0.002710   0.000000   0.003996
  145  H   9  Z  -0.004770   0.000000   0.000000   0.005961   0.000000
  146  H  10  S   0.000000  -0.006544  -0.057328   0.000000  -0.002174
  147  H  10  S   0.000000   0.631877  -0.414658   0.000000  -0.500027
  148  H  10  X   0.000000  -0.002685  -0.002554   0.000000   0.001453
  149  H  10  Y   0.000000  -0.001296  -0.002710   0.000000   0.003996
  150  H  10  Z   0.004770   0.000000   0.000000   0.005961   0.000000
  151  H  11  S   0.000000   0.006544  -0.057328   0.000000  -0.002174
  152  H  11  S   0.000000  -0.631877  -0.414658   0.000000  -0.500027
  153  H  11  X   0.000000  -0.002685   0.002554   0.000000  -0.001453
  154  H  11  Y   0.000000   0.001296  -0.002710   0.000000   0.003996
  155  H  11  Z   0.004770   0.000000   0.000000   0.005961   0.000000
  156  H  12  S   0.000000  -0.006544  -0.057328   0.000000   0.002174
  157  H  12  S   0.000000   0.631877  -0.414658   0.000000   0.500027
  158  H  12  X   0.000000   0.002685   0.002554   0.000000   0.001453
  159  H  12  Y   0.000000   0.001296   0.002710   0.000000   0.003996
  160  H  12  Z  -0.004770   0.000000   0.000000   0.005961   0.000000

                     41         42         43         44         45
                    0.2551     0.2591     0.3173     0.3648     0.3782
                     A          A          A          A          A   
    1  C   1  S   0.000000  -0.032203   0.000000   0.000000   0.054943
    2  C   1  S   0.000000  -0.104204   0.000000   0.000000  -0.100352
    3  C   1  S   0.000000   0.366278   0.000000   0.000000  -2.922561
    4  C   1  X   0.071888   0.000000  -0.078385   0.000000   0.000000
    5  C   1  Y   0.000000   0.065955   0.000000   0.000000   0.110223
    6  C   1  Z   0.000000   0.000000   0.000000   0.304444   0.000000
    7  C   1  X   1.140962   0.000000  -0.527176   0.000000   0.000000
    8  C   1  Y   0.000000  -1.742253   0.000000   0.000000   1.019520
    9  C   1  Z   0.000000   0.000000   0.000000   0.724326   0.000000
   10  C   1 XX   0.000000   0.045715   0.000000   0.000000  -0.018553
   11  C   1 YY   0.000000  -0.061877   0.000000   0.000000   0.021799
   12  C   1 ZZ   0.000000   0.016163   0.000000   0.000000  -0.003246
   13  C   1 XY   0.003923   0.000000  -0.008763   0.000000   0.000000
   14  C   1 XZ   0.000000   0.000000   0.000000   0.000000   0.000000
   15  C   1 YZ   0.000000   0.000000   0.000000  -0.003606   0.000000
   16  C   2  S   0.029251   0.020161  -0.018165   0.000000  -0.020457
   17  C   2  S   0.005351   0.065402   0.039180   0.000000   0.044008
   18  C   2  S  -1.313655  -1.208102   0.832434   0.000000   1.265965
   19  C   2  X  -0.065836   0.060659   0.080086   0.000000  -0.103017
   20  C   2  Y  -0.030302   0.052457   0.028811   0.000000   0.006213
   21  C   2  Z   0.000000   0.000000   0.000000  -0.218319   0.000000
   22  C   2  X  -0.062463   1.324900   0.614039   0.000000  -1.030718
   23  C   2  Y  -0.530137   0.912042   0.467033   0.000000   0.469088
   24  C   2  Z   0.000000   0.000000   0.000000  -0.703031   0.000000
   25  C   2 XX   0.002306  -0.028542   0.000643   0.000000   0.006263
   26  C   2 YY  -0.007135   0.005053  -0.001034   0.000000   0.017062
   27  C   2 ZZ   0.004829   0.023490   0.000391   0.000000  -0.023325
   28  C   2 XY  -0.003426   0.002204   0.008328   0.000000   0.027237
   29  C   2 XZ   0.000000   0.000000   0.000000  -0.023948   0.000000
   30  C   2 YZ   0.000000   0.000000   0.000000  -0.010022   0.000000
   31  C   3  S   0.029251  -0.020161   0.018165   0.000000  -0.020457
   32  C   3  S   0.005351  -0.065402  -0.039180   0.000000   0.044008
   33  C   3  S  -1.313655   1.208102  -0.832434   0.000000   1.265965
   34  C   3  X  -0.065836  -0.060659  -0.080086   0.000000  -0.103017
   35  C   3  Y   0.030302   0.052457   0.028811   0.000000  -0.006213
   36  C   3  Z   0.000000   0.000000   0.000000   0.218319   0.000000
   37  C   3  X  -0.062463  -1.324900  -0.614039   0.000000  -1.030718
   38  C   3  Y   0.530137   0.912042   0.467033   0.000000  -0.469088
   39  C   3  Z   0.000000   0.000000   0.000000   0.703031   0.000000
   40  C   3 XX   0.002306   0.028542  -0.000643   0.000000   0.006263
   41  C   3 YY  -0.007135  -0.005053   0.001034   0.000000   0.017062
   42  C   3 ZZ   0.004829  -0.023490  -0.000391   0.000000  -0.023325
   43  C   3 XY   0.003426   0.002204   0.008328   0.000000  -0.027237
   44  C   3 XZ   0.000000   0.000000   0.000000   0.023948   0.000000
   45  C   3 YZ   0.000000   0.000000   0.000000  -0.010022   0.000000
   46  C   4  S   0.000000   0.032203   0.000000   0.000000   0.054943
   47  C   4  S   0.000000   0.104204   0.000000   0.000000  -0.100352
   48  C   4  S   0.000000  -0.366278   0.000000   0.000000  -2.922561
   49  C   4  X   0.071888   0.000000   0.078385   0.000000   0.000000
   50  C   4  Y   0.000000   0.065955   0.000000   0.000000  -0.110223
   51  C   4  Z   0.000000   0.000000   0.000000  -0.304444   0.000000
   52  C   4  X   1.140962   0.000000   0.527176   0.000000   0.000000
   53  C   4  Y   0.000000  -1.742253   0.000000   0.000000  -1.019520
   54  C   4  Z   0.000000   0.000000   0.000000  -0.724326   0.000000
   55  C   4 XX   0.000000  -0.045715   0.000000   0.000000  -0.018553
   56  C   4 YY   0.000000   0.061877   0.000000   0.000000   0.021799
   57  C   4 ZZ   0.000000  -0.016163   0.000000   0.000000  -0.003246
   58  C   4 XY  -0.003923   0.000000  -0.008763   0.000000   0.000000
   59  C   4 XZ   0.000000   0.000000   0.000000   0.000000   0.000000
   60  C   4 YZ   0.000000   0.000000   0.000000  -0.003606   0.000000
   61  C   5  S  -0.029251  -0.020161  -0.018165   0.000000  -0.020457
   62  C   5  S  -0.005351  -0.065402   0.039180   0.000000   0.044008
   63  C   5  S   1.313655   1.208102   0.832434   0.000000   1.265965
   64  C   5  X  -0.065836   0.060659  -0.080086   0.000000   0.103017
   65  C   5  Y  -0.030302   0.052457  -0.028811   0.000000  -0.006213
   66  C   5  Z   0.000000   0.000000   0.000000   0.218319   0.000000
   67  C   5  X  -0.062463   1.324900  -0.614039   0.000000   1.030718
   68  C   5  Y  -0.530137   0.912042  -0.467033   0.000000  -0.469088
   69  C   5  Z   0.000000   0.000000   0.000000   0.703031   0.000000
   70  C   5 XX  -0.002306   0.028542   0.000643   0.000000   0.006263
   71  C   5 YY   0.007135  -0.005053  -0.001034   0.000000   0.017062
   72  C   5 ZZ  -0.004829  -0.023490   0.000391   0.000000  -0.023325
   73  C   5 XY   0.003426  -0.002204   0.008328   0.000000   0.027237
   74  C   5 XZ   0.000000   0.000000   0.000000  -0.023948   0.000000
   75  C   5 YZ   0.000000   0.000000   0.000000  -0.010022   0.000000
   76  C   6  S  -0.029251   0.020161   0.018165   0.000000  -0.020457
   77  C   6  S  -0.005351   0.065402  -0.039180   0.000000   0.044008
   78  C   6  S   1.313655  -1.208102  -0.832434   0.000000   1.265965
   79  C   6  X  -0.065836  -0.060659   0.080086   0.000000   0.103017
   80  C   6  Y   0.030302   0.052457  -0.028811   0.000000   0.006213
   81  C   6  Z   0.000000   0.000000   0.000000  -0.218319   0.000000
   82  C   6  X  -0.062463  -1.324900   0.614039   0.000000   1.030718
   83  C   6  Y   0.530137   0.912042  -0.467033   0.000000   0.469088
   84  C   6  Z   0.000000   0.000000   0.000000  -0.703031   0.000000
   85  C   6 XX  -0.002306  -0.028542  -0.000643   0.000000   0.006263
   86  C   6 YY   0.007135   0.005053   0.001034   0.000000   0.017062
   87  C   6 ZZ  -0.004829   0.023490  -0.000391   0.000000  -0.023325
   88  C   6 XY  -0.003426  -0.002204   0.008328   0.000000  -0.027237
   89  C   6 XZ   0.000000   0.000000   0.000000   0.023948   0.000000
   90  C   6 YZ   0.000000   0.000000   0.000000  -0.010022   0.000000
   91  O   7  S   0.000000  -0.018429   0.000000   0.000000  -0.005366
   92  O   7  S   0.000000  -0.091012   0.000000   0.000000   0.021374
   93  O   7  S   0.000000   0.200165   0.000000   0.000000   0.138701
   94  O   7  S   0.000000   1.927272   0.000000   0.000000  -0.422247
   95  O   7  X   0.075319   0.000000  -0.042869   0.000000   0.000000
   96  O   7  Y   0.000000   0.025615   0.000000   0.000000  -0.061263
   97  O   7  Z   0.000000   0.000000   0.000000  -0.172109   0.000000
   98  O   7  X   0.044244   0.000000  -0.081419   0.000000   0.000000
   99  O   7  Y   0.000000  -0.269054   0.000000   0.000000  -0.116369
  100  O   7  Z   0.000000   0.000000   0.000000  -0.338642   0.000000
  101  O   7  X  -0.978734   0.000000   0.925356   0.000000   0.000000
  102  O   7  Y   0.000000  -0.761558   0.000000   0.000000   0.082898
  103  O   7  Z   0.000000   0.000000   0.000000   0.256185   0.000000
  104  O   7 XX   0.000000   0.000081   0.000000   0.000000   0.005649
  105  O   7 YY   0.000000   0.000469   0.000000   0.000000  -0.004421
  106  O   7 ZZ   0.000000  -0.000550   0.000000   0.000000  -0.001229
  107  O   7 XY  -0.014847   0.000000   0.011585   0.000000   0.000000
  108  O   7 XZ   0.000000   0.000000   0.000000   0.000000   0.000000
  109  O   7 YZ   0.000000   0.000000   0.000000  -0.007441   0.000000
  110  O   7 XX   0.000000  -0.028694   0.000000   0.000000   0.018443
  111  O   7 YY   0.000000   0.026710   0.000000   0.000000   0.007180
  112  O   7 ZZ   0.000000   0.001985   0.000000   0.000000  -0.025623
  113  O   7 XY   0.069417   0.000000  -0.034612   0.000000   0.000000
  114  O   7 XZ   0.000000   0.000000   0.000000   0.000000   0.000000
  115  O   7 YZ   0.000000   0.000000   0.000000   0.003781   0.000000
  116  O   8  S   0.000000   0.018429   0.000000   0.000000  -0.005366
  117  O   8  S   0.000000   0.091012   0.000000   0.000000   0.021374
  118  O   8  S   0.000000  -0.200165   0.000000   0.000000   0.138701
  119  O   8  S   0.000000  -1.927272   0.000000   0.000000  -0.422247
  120  O   8  X   0.075319   0.000000   0.042869   0.000000   0.000000
  121  O   8  Y   0.000000   0.025615   0.000000   0.000000   0.061263
  122  O   8  Z   0.000000   0.000000   0.000000   0.172109   0.000000
  123  O   8  X   0.044244   0.000000   0.081419   0.000000   0.000000
  124  O   8  Y   0.000000  -0.269054   0.000000   0.000000   0.116369
  125  O   8  Z   0.000000   0.000000   0.000000   0.338642   0.000000
  126  O   8  X  -0.978734   0.000000  -0.925356   0.000000   0.000000
  127  O   8  Y   0.000000  -0.761558   0.000000   0.000000  -0.082898
  128  O   8  Z   0.000000   0.000000   0.000000  -0.256185   0.000000
  129  O   8 XX   0.000000  -0.000081   0.000000   0.000000   0.005649
  130  O   8 YY   0.000000  -0.000469   0.000000   0.000000  -0.004421
  131  O   8 ZZ   0.000000   0.000550   0.000000   0.000000  -0.001229
  132  O   8 XY   0.014847   0.000000   0.011585   0.000000   0.000000
  133  O   8 XZ   0.000000   0.000000   0.000000   0.000000   0.000000
  134  O   8 YZ   0.000000   0.000000   0.000000  -0.007441   0.000000
  135  O   8 XX   0.000000   0.028694   0.000000   0.000000   0.018443
  136  O   8 YY   0.000000  -0.026710   0.000000   0.000000   0.007180
  137  O   8 ZZ   0.000000  -0.001985   0.000000   0.000000  -0.025623
  138  O   8 XY  -0.069417   0.000000  -0.034612   0.000000   0.000000
  139  O   8 XZ   0.000000   0.000000   0.000000   0.000000   0.000000
  140  O   8 YZ   0.000000   0.000000   0.000000   0.003781   0.000000
  141  H   9  S   0.014379  -0.080054  -0.039067   0.000000   0.069103
  142  H   9  S   1.022537  -1.523541  -1.542811   0.000000   0.338725
  143  H   9  X  -0.010167  -0.002946   0.010457   0.000000   0.000481
  144  H   9  Y  -0.010955  -0.000016   0.008128   0.000000   0.022910
  145  H   9  Z   0.000000   0.000000   0.000000  -0.020451   0.000000
  146  H  10  S   0.014379   0.080054   0.039067   0.000000   0.069103
  147  H  10  S   1.022537   1.523541   1.542811   0.000000   0.338725
  148  H  10  X  -0.010167   0.002946  -0.010457   0.000000   0.000481
  149  H  10  Y   0.010955  -0.000016   0.008128   0.000000  -0.022910
  150  H  10  Z   0.000000   0.000000   0.000000   0.020451   0.000000
  151  H  11  S  -0.014379   0.080054  -0.039067   0.000000   0.069103
  152  H  11  S  -1.022537   1.523541  -1.542811   0.000000   0.338725
  153  H  11  X  -0.010167  -0.002946  -0.010457   0.000000  -0.000481
  154  H  11  Y  -0.010955  -0.000016  -0.008128   0.000000  -0.022910
  155  H  11  Z   0.000000   0.000000   0.000000   0.020451   0.000000
  156  H  12  S  -0.014379  -0.080054   0.039067   0.000000   0.069103
  157  H  12  S  -1.022537  -1.523541   1.542811   0.000000   0.338725
  158  H  12  X  -0.010167   0.002946   0.010457   0.000000  -0.000481
  159  H  12  Y   0.010955  -0.000016  -0.008128   0.000000   0.022910
  160  H  12  Z   0.000000   0.000000   0.000000  -0.020451   0.000000

                     46         47         48         49         50
                    0.4393     0.4715     0.4940     0.5116     0.6164
                     A          A          A          A          A   
    1  C   1  S   0.053688   0.000000   0.033716   0.000000   0.064360
    2  C   1  S   0.047081   0.000000   0.118461   0.000000  -0.113359
    3  C   1  S  -2.303244   0.000000   0.092763   0.000000  -4.886608
    4  C   1  X   0.000000  -0.279762   0.000000   0.101592   0.000000
    5  C   1  Y   0.095398   0.000000   0.048856   0.000000  -0.003174
    6  C   1  Z   0.000000   0.000000   0.000000   0.000000   0.000000
    7  C   1  X   0.000000  -2.382249   0.000000  -0.606603   0.000000
    8  C   1  Y   1.598469   0.000000   2.123364   0.000000   0.718530
    9  C   1  Z   0.000000   0.000000   0.000000   0.000000   0.000000
   10  C   1 XX   0.038880   0.000000   0.038146   0.000000   0.001627
   11  C   1 YY  -0.035686   0.000000  -0.045296   0.000000   0.019051
   12  C   1 ZZ  -0.003193   0.000000   0.007150   0.000000  -0.020677
   13  C   1 XY   0.000000  -0.018430   0.000000   0.046251   0.000000
   14  C   1 XZ   0.000000   0.000000   0.000000   0.000000   0.000000
   15  C   1 YZ   0.000000   0.000000   0.000000   0.000000   0.000000
   16  C   2  S   0.002888  -0.014660   0.040273   0.034591  -0.028340
   17  C   2  S  -0.026555   0.025869   0.139201  -0.115025   0.153953
   18  C   2  S   0.079840   1.969654   0.252350  -2.230214   2.516897
   19  C   2  X  -0.084202  -0.084576  -0.066621   0.054454  -0.090371
   20  C   2  Y   0.213564  -0.071644  -0.042735   0.176832  -0.046389
   21  C   2  Z   0.000000   0.000000   0.000000   0.000000   0.000000
   22  C   2  X  -1.494146  -0.876899  -0.686945  -0.010697  -1.891413
   23  C   2  Y   1.083824   1.060891  -0.262666   2.383046  -0.403699
   24  C   2  Z   0.000000   0.000000   0.000000   0.000000   0.000000
   25  C   2 XX  -0.021425   0.015036  -0.054530  -0.013318  -0.005706
   26  C   2 YY   0.037771   0.014426   0.026386   0.030033  -0.013765
   27  C   2 ZZ  -0.016346  -0.029462   0.028144  -0.016715   0.019471
   28  C   2 XY  -0.019825   0.056856  -0.075030  -0.008113  -0.024218
   29  C   2 XZ   0.000000   0.000000   0.000000   0.000000   0.000000
   30  C   2 YZ   0.000000   0.000000   0.000000   0.000000   0.000000
   31  C   3  S  -0.002888  -0.014660   0.040273  -0.034591   0.028340
   32  C   3  S   0.026555   0.025869   0.139201   0.115025  -0.153953
   33  C   3  S  -0.079840   1.969654   0.252350   2.230214  -2.516897
   34  C   3  X   0.084202  -0.084576  -0.066621  -0.054454   0.090371
   35  C   3  Y   0.213564   0.071644   0.042735   0.176832  -0.046389
   36  C   3  Z   0.000000   0.000000   0.000000   0.000000   0.000000
   37  C   3  X   1.494146  -0.876899  -0.686945   0.010697   1.891413
   38  C   3  Y   1.083824  -1.060891   0.262666   2.383046  -0.403699
   39  C   3  Z   0.000000   0.000000   0.000000   0.000000   0.000000
   40  C   3 XX   0.021425   0.015036  -0.054530   0.013318   0.005706
   41  C   3 YY  -0.037771   0.014426   0.026386  -0.030033   0.013765
   42  C   3 ZZ   0.016346  -0.029462   0.028144   0.016715  -0.019471
   43  C   3 XY  -0.019825  -0.056856   0.075030  -0.008113  -0.024218
   44  C   3 XZ   0.000000   0.000000   0.000000   0.000000   0.000000
   45  C   3 YZ   0.000000   0.000000   0.000000   0.000000   0.000000
   46  C   4  S  -0.053688   0.000000   0.033716   0.000000  -0.064360
   47  C   4  S  -0.047081   0.000000   0.118461   0.000000   0.113359
   48  C   4  S   2.303244   0.000000   0.092763   0.000000   4.886608
   49  C   4  X   0.000000  -0.279762   0.000000  -0.101592   0.000000
   50  C   4  Y   0.095398   0.000000  -0.048856   0.000000  -0.003174
   51  C   4  Z   0.000000   0.000000   0.000000   0.000000   0.000000
   52  C   4  X   0.000000  -2.382249   0.000000   0.606603   0.000000
   53  C   4  Y   1.598469   0.000000  -2.123364   0.000000   0.718530
   54  C   4  Z   0.000000   0.000000   0.000000   0.000000   0.000000
   55  C   4 XX  -0.038880   0.000000   0.038146   0.000000  -0.001627
   56  C   4 YY   0.035686   0.000000  -0.045296   0.000000  -0.019051
   57  C   4 ZZ   0.003193   0.000000   0.007150   0.000000   0.020677
   58  C   4 XY   0.000000   0.018430   0.000000   0.046251   0.000000
   59  C   4 XZ   0.000000   0.000000   0.000000   0.000000   0.000000
   60  C   4 YZ   0.000000   0.000000   0.000000   0.000000   0.000000
   61  C   5  S  -0.002888   0.014660   0.040273   0.034591   0.028340
   62  C   5  S   0.026555  -0.025869   0.139201  -0.115025  -0.153953
   63  C   5  S  -0.079840  -1.969654   0.252350  -2.230214  -2.516897
   64  C   5  X  -0.084202  -0.084576   0.066621  -0.054454  -0.090371
   65  C   5  Y   0.213564  -0.071644   0.042735  -0.176832  -0.046389
   66  C   5  Z   0.000000   0.000000   0.000000   0.000000   0.000000
   67  C   5  X  -1.494146  -0.876899   0.686945   0.010697  -1.891413
   68  C   5  Y   1.083824   1.060891   0.262666  -2.383046  -0.403699
   69  C   5  Z   0.000000   0.000000   0.000000   0.000000   0.000000
   70  C   5 XX   0.021425  -0.015036  -0.054530  -0.013318   0.005706
   71  C   5 YY  -0.037771  -0.014426   0.026386   0.030033   0.013765
   72  C   5 ZZ   0.016346   0.029462   0.028144  -0.016715  -0.019471
   73  C   5 XY   0.019825  -0.056856  -0.075030  -0.008113   0.024218
   74  C   5 XZ   0.000000   0.000000   0.000000   0.000000   0.000000
   75  C   5 YZ   0.000000   0.000000   0.000000   0.000000   0.000000
   76  C   6  S   0.002888   0.014660   0.040273  -0.034591  -0.028340
   77  C   6  S  -0.026555  -0.025869   0.139201   0.115025   0.153953
   78  C   6  S   0.079840  -1.969654   0.252350   2.230214   2.516897
   79  C   6  X   0.084202  -0.084576   0.066621   0.054454   0.090371
   80  C   6  Y   0.213564   0.071644  -0.042735  -0.176832  -0.046389
   81  C   6  Z   0.000000   0.000000   0.000000   0.000000   0.000000
   82  C   6  X   1.494146  -0.876899   0.686945  -0.010697   1.891413
   83  C   6  Y   1.083824  -1.060891  -0.262666  -2.383046  -0.403699
   84  C   6  Z   0.000000   0.000000   0.000000   0.000000   0.000000
   85  C   6 XX  -0.021425  -0.015036  -0.054530   0.013318  -0.005706
   86  C   6 YY   0.037771  -0.014426   0.026386  -0.030033  -0.013765
   87  C   6 ZZ  -0.016346   0.029462   0.028144   0.016715   0.019471
   88  C   6 XY   0.019825   0.056856   0.075030  -0.008113   0.024218
   89  C   6 XZ   0.000000   0.000000   0.000000   0.000000   0.000000
   90  C   6 YZ   0.000000   0.000000   0.000000   0.000000   0.000000
   91  O   7  S   0.001525   0.000000   0.037030   0.000000  -0.015227
   92  O   7  S  -0.035177   0.000000  -0.019628   0.000000   0.062362
   93  O   7  S  -0.235076   0.000000  -0.980697   0.000000   0.610586
   94  O   7  S  -1.204197   0.000000  -1.085164   0.000000   0.415306
   95  O   7  X   0.000000   0.079331   0.000000  -0.143416   0.000000
   96  O   7  Y   0.103793   0.000000   0.146164   0.000000  -0.161986
   97  O   7  Z   0.000000   0.000000   0.000000   0.000000   0.000000
   98  O   7  X   0.000000   0.413917   0.000000  -0.124112   0.000000
   99  O   7  Y   0.230682   0.000000   0.476048   0.000000  -0.561000
  100  O   7  Z   0.000000   0.000000   0.000000   0.000000   0.000000
  101  O   7  X   0.000000  -0.313337   0.000000  -0.177558   0.000000
  102  O   7  Y   0.337596   0.000000   0.187725   0.000000  -0.127450
  103  O   7  Z   0.000000   0.000000   0.000000   0.000000   0.000000
  104  O   7 XX   0.008225   0.000000   0.006529   0.000000   0.003727
  105  O   7 YY  -0.006944   0.000000  -0.011898   0.000000  -0.003701
  106  O   7 ZZ  -0.001280   0.000000   0.005369   0.000000  -0.000026
  107  O   7 XY   0.000000   0.007430   0.000000  -0.009183   0.000000
  108  O   7 XZ   0.000000   0.000000   0.000000   0.000000   0.000000
  109  O   7 YZ   0.000000   0.000000   0.000000   0.000000   0.000000
  110  O   7 XX   0.031007   0.000000   0.011212   0.000000   0.010558
  111  O   7 YY   0.002773   0.000000   0.017684   0.000000   0.059123
  112  O   7 ZZ  -0.033780   0.000000  -0.028896   0.000000  -0.069681
  113  O   7 XY   0.000000  -0.046722   0.000000  -0.016709   0.000000
  114  O   7 XZ   0.000000   0.000000   0.000000   0.000000   0.000000
  115  O   7 YZ   0.000000   0.000000   0.000000   0.000000   0.000000
  116  O   8  S  -0.001525   0.000000   0.037030   0.000000   0.015227
  117  O   8  S   0.035177   0.000000  -0.019628   0.000000  -0.062362
  118  O   8  S   0.235076   0.000000  -0.980697   0.000000  -0.610586
  119  O   8  S   1.204197   0.000000  -1.085164   0.000000  -0.415306
  120  O   8  X   0.000000   0.079331   0.000000   0.143416   0.000000
  121  O   8  Y   0.103793   0.000000  -0.146164   0.000000  -0.161986
  122  O   8  Z   0.000000   0.000000   0.000000   0.000000   0.000000
  123  O   8  X   0.000000   0.413917   0.000000   0.124112   0.000000
  124  O   8  Y   0.230682   0.000000  -0.476048   0.000000  -0.561000
  125  O   8  Z   0.000000   0.000000   0.000000   0.000000   0.000000
  126  O   8  X   0.000000  -0.313337   0.000000   0.177558   0.000000
  127  O   8  Y   0.337596   0.000000  -0.187725   0.000000  -0.127450
  128  O   8  Z   0.000000   0.000000   0.000000   0.000000   0.000000
  129  O   8 XX  -0.008225   0.000000   0.006529   0.000000  -0.003727
  130  O   8 YY   0.006944   0.000000  -0.011898   0.000000   0.003701
  131  O   8 ZZ   0.001280   0.000000   0.005369   0.000000   0.000026
  132  O   8 XY   0.000000  -0.007430   0.000000  -0.009183   0.000000
  133  O   8 XZ   0.000000   0.000000   0.000000   0.000000   0.000000
  134  O   8 YZ   0.000000   0.000000   0.000000   0.000000   0.000000
  135  O   8 XX  -0.031007   0.000000   0.011212   0.000000  -0.010558
  136  O   8 YY  -0.002773   0.000000   0.017684   0.000000  -0.059123
  137  O   8 ZZ   0.033780   0.000000  -0.028896   0.000000   0.069681
  138  O   8 XY   0.000000   0.046722   0.000000  -0.016709   0.000000
  139  O   8 XZ   0.000000   0.000000   0.000000   0.000000   0.000000
  140  O   8 YZ   0.000000   0.000000   0.000000   0.000000   0.000000
  141  H   9  S  -0.061747   0.178122  -0.233986   0.031953  -0.164720
  142  H   9  S   0.554285   0.154412   0.821073  -0.438213   0.712878
  143  H   9  X  -0.016395   0.021561  -0.043674  -0.000651  -0.029047
  144  H   9  Y   0.010344   0.027602  -0.015600   0.010955  -0.020346
  145  H   9  Z   0.000000   0.000000   0.000000   0.000000   0.000000
  146  H  10  S   0.061747   0.178122  -0.233986  -0.031953   0.164720
  147  H  10  S  -0.554285   0.154412   0.821073   0.438213  -0.712878
  148  H  10  X   0.016395   0.021561  -0.043674   0.000651   0.029047
  149  H  10  Y   0.010344  -0.027602   0.015600   0.010955  -0.020346
  150  H  10  Z   0.000000   0.000000   0.000000   0.000000   0.000000
  151  H  11  S   0.061747  -0.178122  -0.233986   0.031953   0.164720
  152  H  11  S  -0.554285  -0.154412   0.821073  -0.438213  -0.712878
  153  H  11  X  -0.016395   0.021561   0.043674   0.000651  -0.029047
  154  H  11  Y   0.010344   0.027602   0.015600  -0.010955  -0.020346
  155  H  11  Z   0.000000   0.000000   0.000000   0.000000   0.000000
  156  H  12  S  -0.061747  -0.178122  -0.233986  -0.031953  -0.164720
  157  H  12  S   0.554285  -0.154412   0.821073   0.438213   0.712878
  158  H  12  X   0.016395   0.021561   0.043674  -0.000651   0.029047
  159  H  12  Y   0.010344  -0.027602  -0.015600  -0.010955  -0.020346
  160  H  12  Z   0.000000   0.000000   0.000000   0.000000   0.000000

                     51         52         53         54         55
                    0.6603     0.6772     0.6786     0.6786     0.6823
                     A          A          A          A          A   
    1  C   1  S   0.037117   0.000000   0.000000   0.068944   0.000000
    2  C   1  S   0.187905   0.000000   0.000000   0.076679   0.000000
    3  C   1  S   0.057508   0.000000   0.000000   0.854921   0.000000
    4  C   1  X   0.000000   0.000000   0.000000   0.000000  -0.456039
    5  C   1  Y  -0.167568   0.000000   0.000000  -0.274861   0.000000
    6  C   1  Z   0.000000   0.317041   0.000000   0.000000   0.000000
    7  C   1  X   0.000000   0.000000   0.000000   0.000000   1.399041
    8  C   1  Y   0.993151   0.000000   0.000000  -3.236565   0.000000
    9  C   1  Z   0.000000  -0.428085   0.000000   0.000000   0.000000
   10  C   1 XX  -0.133218   0.000000   0.000000  -0.020635   0.000000
   11  C   1 YY   0.072399   0.000000   0.000000   0.102101   0.000000
   12  C   1 ZZ   0.060818   0.000000   0.000000  -0.081466   0.000000
   13  C   1 XY   0.000000   0.000000   0.000000   0.000000  -0.007820
   14  C   1 XZ   0.000000   0.000000  -0.077175   0.000000   0.000000
   15  C   1 YZ   0.000000  -0.064147   0.000000   0.000000   0.000000
   16  C   2  S   0.059139   0.000000   0.000000   0.090308  -0.129227
   17  C   2  S   0.068984   0.000000   0.000000   0.065092  -0.217971
   18  C   2  S   0.177402   0.000000   0.000000  -4.412243  -0.552696
   19  C   2  X   0.122950   0.000000   0.000000  -0.155627  -0.019696
   20  C   2  Y  -0.288445   0.000000   0.000000  -0.033865   0.233722
   21  C   2  Z   0.000000   0.437073  -0.461222   0.000000   0.000000
   22  C   2  X  -0.371310   0.000000   0.000000   1.852650   0.036790
   23  C   2  Y   0.186093   0.000000   0.000000   3.002268  -0.526111
   24  C   2  Z   0.000000  -0.320933   0.483476   0.000000   0.000000
   25  C   2 XX   0.108675   0.000000   0.000000   0.076003  -0.073049
   26  C   2 YY   0.015771   0.000000   0.000000  -0.067051  -0.063990
   27  C   2 ZZ  -0.124446   0.000000   0.000000  -0.008953   0.137039
   28  C   2 XY  -0.002193   0.000000   0.000000   0.036925   0.038174
   29  C   2 XZ   0.000000  -0.011109   0.045037   0.000000   0.000000
   30  C   2 YZ   0.000000  -0.018014   0.086904   0.000000   0.000000
   31  C   3  S   0.059139   0.000000   0.000000  -0.090308  -0.129227
   32  C   3  S   0.068984   0.000000   0.000000  -0.065092  -0.217971
   33  C   3  S   0.177402   0.000000   0.000000   4.412243  -0.552696
   34  C   3  X   0.122950   0.000000   0.000000   0.155627  -0.019696
   35  C   3  Y   0.288445   0.000000   0.000000  -0.033865  -0.233722
   36  C   3  Z   0.000000   0.437073  -0.461222   0.000000   0.000000
   37  C   3  X  -0.371310   0.000000   0.000000  -1.852650   0.036790
   38  C   3  Y  -0.186093   0.000000   0.000000   3.002268   0.526111
   39  C   3  Z   0.000000  -0.320933   0.483476   0.000000   0.000000
   40  C   3 XX   0.108675   0.000000   0.000000  -0.076003  -0.073049
   41  C   3 YY   0.015771   0.000000   0.000000   0.067051  -0.063990
   42  C   3 ZZ  -0.124446   0.000000   0.000000   0.008953   0.137039
   43  C   3 XY   0.002193   0.000000   0.000000   0.036925  -0.038174
   44  C   3 XZ   0.000000  -0.011109   0.045037   0.000000   0.000000
   45  C   3 YZ   0.000000   0.018014  -0.086904   0.000000   0.000000
   46  C   4  S   0.037117   0.000000   0.000000  -0.068944   0.000000
   47  C   4  S   0.187905   0.000000   0.000000  -0.076679   0.000000
   48  C   4  S   0.057508   0.000000   0.000000  -0.854921   0.000000
   49  C   4  X   0.000000   0.000000   0.000000   0.000000  -0.456039
   50  C   4  Y   0.167568   0.000000   0.000000  -0.274861   0.000000
   51  C   4  Z   0.000000   0.317041   0.000000   0.000000   0.000000
   52  C   4  X   0.000000   0.000000   0.000000   0.000000   1.399041
   53  C   4  Y  -0.993151   0.000000   0.000000  -3.236565   0.000000
   54  C   4  Z   0.000000  -0.428085   0.000000   0.000000   0.000000
   55  C   4 XX  -0.133218   0.000000   0.000000   0.020635   0.000000
   56  C   4 YY   0.072399   0.000000   0.000000  -0.102101   0.000000
   57  C   4 ZZ   0.060818   0.000000   0.000000   0.081466   0.000000
   58  C   4 XY   0.000000   0.000000   0.000000   0.000000   0.007820
   59  C   4 XZ   0.000000   0.000000  -0.077175   0.000000   0.000000
   60  C   4 YZ   0.000000   0.064147   0.000000   0.000000   0.000000
   61  C   5  S   0.059139   0.000000   0.000000  -0.090308   0.129227
   62  C   5  S   0.068984   0.000000   0.000000  -0.065092   0.217971
   63  C   5  S   0.177402   0.000000   0.000000   4.412243   0.552696
   64  C   5  X  -0.122950   0.000000   0.000000  -0.155627  -0.019696
   65  C   5  Y   0.288445   0.000000   0.000000  -0.033865   0.233722
   66  C   5  Z   0.000000   0.437073   0.461222   0.000000   0.000000
   67  C   5  X   0.371310   0.000000   0.000000   1.852650   0.036790
   68  C   5  Y  -0.186093   0.000000   0.000000   3.002268  -0.526111
   69  C   5  Z   0.000000  -0.320933  -0.483476   0.000000   0.000000
   70  C   5 XX   0.108675   0.000000   0.000000  -0.076003   0.073049
   71  C   5 YY   0.015771   0.000000   0.000000   0.067051   0.063990
   72  C   5 ZZ  -0.124446   0.000000   0.000000   0.008953  -0.137039
   73  C   5 XY  -0.002193   0.000000   0.000000  -0.036925  -0.038174
   74  C   5 XZ   0.000000   0.011109   0.045037   0.000000   0.000000
   75  C   5 YZ   0.000000   0.018014   0.086904   0.000000   0.000000
   76  C   6  S   0.059139   0.000000   0.000000   0.090308   0.129227
   77  C   6  S   0.068984   0.000000   0.000000   0.065092   0.217971
   78  C   6  S   0.177402   0.000000   0.000000  -4.412243   0.552696
   79  C   6  X  -0.122950   0.000000   0.000000   0.155627  -0.019696
   80  C   6  Y  -0.288445   0.000000   0.000000  -0.033865  -0.233722
   81  C   6  Z   0.000000   0.437073   0.461222   0.000000   0.000000
   82  C   6  X   0.371310   0.000000   0.000000  -1.852650   0.036790
   83  C   6  Y   0.186093   0.000000   0.000000   3.002268   0.526111
   84  C   6  Z   0.000000  -0.320933  -0.483476   0.000000   0.000000
   85  C   6 XX   0.108675   0.000000   0.000000   0.076003   0.073049
   86  C   6 YY   0.015771   0.000000   0.000000  -0.067051   0.063990
   87  C   6 ZZ  -0.124446   0.000000   0.000000  -0.008953  -0.137039
   88  C   6 XY   0.002193   0.000000   0.000000  -0.036925   0.038174
   89  C   6 XZ   0.000000   0.011109   0.045037   0.000000   0.000000
   90  C   6 YZ   0.000000  -0.018014  -0.086904   0.000000   0.000000
   91  O   7  S   0.014487   0.000000   0.000000  -0.034387   0.000000
   92  O   7  S  -0.028810   0.000000   0.000000   0.022435   0.000000
   93  O   7  S  -0.592522   0.000000   0.000000   1.142238   0.000000
   94  O   7  S  -0.383651   0.000000   0.000000   1.022947   0.000000
   95  O   7  X   0.000000   0.000000   0.000000   0.000000   0.076592
   96  O   7  Y   0.055640   0.000000   0.000000  -0.151744   0.000000
   97  O   7  Z   0.000000  -0.065081   0.000000   0.000000   0.000000
   98  O   7  X   0.000000   0.000000   0.000000   0.000000  -0.162793
   99  O   7  Y   0.281387   0.000000   0.000000  -0.373561   0.000000
  100  O   7  Z   0.000000   0.070416   0.000000   0.000000   0.000000
  101  O   7  X   0.000000   0.000000   0.000000   0.000000  -0.248630
  102  O   7  Y  -0.024454   0.000000   0.000000  -0.278513   0.000000
  103  O   7  Z   0.000000   0.339978   0.000000   0.000000   0.000000
  104  O   7 XX   0.008465   0.000000   0.000000   0.004229   0.000000
  105  O   7 YY  -0.012418   0.000000   0.000000  -0.001877   0.000000
  106  O   7 ZZ   0.003952   0.000000   0.000000  -0.002352   0.000000
  107  O   7 XY   0.000000   0.000000   0.000000   0.000000  -0.000503
  108  O   7 XZ   0.000000   0.000000  -0.004120   0.000000   0.000000
  109  O   7 YZ   0.000000   0.003978   0.000000   0.000000   0.000000
  110  O   7 XX  -0.013062   0.000000   0.000000   0.124751   0.000000
  111  O   7 YY  -0.084109   0.000000   0.000000  -0.164687   0.000000
  112  O   7 ZZ   0.097171   0.000000   0.000000   0.039937   0.000000
  113  O   7 XY   0.000000   0.000000   0.000000   0.000000   0.206691
  114  O   7 XZ   0.000000   0.000000   0.104669   0.000000   0.000000
  115  O   7 YZ   0.000000  -0.126353   0.000000   0.000000   0.000000
  116  O   8  S   0.014487   0.000000   0.000000   0.034387   0.000000
  117  O   8  S  -0.028810   0.000000   0.000000  -0.022435   0.000000
  118  O   8  S  -0.592522   0.000000   0.000000  -1.142238   0.000000
  119  O   8  S  -0.383651   0.000000   0.000000  -1.022947   0.000000
  120  O   8  X   0.000000   0.000000   0.000000   0.000000   0.076592
  121  O   8  Y  -0.055640   0.000000   0.000000  -0.151744   0.000000
  122  O   8  Z   0.000000  -0.065081   0.000000   0.000000   0.000000
  123  O   8  X   0.000000   0.000000   0.000000   0.000000  -0.162793
  124  O   8  Y  -0.281387   0.000000   0.000000  -0.373561   0.000000
  125  O   8  Z   0.000000   0.070416   0.000000   0.000000   0.000000
  126  O   8  X   0.000000   0.000000   0.000000   0.000000  -0.248630
  127  O   8  Y   0.024454   0.000000   0.000000  -0.278513   0.000000
  128  O   8  Z   0.000000   0.339978   0.000000   0.000000   0.000000
  129  O   8 XX   0.008465   0.000000   0.000000  -0.004229   0.000000
  130  O   8 YY  -0.012418   0.000000   0.000000   0.001877   0.000000
  131  O   8 ZZ   0.003952   0.000000   0.000000   0.002352   0.000000
  132  O   8 XY   0.000000   0.000000   0.000000   0.000000   0.000503
  133  O   8 XZ   0.000000   0.000000  -0.004120   0.000000   0.000000
  134  O   8 YZ   0.000000  -0.003978   0.000000   0.000000   0.000000
  135  O   8 XX  -0.013062   0.000000   0.000000  -0.124751   0.000000
  136  O   8 YY  -0.084109   0.000000   0.000000   0.164687   0.000000
  137  O   8 ZZ   0.097171   0.000000   0.000000  -0.039937   0.000000
  138  O   8 XY   0.000000   0.000000   0.000000   0.000000  -0.206691
  139  O   8 XZ   0.000000   0.000000   0.104669   0.000000   0.000000
  140  O   8 YZ   0.000000   0.126353   0.000000   0.000000   0.000000
  141  H   9  S   0.263742   0.000000   0.000000   0.135216  -0.171333
  142  H   9  S  -0.016575   0.000000   0.000000  -1.499566   0.209913
  143  H   9  X   0.052045   0.000000   0.000000   0.044353  -0.046905
  144  H   9  Y   0.027796   0.000000   0.000000   0.033200  -0.003623
  145  H   9  Z   0.000000   0.023449   0.001928   0.000000   0.000000
  146  H  10  S   0.263742   0.000000   0.000000  -0.135216  -0.171333
  147  H  10  S  -0.016575   0.000000   0.000000   1.499566   0.209913
  148  H  10  X   0.052045   0.000000   0.000000  -0.044353  -0.046905
  149  H  10  Y  -0.027796   0.000000   0.000000   0.033200   0.003623
  150  H  10  Z   0.000000   0.023449   0.001928   0.000000   0.000000
  151  H  11  S   0.263742   0.000000   0.000000  -0.135216   0.171333
  152  H  11  S  -0.016575   0.000000   0.000000   1.499566  -0.209913
  153  H  11  X  -0.052045   0.000000   0.000000   0.044353  -0.046905
  154  H  11  Y  -0.027796   0.000000   0.000000   0.033200  -0.003623
  155  H  11  Z   0.000000   0.023449  -0.001928   0.000000   0.000000
  156  H  12  S   0.263742   0.000000   0.000000   0.135216   0.171333
  157  H  12  S  -0.016575   0.000000   0.000000  -1.499566  -0.209913
  158  H  12  X  -0.052045   0.000000   0.000000  -0.044353  -0.046905
  159  H  12  Y   0.027796   0.000000   0.000000   0.033200   0.003623
  160  H  12  Z   0.000000   0.023449  -0.001928   0.000000   0.000000

                     56         57         58         59         60
                    0.7284     0.7340     0.7423     0.7597     0.7966
                     A          A          A          A          A   
    1  C   1  S   0.000000   0.000000   0.000000   0.000000   0.000000
    2  C   1  S   0.000000   0.000000   0.000000   0.000000   0.000000
    3  C   1  S   0.000000   0.000000   0.000000   0.000000   0.000000
    4  C   1  X   0.512797   0.081095   0.000000   0.000000   0.000000
    5  C   1  Y   0.000000   0.000000   0.000000   0.000000   0.000000
    6  C   1  Z   0.000000   0.000000  -0.499494   0.000000  -0.429140
    7  C   1  X   1.932177   0.326507   0.000000   0.000000   0.000000
    8  C   1  Y   0.000000   0.000000   0.000000   0.000000   0.000000
    9  C   1  Z   0.000000   0.000000   1.400187   0.000000   0.711276
   10  C   1 XX   0.000000   0.000000   0.000000   0.000000   0.000000
   11  C   1 YY   0.000000   0.000000   0.000000   0.000000   0.000000
   12  C   1 ZZ   0.000000   0.000000   0.000000   0.000000   0.000000
   13  C   1 XY   0.020880  -0.113201   0.000000   0.000000   0.000000
   14  C   1 XZ   0.000000   0.000000   0.000000   0.083790   0.000000
   15  C   1 YZ   0.000000   0.000000  -0.004491   0.000000   0.104871
   16  C   2  S   0.015422   0.033618   0.000000   0.000000   0.000000
   17  C   2  S  -0.059404   0.060830   0.000000   0.000000   0.000000
   18  C   2  S   0.619055  -0.370735   0.000000   0.000000   0.000000
   19  C   2  X   0.061996  -0.267660   0.000000   0.000000   0.000000
   20  C   2  Y   0.064978   0.176574   0.000000   0.000000   0.000000
   21  C   2  Z   0.000000   0.000000   0.214315   0.498071  -0.395893
   22  C   2  X   1.548564   0.714880   0.000000   0.000000   0.000000
   23  C   2  Y  -2.616021  -0.491647   0.000000   0.000000   0.000000
   24  C   2  Z   0.000000   0.000000  -0.541050  -0.809924   0.474447
   25  C   2 XX   0.010356   0.082253   0.000000   0.000000   0.000000
   26  C   2 YY   0.100350  -0.050188   0.000000   0.000000   0.000000
   27  C   2 ZZ  -0.110706  -0.032065   0.000000   0.000000   0.000000
   28  C   2 XY  -0.024477   0.106280   0.000000   0.000000   0.000000
   29  C   2 XZ   0.000000   0.000000  -0.039036  -0.016944   0.054091
   30  C   2 YZ   0.000000   0.000000  -0.091576   0.028493  -0.051112
   31  C   3  S  -0.015422   0.033618   0.000000   0.000000   0.000000
   32  C   3  S   0.059404   0.060830   0.000000   0.000000   0.000000
   33  C   3  S  -0.619055  -0.370735   0.000000   0.000000   0.000000
   34  C   3  X  -0.061996  -0.267660   0.000000   0.000000   0.000000
   35  C   3  Y   0.064978  -0.176574   0.000000   0.000000   0.000000
   36  C   3  Z   0.000000   0.000000   0.214315  -0.498071   0.395893
   37  C   3  X  -1.548564   0.714880   0.000000   0.000000   0.000000
   38  C   3  Y  -2.616021   0.491647   0.000000   0.000000   0.000000
   39  C   3  Z   0.000000   0.000000  -0.541050   0.809924  -0.474447
   40  C   3 XX  -0.010356   0.082253   0.000000   0.000000   0.000000
   41  C   3 YY  -0.100350  -0.050188   0.000000   0.000000   0.000000
   42  C   3 ZZ   0.110706  -0.032065   0.000000   0.000000   0.000000
   43  C   3 XY  -0.024477  -0.106280   0.000000   0.000000   0.000000
   44  C   3 XZ   0.000000   0.000000  -0.039036   0.016944  -0.054091
   45  C   3 YZ   0.000000   0.000000   0.091576   0.028493  -0.051112
   46  C   4  S   0.000000   0.000000   0.000000   0.000000   0.000000
   47  C   4  S   0.000000   0.000000   0.000000   0.000000   0.000000
   48  C   4  S   0.000000   0.000000   0.000000   0.000000   0.000000
   49  C   4  X  -0.512797   0.081095   0.000000   0.000000   0.000000
   50  C   4  Y   0.000000   0.000000   0.000000   0.000000   0.000000
   51  C   4  Z   0.000000   0.000000  -0.499494   0.000000   0.429140
   52  C   4  X  -1.932177   0.326507   0.000000   0.000000   0.000000
   53  C   4  Y   0.000000   0.000000   0.000000   0.000000   0.000000
   54  C   4  Z   0.000000   0.000000   1.400187   0.000000  -0.711276
   55  C   4 XX   0.000000   0.000000   0.000000   0.000000   0.000000
   56  C   4 YY   0.000000   0.000000   0.000000   0.000000   0.000000
   57  C   4 ZZ   0.000000   0.000000   0.000000   0.000000   0.000000
   58  C   4 XY   0.020880   0.113201   0.000000   0.000000   0.000000
   59  C   4 XZ   0.000000   0.000000   0.000000  -0.083790   0.000000
   60  C   4 YZ   0.000000   0.000000   0.004491   0.000000   0.104871
   61  C   5  S   0.015422  -0.033618   0.000000   0.000000   0.000000
   62  C   5  S  -0.059404  -0.060830   0.000000   0.000000   0.000000
   63  C   5  S   0.619055   0.370735   0.000000   0.000000   0.000000
   64  C   5  X  -0.061996  -0.267660   0.000000   0.000000   0.000000
   65  C   5  Y  -0.064978   0.176574   0.000000   0.000000   0.000000
   66  C   5  Z   0.000000   0.000000   0.214315   0.498071   0.395893
   67  C   5  X  -1.548564   0.714880   0.000000   0.000000   0.000000
   68  C   5  Y   2.616021  -0.491647   0.000000   0.000000   0.000000
   69  C   5  Z   0.000000   0.000000  -0.541050  -0.809924  -0.474447
   70  C   5 XX   0.010356  -0.082253   0.000000   0.000000   0.000000
   71  C   5 YY   0.100350   0.050188   0.000000   0.000000   0.000000
   72  C   5 ZZ  -0.110706   0.032065   0.000000   0.000000   0.000000
   73  C   5 XY  -0.024477  -0.106280   0.000000   0.000000   0.000000
   74  C   5 XZ   0.000000   0.000000   0.039036   0.016944   0.054091
   75  C   5 YZ   0.000000   0.000000   0.091576  -0.028493  -0.051112
   76  C   6  S  -0.015422  -0.033618   0.000000   0.000000   0.000000
   77  C   6  S   0.059404  -0.060830   0.000000   0.000000   0.000000
   78  C   6  S  -0.619055   0.370735   0.000000   0.000000   0.000000
   79  C   6  X   0.061996  -0.267660   0.000000   0.000000   0.000000
   80  C   6  Y  -0.064978  -0.176574   0.000000   0.000000   0.000000
   81  C   6  Z   0.000000   0.000000   0.214315  -0.498071  -0.395893
   82  C   6  X   1.548564   0.714880   0.000000   0.000000   0.000000
   83  C   6  Y   2.616021   0.491647   0.000000   0.000000   0.000000
   84  C   6  Z   0.000000   0.000000  -0.541050   0.809924   0.474447
   85  C   6 XX  -0.010356  -0.082253   0.000000   0.000000   0.000000
   86  C   6 YY  -0.100350   0.050188   0.000000   0.000000   0.000000
   87  C   6 ZZ   0.110706   0.032065   0.000000   0.000000   0.000000
   88  C   6 XY  -0.024477   0.106280   0.000000   0.000000   0.000000
   89  C   6 XZ   0.000000   0.000000   0.039036  -0.016944  -0.054091
   90  C   6 YZ   0.000000   0.000000  -0.091576  -0.028493  -0.051112
   91  O   7  S   0.000000   0.000000   0.000000   0.000000   0.000000
   92  O   7  S   0.000000   0.000000   0.000000   0.000000   0.000000
   93  O   7  S   0.000000   0.000000   0.000000   0.000000   0.000000
   94  O   7  S   0.000000   0.000000   0.000000   0.000000   0.000000
   95  O   7  X  -0.023406   0.104811   0.000000   0.000000   0.000000
   96  O   7  Y   0.000000   0.000000   0.000000   0.000000   0.000000
   97  O   7  Z   0.000000   0.000000   0.032699   0.000000   0.001449
   98  O   7  X  -0.131178   0.039042   0.000000   0.000000   0.000000
   99  O   7  Y   0.000000   0.000000   0.000000   0.000000   0.000000
  100  O   7  Z   0.000000   0.000000  -0.217710   0.000000  -0.129040
  101  O   7  X   0.511626   0.378705   0.000000   0.000000   0.000000
  102  O   7  Y   0.000000   0.000000   0.000000   0.000000   0.000000
  103  O   7  Z   0.000000   0.000000  -0.227944   0.000000  -0.393647
  104  O   7 XX   0.000000   0.000000   0.000000   0.000000   0.000000
  105  O   7 YY   0.000000   0.000000   0.000000   0.000000   0.000000
  106  O   7 ZZ   0.000000   0.000000   0.000000   0.000000   0.000000
  107  O   7 XY   0.000574   0.005971   0.000000   0.000000   0.000000
  108  O   7 XZ   0.000000   0.000000   0.000000   0.006641   0.000000
  109  O   7 YZ   0.000000   0.000000  -0.011370   0.000000   0.001077
  110  O   7 XX   0.000000   0.000000   0.000000   0.000000   0.000000
  111  O   7 YY   0.000000   0.000000   0.000000   0.000000   0.000000
  112  O   7 ZZ   0.000000   0.000000   0.000000   0.000000   0.000000
  113  O   7 XY  -0.136198   0.093126   0.000000   0.000000   0.000000
  114  O   7 XZ   0.000000   0.000000   0.000000  -0.196939   0.000000
  115  O   7 YZ   0.000000   0.000000   0.336558   0.000000   0.087475
  116  O   8  S   0.000000   0.000000   0.000000   0.000000   0.000000
  117  O   8  S   0.000000   0.000000   0.000000   0.000000   0.000000
  118  O   8  S   0.000000   0.000000   0.000000   0.000000   0.000000
  119  O   8  S   0.000000   0.000000   0.000000   0.000000   0.000000
  120  O   8  X   0.023406   0.104811   0.000000   0.000000   0.000000
  121  O   8  Y   0.000000   0.000000   0.000000   0.000000   0.000000
  122  O   8  Z   0.000000   0.000000   0.032699   0.000000  -0.001449
  123  O   8  X   0.131178   0.039042   0.000000   0.000000   0.000000
  124  O   8  Y   0.000000   0.000000   0.000000   0.000000   0.000000
  125  O   8  Z   0.000000   0.000000  -0.217710   0.000000   0.129040
  126  O   8  X  -0.511626   0.378705   0.000000   0.000000   0.000000
  127  O   8  Y   0.000000   0.000000   0.000000   0.000000   0.000000
  128  O   8  Z   0.000000   0.000000  -0.227944   0.000000   0.393647
  129  O   8 XX   0.000000   0.000000   0.000000   0.000000   0.000000
  130  O   8 YY   0.000000   0.000000   0.000000   0.000000   0.000000
  131  O   8 ZZ   0.000000   0.000000   0.000000   0.000000   0.000000
  132  O   8 XY   0.000574  -0.005971   0.000000   0.000000   0.000000
  133  O   8 XZ   0.000000   0.000000   0.000000  -0.006641   0.000000
  134  O   8 YZ   0.000000   0.000000   0.011370   0.000000   0.001077
  135  O   8 XX   0.000000   0.000000   0.000000   0.000000   0.000000
  136  O   8 YY   0.000000   0.000000   0.000000   0.000000   0.000000
  137  O   8 ZZ   0.000000   0.000000   0.000000   0.000000   0.000000
  138  O   8 XY  -0.136198  -0.093126   0.000000   0.000000   0.000000
  139  O   8 XZ   0.000000   0.000000   0.000000   0.196939   0.000000
  140  O   8 YZ   0.000000   0.000000  -0.336558   0.000000   0.087475
  141  H   9  S   0.223818   0.229618   0.000000   0.000000   0.000000
  142  H   9  S  -0.423960  -0.707479   0.000000   0.000000   0.000000
  143  H   9  X   0.031663   0.079294   0.000000   0.000000   0.000000
  144  H   9  Y   0.008309   0.008112   0.000000   0.000000   0.000000
  145  H   9  Z   0.000000   0.000000  -0.025239   0.004786  -0.008702
  146  H  10  S  -0.223818   0.229618   0.000000   0.000000   0.000000
  147  H  10  S   0.423960  -0.707479   0.000000   0.000000   0.000000
  148  H  10  X  -0.031663   0.079294   0.000000   0.000000   0.000000
  149  H  10  Y   0.008309  -0.008112   0.000000   0.000000   0.000000
  150  H  10  Z   0.000000   0.000000  -0.025239  -0.004786   0.008702
  151  H  11  S   0.223818  -0.229618   0.000000   0.000000   0.000000
  152  H  11  S  -0.423960   0.707479   0.000000   0.000000   0.000000
  153  H  11  X  -0.031663   0.079294   0.000000   0.000000   0.000000
  154  H  11  Y  -0.008309   0.008112   0.000000   0.000000   0.000000
  155  H  11  Z   0.000000   0.000000  -0.025239   0.004786   0.008702
  156  H  12  S  -0.223818  -0.229618   0.000000   0.000000   0.000000
  157  H  12  S   0.423960   0.707479   0.000000   0.000000   0.000000
  158  H  12  X   0.031663   0.079294   0.000000   0.000000   0.000000
  159  H  12  Y  -0.008309  -0.008112   0.000000   0.000000   0.000000
  160  H  12  Z   0.000000   0.000000  -0.025239  -0.004786  -0.008702

                     61         62         63         64         65
                    0.7973     0.8212     0.8325     0.8462     0.8562
                     A          A          A          A          A   
    1  C   1  S  -0.135559   0.000000   0.000000  -0.048275   0.000000
    2  C   1  S  -0.175927   0.000000   0.000000  -0.175407   0.000000
    3  C   1  S   0.159130   0.000000   0.000000   0.296905   0.000000
    4  C   1  X   0.000000   0.012355   0.000000   0.000000   0.149130
    5  C   1  Y   0.383544   0.000000   0.000000  -0.192113   0.000000
    6  C   1  Z   0.000000   0.000000  -0.461648   0.000000   0.000000
    7  C   1  X   0.000000   2.469619   0.000000   0.000000  -3.239043
    8  C   1  Y   0.671438   0.000000   0.000000   3.651253   0.000000
    9  C   1  Z   0.000000   0.000000   1.789840   0.000000   0.000000
   10  C   1 XX  -0.065850   0.000000   0.000000  -0.164145   0.000000
   11  C   1 YY  -0.108587   0.000000   0.000000   0.145957   0.000000
   12  C   1 ZZ   0.174437   0.000000   0.000000   0.018188   0.000000
   13  C   1 XY   0.000000   0.127448   0.000000   0.000000   0.031417
   14  C   1 XZ   0.000000   0.000000   0.000000   0.000000   0.000000
   15  C   1 YZ   0.000000   0.000000  -0.018039   0.000000   0.000000
   16  C   2  S  -0.092358  -0.051000   0.000000  -0.027854   0.072499
   17  C   2  S  -0.216621  -0.073059   0.000000  -0.022075   0.237643
   18  C   2  S   0.272629   0.408004   0.000000   1.764530   1.495714
   19  C   2  X   0.257490   0.389413   0.000000   0.137746   0.171237
   20  C   2  Y  -0.019204   0.040114   0.000000  -0.183089   0.264526
   21  C   2  Z   0.000000   0.000000   0.311900   0.000000   0.000000
   22  C   2  X  -0.763491  -0.071629   0.000000  -1.523533  -1.403940
   23  C   2  Y  -0.035264  -2.495418   0.000000  -0.361236   0.312601
   24  C   2  Z   0.000000   0.000000  -1.168702   0.000000   0.000000
   25  C   2 XX  -0.058831  -0.092597   0.000000   0.068289  -0.021564
   26  C   2 YY  -0.014488   0.057536   0.000000  -0.089831   0.002803
   27  C   2 ZZ   0.073319   0.035061   0.000000   0.021542   0.018761
   28  C   2 XY  -0.041168  -0.046032   0.000000   0.020782  -0.152178
   29  C   2 XZ   0.000000   0.000000   0.011576   0.000000   0.000000
   30  C   2 YZ   0.000000   0.000000  -0.008067   0.000000   0.000000
   31  C   3  S  -0.092358   0.051000   0.000000   0.027854   0.072499
   32  C   3  S  -0.216621   0.073059   0.000000   0.022075   0.237643
   33  C   3  S   0.272629  -0.408004   0.000000  -1.764530   1.495714
   34  C   3  X   0.257490  -0.389413   0.000000  -0.137746   0.171237
   35  C   3  Y   0.019204   0.040114   0.000000  -0.183089  -0.264526
   36  C   3  Z   0.000000   0.000000  -0.311900   0.000000   0.000000
   37  C   3  X  -0.763491   0.071629   0.000000   1.523533  -1.403940
   38  C   3  Y   0.035264  -2.495418   0.000000  -0.361236  -0.312601
   39  C   3  Z   0.000000   0.000000   1.168702   0.000000   0.000000
   40  C   3 XX  -0.058831   0.092597   0.000000  -0.068289  -0.021564
   41  C   3 YY  -0.014488  -0.057536   0.000000   0.089831   0.002803
   42  C   3 ZZ   0.073319  -0.035061   0.000000  -0.021542   0.018761
   43  C   3 XY   0.041168  -0.046032   0.000000   0.020782   0.152178
   44  C   3 XZ   0.000000   0.000000  -0.011576   0.000000   0.000000
   45  C   3 YZ   0.000000   0.000000  -0.008067   0.000000   0.000000
   46  C   4  S  -0.135559   0.000000   0.000000   0.048275   0.000000
   47  C   4  S  -0.175927   0.000000   0.000000   0.175407   0.000000
   48  C   4  S   0.159130   0.000000   0.000000  -0.296905   0.000000
   49  C   4  X   0.000000  -0.012355   0.000000   0.000000   0.149130
   50  C   4  Y  -0.383544   0.000000   0.000000  -0.192113   0.000000
   51  C   4  Z   0.000000   0.000000   0.461648   0.000000   0.000000
   52  C   4  X   0.000000  -2.469619   0.000000   0.000000  -3.239043
   53  C   4  Y  -0.671438   0.000000   0.000000   3.651253   0.000000
   54  C   4  Z   0.000000   0.000000  -1.789840   0.000000   0.000000
   55  C   4 XX  -0.065850   0.000000   0.000000   0.164145   0.000000
   56  C   4 YY  -0.108587   0.000000   0.000000  -0.145957   0.000000
   57  C   4 ZZ   0.174437   0.000000   0.000000  -0.018188   0.000000
   58  C   4 XY   0.000000   0.127448   0.000000   0.000000  -0.031417
   59  C   4 XZ   0.000000   0.000000   0.000000   0.000000   0.000000
   60  C   4 YZ   0.000000   0.000000  -0.018039   0.000000   0.000000
   61  C   5  S  -0.092358  -0.051000   0.000000   0.027854  -0.072499
   62  C   5  S  -0.216621  -0.073059   0.000000   0.022075  -0.237643
   63  C   5  S   0.272629   0.408004   0.000000  -1.764530  -1.495714
   64  C   5  X  -0.257490  -0.389413   0.000000   0.137746   0.171237
   65  C   5  Y   0.019204  -0.040114   0.000000  -0.183089   0.264526
   66  C   5  Z   0.000000   0.000000  -0.311900   0.000000   0.000000
   67  C   5  X   0.763491   0.071629   0.000000  -1.523533  -1.403940
   68  C   5  Y   0.035264   2.495418   0.000000  -0.361236   0.312601
   69  C   5  Z   0.000000   0.000000   1.168702   0.000000   0.000000
   70  C   5 XX  -0.058831  -0.092597   0.000000  -0.068289   0.021564
   71  C   5 YY  -0.014488   0.057536   0.000000   0.089831  -0.002803
   72  C   5 ZZ   0.073319   0.035061   0.000000  -0.021542  -0.018761
   73  C   5 XY  -0.041168  -0.046032   0.000000  -0.020782   0.152178
   74  C   5 XZ   0.000000   0.000000   0.011576   0.000000   0.000000
   75  C   5 YZ   0.000000   0.000000  -0.008067   0.000000   0.000000
   76  C   6  S  -0.092358   0.051000   0.000000  -0.027854  -0.072499
   77  C   6  S  -0.216621   0.073059   0.000000  -0.022075  -0.237643
   78  C   6  S   0.272629  -0.408004   0.000000   1.764530  -1.495714
   79  C   6  X  -0.257490   0.389413   0.000000  -0.137746   0.171237
   80  C   6  Y  -0.019204  -0.040114   0.000000  -0.183089  -0.264526
   81  C   6  Z   0.000000   0.000000   0.311900   0.000000   0.000000
   82  C   6  X   0.763491  -0.071629   0.000000   1.523533  -1.403940
   83  C   6  Y  -0.035264   2.495418   0.000000  -0.361236  -0.312601
   84  C   6  Z   0.000000   0.000000  -1.168702   0.000000   0.000000
   85  C   6 XX  -0.058831   0.092597   0.000000   0.068289   0.021564
   86  C   6 YY  -0.014488  -0.057536   0.000000  -0.089831  -0.002803
   87  C   6 ZZ   0.073319  -0.035061   0.000000   0.021542  -0.018761
   88  C   6 XY   0.041168  -0.046032   0.000000  -0.020782  -0.152178
   89  C   6 XZ   0.000000   0.000000  -0.011576   0.000000   0.000000
   90  C   6 YZ   0.000000   0.000000  -0.008067   0.000000   0.000000
   91  O   7  S  -0.005393   0.000000   0.000000   0.066091   0.000000
   92  O   7  S  -0.068988   0.000000   0.000000   0.057309   0.000000
   93  O   7  S  -0.204379   0.000000   0.000000  -1.600979   0.000000
   94  O   7  S  -1.004738   0.000000   0.000000  -2.283904   0.000000
   95  O   7  X   0.000000  -0.045651   0.000000   0.000000   0.148635
   96  O   7  Y   0.166604   0.000000   0.000000  -0.063565   0.000000
   97  O   7  Z   0.000000   0.000000  -0.009129   0.000000   0.000000
   98  O   7  X   0.000000  -0.309347   0.000000   0.000000   0.440443
   99  O   7  Y   0.307638   0.000000   0.000000   0.708990   0.000000
  100  O   7  Z   0.000000   0.000000  -0.255084   0.000000   0.000000
  101  O   7  X   0.000000  -0.107446   0.000000   0.000000   0.158837
  102  O   7  Y   0.454814   0.000000   0.000000   0.948046   0.000000
  103  O   7  Z   0.000000   0.000000  -0.229144   0.000000   0.000000
  104  O   7 XX  -0.007905   0.000000   0.000000   0.015846   0.000000
  105  O   7 YY   0.018044   0.000000   0.000000  -0.026741   0.000000
  106  O   7 ZZ  -0.010139   0.000000   0.000000   0.010895   0.000000
  107  O   7 XY   0.000000  -0.005712   0.000000   0.000000   0.021360
  108  O   7 XZ   0.000000   0.000000   0.000000   0.000000   0.000000
  109  O   7 YZ   0.000000   0.000000  -0.009720   0.000000   0.000000
  110  O   7 XX  -0.129904   0.000000   0.000000   0.127864   0.000000
  111  O   7 YY   0.158660   0.000000   0.000000  -0.387078   0.000000
  112  O   7 ZZ  -0.028757   0.000000   0.000000   0.259214   0.000000
  113  O   7 XY   0.000000  -0.028511   0.000000   0.000000  -0.152074
  114  O   7 XZ   0.000000   0.000000   0.000000   0.000000   0.000000
  115  O   7 YZ   0.000000   0.000000   0.351129   0.000000   0.000000
  116  O   8  S  -0.005393   0.000000   0.000000  -0.066091   0.000000
  117  O   8  S  -0.068988   0.000000   0.000000  -0.057309   0.000000
  118  O   8  S  -0.204379   0.000000   0.000000   1.600979   0.000000
  119  O   8  S  -1.004738   0.000000   0.000000   2.283904   0.000000
  120  O   8  X   0.000000   0.045651   0.000000   0.000000   0.148635
  121  O   8  Y  -0.166604   0.000000   0.000000  -0.063565   0.000000
  122  O   8  Z   0.000000   0.000000   0.009129   0.000000   0.000000
  123  O   8  X   0.000000   0.309347   0.000000   0.000000   0.440443
  124  O   8  Y  -0.307638   0.000000   0.000000   0.708990   0.000000
  125  O   8  Z   0.000000   0.000000   0.255084   0.000000   0.000000
  126  O   8  X   0.000000   0.107446   0.000000   0.000000   0.158837
  127  O   8  Y  -0.454814   0.000000   0.000000   0.948046   0.000000
  128  O   8  Z   0.000000   0.000000   0.229144   0.000000   0.000000
  129  O   8 XX  -0.007905   0.000000   0.000000  -0.015846   0.000000
  130  O   8 YY   0.018044   0.000000   0.000000   0.026741   0.000000
  131  O   8 ZZ  -0.010139   0.000000   0.000000  -0.010895   0.000000
  132  O   8 XY   0.000000  -0.005712   0.000000   0.000000  -0.021360
  133  O   8 XZ   0.000000   0.000000   0.000000   0.000000   0.000000
  134  O   8 YZ   0.000000   0.000000  -0.009720   0.000000   0.000000
  135  O   8 XX  -0.129904   0.000000   0.000000  -0.127864   0.000000
  136  O   8 YY   0.158660   0.000000   0.000000   0.387078   0.000000
  137  O   8 ZZ  -0.028757   0.000000   0.000000  -0.259214   0.000000
  138  O   8 XY   0.000000  -0.028511   0.000000   0.000000   0.152074
  139  O   8 XZ   0.000000   0.000000   0.000000   0.000000   0.000000
  140  O   8 YZ   0.000000   0.000000   0.351129   0.000000   0.000000
  141  H   9  S   0.092035  -0.276990   0.000000  -0.001131  -0.034915
  142  H   9  S   0.566650   1.028544   0.000000   0.724407   0.891277
  143  H   9  X  -0.035078  -0.097783   0.000000  -0.001154  -0.099589
  144  H   9  Y  -0.015075  -0.064869   0.000000  -0.003968  -0.069246
  145  H   9  Z   0.000000   0.000000  -0.026807   0.000000   0.000000
  146  H  10  S   0.092035   0.276990   0.000000   0.001131  -0.034915
  147  H  10  S   0.566650  -1.028544   0.000000  -0.724407   0.891277
  148  H  10  X  -0.035078   0.097783   0.000000   0.001154  -0.099589
  149  H  10  Y   0.015075  -0.064869   0.000000  -0.003968   0.069246
  150  H  10  Z   0.000000   0.000000   0.026807   0.000000   0.000000
  151  H  11  S   0.092035  -0.276990   0.000000   0.001131   0.034915
  152  H  11  S   0.566650   1.028544   0.000000  -0.724407  -0.891277
  153  H  11  X   0.035078   0.097783   0.000000  -0.001154  -0.099589
  154  H  11  Y   0.015075   0.064869   0.000000  -0.003968  -0.069246
  155  H  11  Z   0.000000   0.000000   0.026807   0.000000   0.000000
  156  H  12  S   0.092035   0.276990   0.000000  -0.001131   0.034915
  157  H  12  S   0.566650  -1.028544   0.000000   0.724407  -0.891277
  158  H  12  X   0.035078  -0.097783   0.000000   0.001154  -0.099589
  159  H  12  Y  -0.015075   0.064869   0.000000  -0.003968   0.069246
  160  H  12  Z   0.000000   0.000000  -0.026807   0.000000   0.000000

                     66         67         68         69         70
                    0.8579     0.8642     0.8794     0.8951     0.8999
                     A          A          A          A          A   
    1  C   1  S   0.000000  -0.020301  -0.224796  -0.097752   0.000000
    2  C   1  S   0.000000   0.021072  -0.577501  -0.118587   0.000000
    3  C   1  S   0.000000   1.384104   3.476285  -0.609830   0.000000
    4  C   1  X   0.006869   0.000000   0.000000   0.000000   0.000000
    5  C   1  Y   0.000000   0.360084   0.128097   0.198236   0.000000
    6  C   1  Z   0.000000   0.000000   0.000000   0.000000   0.000000
    7  C   1  X   7.789721   0.000000   0.000000   0.000000   0.000000
    8  C   1  Y   0.000000  -1.390986   1.885515  -2.202945   0.000000
    9  C   1  Z   0.000000   0.000000   0.000000   0.000000   0.000000
   10  C   1 XX   0.000000   0.131897  -0.013455  -0.101293   0.000000
   11  C   1 YY   0.000000  -0.072779   0.096713  -0.076172   0.000000
   12  C   1 ZZ   0.000000  -0.059118  -0.083258   0.177464   0.000000
   13  C   1 XY  -0.010145   0.000000   0.000000   0.000000   0.000000
   14  C   1 XZ   0.000000   0.000000   0.000000   0.000000   0.187183
   15  C   1 YZ   0.000000   0.000000   0.000000   0.000000   0.000000
   16  C   2  S  -0.035353   0.062848  -0.051031  -0.070723   0.000000
   17  C   2  S  -0.145385   0.117370  -0.083736  -0.170212   0.000000
   18  C   2  S  -2.986772  -0.691623  -0.208266  -2.541520   0.000000
   19  C   2  X  -0.082991  -0.334009  -0.056679   0.168830   0.000000
   20  C   2  Y  -0.288952  -0.103608   0.108245  -0.307947   0.000000
   21  C   2  Z   0.000000   0.000000   0.000000   0.000000   0.081406
   22  C   2  X   4.239068   1.043335  -0.119948   0.094472   0.000000
   23  C   2  Y  -3.170492   0.113279  -0.710336   2.747103   0.000000
   24  C   2  Z   0.000000   0.000000   0.000000   0.000000  -0.124678
   25  C   2 XX   0.033606  -0.029951  -0.032235   0.010032   0.000000
   26  C   2 YY  -0.119752   0.047920  -0.020731  -0.110023   0.000000
   27  C   2 ZZ   0.086147  -0.017970   0.052966   0.099990   0.000000
   28  C   2 XY   0.060103   0.126484   0.134058  -0.034093   0.000000
   29  C   2 XZ   0.000000   0.000000   0.000000   0.000000  -0.080443
   30  C   2 YZ   0.000000   0.000000   0.000000   0.000000   0.123743
   31  C   3  S   0.035353   0.062848  -0.051031   0.070723   0.000000
   32  C   3  S   0.145385   0.117370  -0.083736   0.170212   0.000000
   33  C   3  S   2.986772  -0.691623  -0.208266   2.541520   0.000000
   34  C   3  X   0.082991  -0.334009  -0.056679  -0.168830   0.000000
   35  C   3  Y  -0.288952   0.103608  -0.108245  -0.307947   0.000000
   36  C   3  Z   0.000000   0.000000   0.000000   0.000000   0.081406
   37  C   3  X  -4.239068   1.043335  -0.119948  -0.094472   0.000000
   38  C   3  Y  -3.170492  -0.113279   0.710336   2.747103   0.000000
   39  C   3  Z   0.000000   0.000000   0.000000   0.000000  -0.124678
   40  C   3 XX  -0.033606  -0.029951  -0.032235  -0.010032   0.000000
   41  C   3 YY   0.119752   0.047920  -0.020731   0.110023   0.000000
   42  C   3 ZZ  -0.086147  -0.017970   0.052966  -0.099990   0.000000
   43  C   3 XY   0.060103  -0.126484  -0.134058  -0.034093   0.000000
   44  C   3 XZ   0.000000   0.000000   0.000000   0.000000  -0.080443
   45  C   3 YZ   0.000000   0.000000   0.000000   0.000000  -0.123743
   46  C   4  S   0.000000  -0.020301  -0.224796   0.097752   0.000000
   47  C   4  S   0.000000   0.021072  -0.577501   0.118587   0.000000
   48  C   4  S   0.000000   1.384104   3.476285   0.609830   0.000000
   49  C   4  X  -0.006869   0.000000   0.000000   0.000000   0.000000
   50  C   4  Y   0.000000  -0.360084  -0.128097   0.198236   0.000000
   51  C   4  Z   0.000000   0.000000   0.000000   0.000000   0.000000
   52  C   4  X  -7.789721   0.000000   0.000000   0.000000   0.000000
   53  C   4  Y   0.000000   1.390986  -1.885515  -2.202945   0.000000
   54  C   4  Z   0.000000   0.000000   0.000000   0.000000   0.000000
   55  C   4 XX   0.000000   0.131897  -0.013455   0.101293   0.000000
   56  C   4 YY   0.000000  -0.072779   0.096713   0.076172   0.000000
   57  C   4 ZZ   0.000000  -0.059118  -0.083258  -0.177464   0.000000
   58  C   4 XY  -0.010145   0.000000   0.000000   0.000000   0.000000
   59  C   4 XZ   0.000000   0.000000   0.000000   0.000000   0.187183
   60  C   4 YZ   0.000000   0.000000   0.000000   0.000000   0.000000
   61  C   5  S  -0.035353   0.062848  -0.051031   0.070723   0.000000
   62  C   5  S  -0.145385   0.117370  -0.083736   0.170212   0.000000
   63  C   5  S  -2.986772  -0.691623  -0.208266   2.541520   0.000000
   64  C   5  X   0.082991   0.334009   0.056679   0.168830   0.000000
   65  C   5  Y   0.288952   0.103608  -0.108245  -0.307947   0.000000
   66  C   5  Z   0.000000   0.000000   0.000000   0.000000  -0.081406
   67  C   5  X  -4.239068  -1.043335   0.119948   0.094472   0.000000
   68  C   5  Y   3.170492  -0.113279   0.710336   2.747103   0.000000
   69  C   5  Z   0.000000   0.000000   0.000000   0.000000   0.124678
   70  C   5 XX   0.033606  -0.029951  -0.032235  -0.010032   0.000000
   71  C   5 YY  -0.119752   0.047920  -0.020731   0.110023   0.000000
   72  C   5 ZZ   0.086147  -0.017970   0.052966  -0.099990   0.000000
   73  C   5 XY   0.060103   0.126484   0.134058   0.034093   0.000000
   74  C   5 XZ   0.000000   0.000000   0.000000   0.000000  -0.080443
   75  C   5 YZ   0.000000   0.000000   0.000000   0.000000   0.123743
   76  C   6  S   0.035353   0.062848  -0.051031  -0.070723   0.000000
   77  C   6  S   0.145385   0.117370  -0.083736  -0.170212   0.000000
   78  C   6  S   2.986772  -0.691623  -0.208266  -2.541520   0.000000
   79  C   6  X  -0.082991   0.334009   0.056679  -0.168830   0.000000
   80  C   6  Y   0.288952  -0.103608   0.108245  -0.307947   0.000000
   81  C   6  Z   0.000000   0.000000   0.000000   0.000000  -0.081406
   82  C   6  X   4.239068  -1.043335   0.119948  -0.094472   0.000000
   83  C   6  Y   3.170492   0.113279  -0.710336   2.747103   0.000000
   84  C   6  Z   0.000000   0.000000   0.000000   0.000000   0.124678
   85  C   6 XX  -0.033606  -0.029951  -0.032235   0.010032   0.000000
   86  C   6 YY   0.119752   0.047920  -0.020731  -0.110023   0.000000
   87  C   6 ZZ  -0.086147  -0.017970   0.052966   0.099990   0.000000
   88  C   6 XY   0.060103  -0.126484  -0.134058   0.034093   0.000000
   89  C   6 XZ   0.000000   0.000000   0.000000   0.000000  -0.080443
   90  C   6 YZ   0.000000   0.000000   0.000000   0.000000  -0.123743
   91  O   7  S   0.000000  -0.024346   0.064876  -0.046037   0.000000
   92  O   7  S   0.000000  -0.090869   0.058331  -0.069405   0.000000
   93  O   7  S   0.000000   0.201048  -1.451771   1.093933   0.000000
   94  O   7  S   0.000000   0.770609  -1.560303  -0.196921   0.000000
   95  O   7  X  -0.134277   0.000000   0.000000   0.000000   0.000000
   96  O   7  Y   0.000000   0.118139  -0.059007   0.118718   0.000000
   97  O   7  Z   0.000000   0.000000   0.000000   0.000000   0.000000
   98  O   7  X  -0.927704   0.000000   0.000000   0.000000   0.000000
   99  O   7  Y   0.000000   0.095316   0.773947  -0.147609   0.000000
  100  O   7  Z   0.000000   0.000000   0.000000   0.000000   0.000000
  101  O   7  X  -0.187059   0.000000   0.000000   0.000000   0.000000
  102  O   7  Y   0.000000  -0.402445   0.665300   0.265815   0.000000
  103  O   7  Z   0.000000   0.000000   0.000000   0.000000   0.000000
  104  O   7 XX   0.000000  -0.007369   0.008975  -0.006328   0.000000
  105  O   7 YY   0.000000   0.018581  -0.010179   0.021228   0.000000
  106  O   7 ZZ   0.000000  -0.011212   0.001203  -0.014900   0.000000
  107  O   7 XY  -0.031700   0.000000   0.000000   0.000000   0.000000
  108  O   7 XZ   0.000000   0.000000   0.000000   0.000000  -0.018216
  109  O   7 YZ   0.000000   0.000000   0.000000   0.000000   0.000000
  110  O   7 XX   0.000000  -0.171150  -0.042087   0.071746   0.000000
  111  O   7 YY   0.000000   0.185527  -0.384634   0.069279   0.000000
  112  O   7 ZZ   0.000000  -0.014378   0.426721  -0.141025   0.000000
  113  O   7 XY   0.324637   0.000000   0.000000   0.000000   0.000000
  114  O   7 XZ   0.000000   0.000000   0.000000   0.000000   0.544712
  115  O   7 YZ   0.000000   0.000000   0.000000   0.000000   0.000000
  116  O   8  S   0.000000  -0.024346   0.064876   0.046037   0.000000
  117  O   8  S   0.000000  -0.090869   0.058331   0.069405   0.000000
  118  O   8  S   0.000000   0.201048  -1.451771  -1.093933   0.000000
  119  O   8  S   0.000000   0.770609  -1.560303   0.196921   0.000000
  120  O   8  X   0.134277   0.000000   0.000000   0.000000   0.000000
  121  O   8  Y   0.000000  -0.118139   0.059007   0.118718   0.000000
  122  O   8  Z   0.000000   0.000000   0.000000   0.000000   0.000000
  123  O   8  X   0.927704   0.000000   0.000000   0.000000   0.000000
  124  O   8  Y   0.000000  -0.095316  -0.773947  -0.147609   0.000000
  125  O   8  Z   0.000000   0.000000   0.000000   0.000000   0.000000
  126  O   8  X   0.187059   0.000000   0.000000   0.000000   0.000000
  127  O   8  Y   0.000000   0.402445  -0.665300   0.265815   0.000000
  128  O   8  Z   0.000000   0.000000   0.000000   0.000000   0.000000
  129  O   8 XX   0.000000  -0.007369   0.008975   0.006328   0.000000
  130  O   8 YY   0.000000   0.018581  -0.010179  -0.021228   0.000000
  131  O   8 ZZ   0.000000  -0.011212   0.001203   0.014900   0.000000
  132  O   8 XY  -0.031700   0.000000   0.000000   0.000000   0.000000
  133  O   8 XZ   0.000000   0.000000   0.000000   0.000000  -0.018216
  134  O   8 YZ   0.000000   0.000000   0.000000   0.000000   0.000000
  135  O   8 XX   0.000000  -0.171150  -0.042087  -0.071746   0.000000
  136  O   8 YY   0.000000   0.185527  -0.384634  -0.069279   0.000000
  137  O   8 ZZ   0.000000  -0.014378   0.426721   0.141025   0.000000
  138  O   8 XY   0.324637   0.000000   0.000000   0.000000   0.000000
  139  O   8 XZ   0.000000   0.000000   0.000000   0.000000   0.544712
  140  O   8 YZ   0.000000   0.000000   0.000000   0.000000   0.000000
  141  H   9  S  -0.104410   0.171795   0.092140  -0.126993   0.000000
  142  H   9  S  -0.924893  -0.745930   0.265280  -0.441271   0.000000
  143  H   9  X   0.053655   0.096678   0.016206  -0.002286   0.000000
  144  H   9  Y   0.041416   0.040236   0.004708  -0.025611   0.000000
  145  H   9  Z   0.000000   0.000000   0.000000   0.000000  -0.003237
  146  H  10  S   0.104410   0.171795   0.092140   0.126993   0.000000
  147  H  10  S   0.924893  -0.745930   0.265280   0.441271   0.000000
  148  H  10  X  -0.053655   0.096678   0.016206   0.002286   0.000000
  149  H  10  Y   0.041416  -0.040236  -0.004708  -0.025611   0.000000
  150  H  10  Z   0.000000   0.000000   0.000000   0.000000  -0.003237
  151  H  11  S  -0.104410   0.171795   0.092140   0.126993   0.000000
  152  H  11  S  -0.924893  -0.745930   0.265280   0.441271   0.000000
  153  H  11  X  -0.053655  -0.096678  -0.016206  -0.002286   0.000000
  154  H  11  Y  -0.041416  -0.040236  -0.004708  -0.025611   0.000000
  155  H  11  Z   0.000000   0.000000   0.000000   0.000000   0.003237
  156  H  12  S   0.104410   0.171795   0.092140  -0.126993   0.000000
  157  H  12  S   0.924893  -0.745930   0.265280  -0.441271   0.000000
  158  H  12  X   0.053655  -0.096678  -0.016206   0.002286   0.000000
  159  H  12  Y  -0.041416   0.040236   0.004708  -0.025611   0.000000
  160  H  12  Z   0.000000   0.000000   0.000000   0.000000   0.003237

                     71         72         73         74         75
                    0.9666     0.9797     0.9963     1.0108     1.0369
                     A          A          A          A          A   
    1  C   1  S   0.168985   0.099026   0.000000   0.000000   0.000000
    2  C   1  S   0.418628   0.194589   0.000000   0.000000   0.000000
    3  C   1  S  -4.777580  -1.063513   0.000000   0.000000   0.000000
    4  C   1  X   0.000000   0.000000   0.000000  -0.283163   0.000000
    5  C   1  Y  -0.350026  -0.027989   0.000000   0.000000   0.000000
    6  C   1  Z   0.000000   0.000000   0.000000   0.000000   0.367438
    7  C   1  X   0.000000   0.000000   0.000000   7.206107   0.000000
    8  C   1  Y   0.421050   0.437062   0.000000   0.000000   0.000000
    9  C   1  Z   0.000000   0.000000   0.000000   0.000000  -0.559497
   10  C   1 XX  -0.041108   0.075091   0.000000   0.000000   0.000000
   11  C   1 YY  -0.048016  -0.013934   0.000000   0.000000   0.000000
   12  C   1 ZZ   0.089124  -0.061157   0.000000   0.000000   0.000000
   13  C   1 XY   0.000000   0.000000   0.000000  -0.084062   0.000000
   14  C   1 XZ   0.000000   0.000000  -0.170463   0.000000   0.000000
   15  C   1 YZ   0.000000   0.000000   0.000000   0.000000  -0.156998
   16  C   2  S   0.044812   0.278576   0.000000   0.008824   0.000000
   17  C   2  S   0.067960   0.629120   0.000000  -0.022263   0.000000
   18  C   2  S   0.735635  -1.143212   0.000000  -1.290794   0.000000
   19  C   2  X   0.430003   0.106022   0.000000  -0.120422   0.000000
   20  C   2  Y   0.161080   0.174664   0.000000   0.421248   0.000000
   21  C   2  Z   0.000000   0.000000  -0.103422   0.000000  -0.133018
   22  C   2  X  -2.302982  -0.613019   0.000000   3.008875   0.000000
   23  C   2  Y  -0.073076  -0.579171   0.000000  -5.024265   0.000000
   24  C   2  Z   0.000000   0.000000   0.440454   0.000000   0.208769
   25  C   2 XX   0.065835  -0.006304   0.000000  -0.118406   0.000000
   26  C   2 YY   0.035333   0.022480   0.000000   0.130997   0.000000
   27  C   2 ZZ  -0.101167  -0.016176   0.000000  -0.012591   0.000000
   28  C   2 XY  -0.050716  -0.049264   0.000000   0.071445   0.000000
   29  C   2 XZ   0.000000   0.000000   0.077015   0.000000  -0.208709
   30  C   2 YZ   0.000000   0.000000  -0.063777   0.000000  -0.129746
   31  C   3  S  -0.044812   0.278576   0.000000  -0.008824   0.000000
   32  C   3  S  -0.067960   0.629120   0.000000   0.022263   0.000000
   33  C   3  S  -0.735635  -1.143212   0.000000   1.290794   0.000000
   34  C   3  X  -0.430003   0.106022   0.000000   0.120422   0.000000
   35  C   3  Y   0.161080  -0.174664   0.000000   0.421248   0.000000
   36  C   3  Z   0.000000   0.000000   0.103422   0.000000  -0.133018
   37  C   3  X   2.302982  -0.613019   0.000000  -3.008875   0.000000
   38  C   3  Y  -0.073076   0.579171   0.000000  -5.024265   0.000000
   39  C   3  Z   0.000000   0.000000  -0.440454   0.000000   0.208769
   40  C   3 XX  -0.065835  -0.006304   0.000000   0.118406   0.000000
   41  C   3 YY  -0.035333   0.022480   0.000000  -0.130997   0.000000
   42  C   3 ZZ   0.101167  -0.016176   0.000000   0.012591   0.000000
   43  C   3 XY  -0.050716   0.049264   0.000000   0.071445   0.000000
   44  C   3 XZ   0.000000   0.000000  -0.077015   0.000000  -0.208709
   45  C   3 YZ   0.000000   0.000000  -0.063777   0.000000   0.129746
   46  C   4  S  -0.168985   0.099026   0.000000   0.000000   0.000000
   47  C   4  S  -0.418628   0.194589   0.000000   0.000000   0.000000
   48  C   4  S   4.777580  -1.063513   0.000000   0.000000   0.000000
   49  C   4  X   0.000000   0.000000   0.000000   0.283163   0.000000
   50  C   4  Y  -0.350026   0.027989   0.000000   0.000000   0.000000
   51  C   4  Z   0.000000   0.000000   0.000000   0.000000   0.367438
   52  C   4  X   0.000000   0.000000   0.000000  -7.206107   0.000000
   53  C   4  Y   0.421050  -0.437062   0.000000   0.000000   0.000000
   54  C   4  Z   0.000000   0.000000   0.000000   0.000000  -0.559497
   55  C   4 XX   0.041108   0.075091   0.000000   0.000000   0.000000
   56  C   4 YY   0.048016  -0.013934   0.000000   0.000000   0.000000
   57  C   4 ZZ  -0.089124  -0.061157   0.000000   0.000000   0.000000
   58  C   4 XY   0.000000   0.000000   0.000000  -0.084062   0.000000
   59  C   4 XZ   0.000000   0.000000   0.170463   0.000000   0.000000
   60  C   4 YZ   0.000000   0.000000   0.000000   0.000000   0.156998
   61  C   5  S  -0.044812   0.278576   0.000000   0.008824   0.000000
   62  C   5  S  -0.067960   0.629120   0.000000  -0.022263   0.000000
   63  C   5  S  -0.735635  -1.143212   0.000000  -1.290794   0.000000
   64  C   5  X   0.430003  -0.106022   0.000000   0.120422   0.000000
   65  C   5  Y   0.161080  -0.174664   0.000000  -0.421248   0.000000
   66  C   5  Z   0.000000   0.000000  -0.103422   0.000000  -0.133018
   67  C   5  X  -2.302982   0.613019   0.000000  -3.008875   0.000000
   68  C   5  Y  -0.073076   0.579171   0.000000   5.024265   0.000000
   69  C   5  Z   0.000000   0.000000   0.440454   0.000000   0.208769
   70  C   5 XX  -0.065835  -0.006304   0.000000  -0.118406   0.000000
   71  C   5 YY  -0.035333   0.022480   0.000000   0.130997   0.000000
   72  C   5 ZZ   0.101167  -0.016176   0.000000  -0.012591   0.000000
   73  C   5 XY   0.050716  -0.049264   0.000000   0.071445   0.000000
   74  C   5 XZ   0.000000   0.000000  -0.077015   0.000000   0.208709
   75  C   5 YZ   0.000000   0.000000   0.063777   0.000000   0.129746
   76  C   6  S   0.044812   0.278576   0.000000  -0.008824   0.000000
   77  C   6  S   0.067960   0.629120   0.000000   0.022263   0.000000
   78  C   6  S   0.735635  -1.143212   0.000000   1.290794   0.000000
   79  C   6  X  -0.430003  -0.106022   0.000000  -0.120422   0.000000
   80  C   6  Y   0.161080   0.174664   0.000000  -0.421248   0.000000
   81  C   6  Z   0.000000   0.000000   0.103422   0.000000  -0.133018
   82  C   6  X   2.302982   0.613019   0.000000   3.008875   0.000000
   83  C   6  Y  -0.073076  -0.579171   0.000000   5.024265   0.000000
   84  C   6  Z   0.000000   0.000000  -0.440454   0.000000   0.208769
   85  C   6 XX   0.065835  -0.006304   0.000000   0.118406   0.000000
   86  C   6 YY   0.035333   0.022480   0.000000  -0.130997   0.000000
   87  C   6 ZZ  -0.101167  -0.016176   0.000000   0.012591   0.000000
   88  C   6 XY   0.050716   0.049264   0.000000   0.071445   0.000000
   89  C   6 XZ   0.000000   0.000000   0.077015   0.000000   0.208709
   90  C   6 YZ   0.000000   0.000000   0.063777   0.000000  -0.129746
   91  O   7  S  -0.022999   0.019230   0.000000   0.000000   0.000000
   92  O   7  S   0.011282   0.055819   0.000000   0.000000   0.000000
   93  O   7  S   0.651897  -0.125576   0.000000   0.000000   0.000000
   94  O   7  S   0.677942   0.611106   0.000000   0.000000   0.000000
   95  O   7  X   0.000000   0.000000   0.000000  -0.037127   0.000000
   96  O   7  Y  -0.013809  -0.057885   0.000000   0.000000   0.000000
   97  O   7  Z   0.000000   0.000000   0.000000   0.000000   0.075685
   98  O   7  X   0.000000   0.000000   0.000000  -0.555865   0.000000
   99  O   7  Y  -0.609299  -0.110434   0.000000   0.000000   0.000000
  100  O   7  Z   0.000000   0.000000   0.000000   0.000000   0.081506
  101  O   7  X   0.000000   0.000000   0.000000  -0.165939   0.000000
  102  O   7  Y  -0.334309  -0.440803   0.000000   0.000000   0.000000
  103  O   7  Z   0.000000   0.000000   0.000000   0.000000   0.097693
  104  O   7 XX  -0.000130   0.005762   0.000000   0.000000   0.000000
  105  O   7 YY  -0.005879  -0.005301   0.000000   0.000000   0.000000
  106  O   7 ZZ   0.006009  -0.000461   0.000000   0.000000   0.000000
  107  O   7 XY   0.000000   0.000000   0.000000  -0.001887   0.000000
  108  O   7 XZ   0.000000   0.000000   0.014752   0.000000   0.000000
  109  O   7 YZ   0.000000   0.000000   0.000000   0.000000  -0.016130
  110  O   7 XX   0.029983  -0.376835   0.000000   0.000000   0.000000
  111  O   7 YY   0.157555   0.213648   0.000000   0.000000   0.000000
  112  O   7 ZZ  -0.187539   0.163187   0.000000   0.000000   0.000000
  113  O   7 XY   0.000000   0.000000   0.000000   0.452879   0.000000
  114  O   7 XZ   0.000000   0.000000  -0.615172   0.000000   0.000000
  115  O   7 YZ   0.000000   0.000000   0.000000   0.000000   0.347215
  116  O   8  S   0.022999   0.019230   0.000000   0.000000   0.000000
  117  O   8  S  -0.011282   0.055819   0.000000   0.000000   0.000000
  118  O   8  S  -0.651897  -0.125576   0.000000   0.000000   0.000000
  119  O   8  S  -0.677942   0.611106   0.000000   0.000000   0.000000
  120  O   8  X   0.000000   0.000000   0.000000   0.037127   0.000000
  121  O   8  Y  -0.013809   0.057885   0.000000   0.000000   0.000000
  122  O   8  Z   0.000000   0.000000   0.000000   0.000000   0.075685
  123  O   8  X   0.000000   0.000000   0.000000   0.555865   0.000000
  124  O   8  Y  -0.609299   0.110434   0.000000   0.000000   0.000000
  125  O   8  Z   0.000000   0.000000   0.000000   0.000000   0.081506
  126  O   8  X   0.000000   0.000000   0.000000   0.165939   0.000000
  127  O   8  Y  -0.334309   0.440803   0.000000   0.000000   0.000000
  128  O   8  Z   0.000000   0.000000   0.000000   0.000000   0.097693
  129  O   8 XX   0.000130   0.005762   0.000000   0.000000   0.000000
  130  O   8 YY   0.005879  -0.005301   0.000000   0.000000   0.000000
  131  O   8 ZZ  -0.006009  -0.000461   0.000000   0.000000   0.000000
  132  O   8 XY   0.000000   0.000000   0.000000  -0.001887   0.000000
  133  O   8 XZ   0.000000   0.000000  -0.014752   0.000000   0.000000
  134  O   8 YZ   0.000000   0.000000   0.000000   0.000000   0.016130
  135  O   8 XX  -0.029983  -0.376835   0.000000   0.000000   0.000000
  136  O   8 YY  -0.157555   0.213648   0.000000   0.000000   0.000000
  137  O   8 ZZ   0.187539   0.163187   0.000000   0.000000   0.000000
  138  O   8 XY   0.000000   0.000000   0.000000   0.452879   0.000000
  139  O   8 XZ   0.000000   0.000000   0.615172   0.000000   0.000000
  140  O   8 YZ   0.000000   0.000000   0.000000   0.000000  -0.347215
  141  H   9  S   0.099746   0.154103   0.000000   0.002775   0.000000
  142  H   9  S   0.886052   0.707314   0.000000   0.151579   0.000000
  143  H   9  X  -0.079487  -0.076890   0.000000  -0.032133   0.000000
  144  H   9  Y  -0.053203  -0.049315   0.000000   0.035325   0.000000
  145  H   9  Z   0.000000   0.000000   0.063064   0.000000  -0.083840
  146  H  10  S  -0.099746   0.154103   0.000000  -0.002775   0.000000
  147  H  10  S  -0.886052   0.707314   0.000000  -0.151579   0.000000
  148  H  10  X   0.079487  -0.076890   0.000000   0.032133   0.000000
  149  H  10  Y  -0.053203   0.049315   0.000000   0.035325   0.000000
  150  H  10  Z   0.000000   0.000000  -0.063064   0.000000  -0.083840
  151  H  11  S  -0.099746   0.154103   0.000000   0.002775   0.000000
  152  H  11  S  -0.886052   0.707314   0.000000   0.151579   0.000000
  153  H  11  X  -0.079487   0.076890   0.000000   0.032133   0.000000
  154  H  11  Y  -0.053203   0.049315   0.000000  -0.035325   0.000000
  155  H  11  Z   0.000000   0.000000   0.063064   0.000000  -0.083840
  156  H  12  S   0.099746   0.154103   0.000000  -0.002775   0.000000
  157  H  12  S   0.886052   0.707314   0.000000  -0.151579   0.000000
  158  H  12  X   0.079487   0.076890   0.000000  -0.032133   0.000000
  159  H  12  Y  -0.053203  -0.049315   0.000000  -0.035325   0.000000
  160  H  12  Z   0.000000   0.000000  -0.063064   0.000000  -0.083840

                     76         77         78         79         80
                    1.0513     1.0669     1.1453     1.1548     1.1738
                     A          A          A          A          A   
    1  C   1  S   0.000000  -0.244814   0.075054   0.000000   0.128346
    2  C   1  S   0.000000  -0.576667   0.141597   0.000000   0.252091
    3  C   1  S   0.000000  -0.261373  -2.754996   0.000000  -5.070735
    4  C   1  X   0.250353   0.000000   0.000000   0.000000   0.000000
    5  C   1  Y   0.000000  -0.022081  -0.299027   0.000000   0.222161
    6  C   1  Z   0.000000   0.000000   0.000000  -0.301248   0.000000
    7  C   1  X  -3.723374   0.000000   0.000000   0.000000   0.000000
    8  C   1  Y   0.000000  -1.916751  -1.016831   0.000000   2.249908
    9  C   1  Z   0.000000   0.000000   0.000000   0.227784   0.000000
   10  C   1 XX   0.000000  -0.016488  -0.088513   0.000000  -0.084163
   11  C   1 YY   0.000000  -0.114644  -0.093202   0.000000   0.070945
   12  C   1 ZZ   0.000000   0.131132   0.181715   0.000000   0.013219
   13  C   1 XY   0.119312   0.000000   0.000000   0.000000   0.000000
   14  C   1 XZ   0.000000   0.000000   0.000000   0.000000   0.000000
   15  C   1 YZ   0.000000   0.000000   0.000000   0.157449   0.000000
   16  C   2  S  -0.329651  -0.068688  -0.083972   0.000000   0.141874
   17  C   2  S  -0.717589  -0.181102  -0.165861   0.000000   0.353158
   18  C   2  S   3.567524  -1.335280   1.313959   0.000000   0.476260
   19  C   2  X  -0.016575   0.077290  -0.092979   0.000000  -0.012147
   20  C   2  Y  -0.019035   0.210350  -0.141603   0.000000  -0.158496
   21  C   2  Z   0.000000   0.000000   0.000000   0.190474   0.000000
   22  C   2  X  -0.806392  -0.357618   0.040383   0.000000  -3.043811
   23  C   2  Y   1.070978   0.966364   1.025173   0.000000   1.019728
   24  C   2  Z   0.000000   0.000000   0.000000  -0.482142   0.000000
   25  C   2 XX   0.016130  -0.090883  -0.045904   0.000000   0.163072
   26  C   2 YY  -0.100107   0.033255  -0.074752   0.000000  -0.117166
   27  C   2 ZZ   0.083977   0.057628   0.120656   0.000000  -0.045905
   28  C   2 XY  -0.048074   0.044645  -0.088047   0.000000   0.062064
   29  C   2 XZ   0.000000   0.000000   0.000000   0.113177   0.000000
   30  C   2 YZ   0.000000   0.000000   0.000000   0.066892   0.000000
   31  C   3  S  -0.329651   0.068688  -0.083972   0.000000  -0.141874
   32  C   3  S  -0.717589   0.181102  -0.165861   0.000000  -0.353158
   33  C   3  S   3.567524   1.335280   1.313959   0.000000  -0.476260
   34  C   3  X  -0.016575  -0.077290  -0.092979   0.000000   0.012147
   35  C   3  Y   0.019035   0.210350   0.141603   0.000000  -0.158496
   36  C   3  Z   0.000000   0.000000   0.000000  -0.190474   0.000000
   37  C   3  X  -0.806392   0.357618   0.040383   0.000000   3.043811
   38  C   3  Y  -1.070978   0.966364  -1.025173   0.000000   1.019728
   39  C   3  Z   0.000000   0.000000   0.000000   0.482142   0.000000
   40  C   3 XX   0.016130   0.090883  -0.045904   0.000000  -0.163072
   41  C   3 YY  -0.100107  -0.033255  -0.074752   0.000000   0.117166
   42  C   3 ZZ   0.083977  -0.057628   0.120656   0.000000   0.045905
   43  C   3 XY   0.048074   0.044645   0.088047   0.000000   0.062064
   44  C   3 XZ   0.000000   0.000000   0.000000  -0.113177   0.000000
   45  C   3 YZ   0.000000   0.000000   0.000000   0.066892   0.000000
   46  C   4  S   0.000000   0.244814   0.075054   0.000000  -0.128346
   47  C   4  S   0.000000   0.576667   0.141597   0.000000  -0.252091
   48  C   4  S   0.000000   0.261373  -2.754996   0.000000   5.070735
   49  C   4  X   0.250353   0.000000   0.000000   0.000000   0.000000
   50  C   4  Y   0.000000  -0.022081   0.299027   0.000000   0.222161
   51  C   4  Z   0.000000   0.000000   0.000000   0.301248   0.000000
   52  C   4  X  -3.723374   0.000000   0.000000   0.000000   0.000000
   53  C   4  Y   0.000000  -1.916751   1.016831   0.000000   2.249908
   54  C   4  Z   0.000000   0.000000   0.000000  -0.227784   0.000000
   55  C   4 XX   0.000000   0.016488  -0.088513   0.000000   0.084163
   56  C   4 YY   0.000000   0.114644  -0.093202   0.000000  -0.070945
   57  C   4 ZZ   0.000000  -0.131132   0.181715   0.000000  -0.013219
   58  C   4 XY  -0.119312   0.000000   0.000000   0.000000   0.000000
   59  C   4 XZ   0.000000   0.000000   0.000000   0.000000   0.000000
   60  C   4 YZ   0.000000   0.000000   0.000000   0.157449   0.000000
   61  C   5  S   0.329651   0.068688  -0.083972   0.000000  -0.141874
   62  C   5  S   0.717589   0.181102  -0.165861   0.000000  -0.353158
   63  C   5  S  -3.567524   1.335280   1.313959   0.000000  -0.476260
   64  C   5  X  -0.016575   0.077290   0.092979   0.000000  -0.012147
   65  C   5  Y  -0.019035   0.210350   0.141603   0.000000  -0.158496
   66  C   5  Z   0.000000   0.000000   0.000000  -0.190474   0.000000
   67  C   5  X  -0.806392  -0.357618  -0.040383   0.000000  -3.043811
   68  C   5  Y   1.070978   0.966364  -1.025173   0.000000   1.019728
   69  C   5  Z   0.000000   0.000000   0.000000   0.482142   0.000000
   70  C   5 XX  -0.016130   0.090883  -0.045904   0.000000  -0.163072
   71  C   5 YY   0.100107  -0.033255  -0.074752   0.000000   0.117166
   72  C   5 ZZ  -0.083977  -0.057628   0.120656   0.000000   0.045905
   73  C   5 XY   0.048074  -0.044645  -0.088047   0.000000  -0.062064
   74  C   5 XZ   0.000000   0.000000   0.000000   0.113177   0.000000
   75  C   5 YZ   0.000000   0.000000   0.000000   0.066892   0.000000
   76  C   6  S   0.329651  -0.068688  -0.083972   0.000000   0.141874
   77  C   6  S   0.717589  -0.181102  -0.165861   0.000000   0.353158
   78  C   6  S  -3.567524  -1.335280   1.313959   0.000000   0.476260
   79  C   6  X  -0.016575  -0.077290   0.092979   0.000000   0.012147
   80  C   6  Y   0.019035   0.210350  -0.141603   0.000000  -0.158496
   81  C   6  Z   0.000000   0.000000   0.000000   0.190474   0.000000
   82  C   6  X  -0.806392   0.357618  -0.040383   0.000000   3.043811
   83  C   6  Y  -1.070978   0.966364   1.025173   0.000000   1.019728
   84  C   6  Z   0.000000   0.000000   0.000000  -0.482142   0.000000
   85  C   6 XX  -0.016130  -0.090883  -0.045904   0.000000   0.163072
   86  C   6 YY   0.100107   0.033255  -0.074752   0.000000  -0.117166
   87  C   6 ZZ  -0.083977   0.057628   0.120656   0.000000  -0.045905
   88  C   6 XY  -0.048074  -0.044645   0.088047   0.000000  -0.062064
   89  C   6 XZ   0.000000   0.000000   0.000000  -0.113177   0.000000
   90  C   6 YZ   0.000000   0.000000   0.000000   0.066892   0.000000
   91  O   7  S   0.000000   0.015055   0.009267   0.000000  -0.006761
   92  O   7  S   0.000000   0.147837   0.132629   0.000000  -0.064417
   93  O   7  S   0.000000   1.043530   1.088556   0.000000  -0.378012
   94  O   7  S   0.000000   0.044894   0.258020   0.000000  -0.551124
   95  O   7  X   0.153864   0.000000   0.000000   0.000000   0.000000
   96  O   7  Y   0.000000  -0.005917   0.037278   0.000000  -0.025126
   97  O   7  Z   0.000000   0.000000   0.000000   0.018403   0.000000
   98  O   7  X   0.225076   0.000000   0.000000   0.000000   0.000000
   99  O   7  Y   0.000000  -0.541735  -0.755091   0.000000   0.291337
  100  O   7  Z   0.000000   0.000000   0.000000  -0.136444   0.000000
  101  O   7  X   0.337162   0.000000   0.000000   0.000000   0.000000
  102  O   7  Y   0.000000   0.330648   0.161865   0.000000  -0.052543
  103  O   7  Z   0.000000   0.000000   0.000000   0.177900   0.000000
  104  O   7 XX   0.000000   0.001907   0.012599   0.000000   0.003217
  105  O   7 YY   0.000000   0.011019  -0.004079   0.000000   0.000887
  106  O   7 ZZ   0.000000  -0.012926  -0.008520   0.000000  -0.004104
  107  O   7 XY   0.002144   0.000000   0.000000   0.000000   0.000000
  108  O   7 XZ   0.000000   0.000000   0.000000   0.000000   0.000000
  109  O   7 YZ   0.000000   0.000000   0.000000   0.009516   0.000000
  110  O   7 XX   0.000000  -0.336881  -0.539195   0.000000  -0.448891
  111  O   7 YY   0.000000  -0.079349   0.149438   0.000000   0.319888
  112  O   7 ZZ   0.000000   0.416231   0.389757   0.000000   0.129003
  113  O   7 XY  -0.363379   0.000000   0.000000   0.000000   0.000000
  114  O   7 XZ   0.000000   0.000000   0.000000   0.000000   0.000000
  115  O   7 YZ   0.000000   0.000000   0.000000  -0.630583   0.000000
  116  O   8  S   0.000000  -0.015055   0.009267   0.000000   0.006761
  117  O   8  S   0.000000  -0.147837   0.132629   0.000000   0.064417
  118  O   8  S   0.000000  -1.043530   1.088556   0.000000   0.378012
  119  O   8  S   0.000000  -0.044894   0.258020   0.000000   0.551124
  120  O   8  X   0.153864   0.000000   0.000000   0.000000   0.000000
  121  O   8  Y   0.000000  -0.005917  -0.037278   0.000000  -0.025126
  122  O   8  Z   0.000000   0.000000   0.000000  -0.018403   0.000000
  123  O   8  X   0.225076   0.000000   0.000000   0.000000   0.000000
  124  O   8  Y   0.000000  -0.541735   0.755091   0.000000   0.291337
  125  O   8  Z   0.000000   0.000000   0.000000   0.136444   0.000000
  126  O   8  X   0.337162   0.000000   0.000000   0.000000   0.000000
  127  O   8  Y   0.000000   0.330648  -0.161865   0.000000  -0.052543
  128  O   8  Z   0.000000   0.000000   0.000000  -0.177900   0.000000
  129  O   8 XX   0.000000  -0.001907   0.012599   0.000000  -0.003217
  130  O   8 YY   0.000000  -0.011019  -0.004079   0.000000  -0.000887
  131  O   8 ZZ   0.000000   0.012926  -0.008520   0.000000   0.004104
  132  O   8 XY  -0.002144   0.000000   0.000000   0.000000   0.000000
  133  O   8 XZ   0.000000   0.000000   0.000000   0.000000   0.000000
  134  O   8 YZ   0.000000   0.000000   0.000000   0.009516   0.000000
  135  O   8 XX   0.000000   0.336881  -0.539195   0.000000   0.448891
  136  O   8 YY   0.000000   0.079349   0.149438   0.000000  -0.319888
  137  O   8 ZZ   0.000000  -0.416231   0.389757   0.000000  -0.129003
  138  O   8 XY   0.363379   0.000000   0.000000   0.000000   0.000000
  139  O   8 XZ   0.000000   0.000000   0.000000   0.000000   0.000000
  140  O   8 YZ   0.000000   0.000000   0.000000  -0.630583   0.000000
  141  H   9  S   0.031526   0.081033  -0.181006   0.000000   0.416170
  142  H   9  S  -0.374980   0.133050  -0.284931   0.000000   0.744446
  143  H   9  X   0.077322  -0.029505   0.023330   0.000000   0.015237
  144  H   9  Y   0.028008   0.024600   0.037238   0.000000   0.072390
  145  H   9  Z   0.000000   0.000000   0.000000   0.022648   0.000000
  146  H  10  S   0.031526  -0.081033  -0.181006   0.000000  -0.416170
  147  H  10  S  -0.374980  -0.133050  -0.284931   0.000000  -0.744446
  148  H  10  X   0.077322   0.029505   0.023330   0.000000  -0.015237
  149  H  10  Y  -0.028008   0.024600  -0.037238   0.000000   0.072390
  150  H  10  Z   0.000000   0.000000   0.000000  -0.022648   0.000000
  151  H  11  S  -0.031526  -0.081033  -0.181006   0.000000  -0.416170
  152  H  11  S   0.374980  -0.133050  -0.284931   0.000000  -0.744446
  153  H  11  X   0.077322  -0.029505  -0.023330   0.000000   0.015237
  154  H  11  Y   0.028008   0.024600  -0.037238   0.000000   0.072390
  155  H  11  Z   0.000000   0.000000   0.000000  -0.022648   0.000000
  156  H  12  S  -0.031526   0.081033  -0.181006   0.000000   0.416170
  157  H  12  S   0.374980   0.133050  -0.284931   0.000000   0.744446
  158  H  12  X   0.077322   0.029505  -0.023330   0.000000  -0.015237
  159  H  12  Y  -0.028008   0.024600   0.037238   0.000000   0.072390
  160  H  12  Z   0.000000   0.000000   0.000000   0.022648   0.000000

                     81         82         83         84         85
                    1.1875     1.2175     1.2225     1.2311     1.2398
                     A          A          A          A          A   
    1  C   1  S   0.000000   0.000000   0.000000   0.000000   0.000000
    2  C   1  S   0.000000   0.000000   0.000000   0.000000   0.000000
    3  C   1  S   0.000000   0.000000   0.000000   0.000000   0.000000
    4  C   1  X   0.000000   0.155954   0.000000   0.000000  -0.154075
    5  C   1  Y   0.000000   0.000000   0.000000   0.000000   0.000000
    6  C   1  Z   0.000000   0.000000   0.000000   0.134661   0.000000
    7  C   1  X   0.000000   1.891009   0.000000   0.000000  -3.356288
    8  C   1  Y   0.000000   0.000000   0.000000   0.000000   0.000000
    9  C   1  Z   0.000000   0.000000   0.000000   0.180723   0.000000
   10  C   1 XX   0.000000   0.000000   0.000000   0.000000   0.000000
   11  C   1 YY   0.000000   0.000000   0.000000   0.000000   0.000000
   12  C   1 ZZ   0.000000   0.000000   0.000000   0.000000   0.000000
   13  C   1 XY   0.000000  -0.032343   0.000000   0.000000  -0.162211
   14  C   1 XZ   0.049120   0.000000   0.227019   0.000000   0.000000
   15  C   1 YZ   0.000000   0.000000   0.000000  -0.041744   0.000000
   16  C   2  S   0.000000   0.304005   0.000000   0.000000   0.055284
   17  C   2  S   0.000000   0.610269   0.000000   0.000000   0.169850
   18  C   2  S   0.000000  -4.106735   0.000000   0.000000   2.575586
   19  C   2  X   0.000000   0.222095   0.000000   0.000000  -0.329291
   20  C   2  Y   0.000000  -0.123016   0.000000   0.000000   0.047706
   21  C   2  Z  -0.159062   0.000000  -0.002036   0.020683   0.000000
   22  C   2  X   0.000000  -0.399124   0.000000   0.000000   0.510415
   23  C   2  Y   0.000000   0.690054   0.000000   0.000000   1.395407
   24  C   2  Z   0.179728   0.000000   0.046345  -0.003195   0.000000
   25  C   2 XX   0.000000   0.123542   0.000000   0.000000  -0.060826
   26  C   2 YY   0.000000  -0.118950   0.000000   0.000000   0.092910
   27  C   2 ZZ   0.000000  -0.004592   0.000000   0.000000  -0.032084
   28  C   2 XY   0.000000  -0.017564   0.000000   0.000000   0.020660
   29  C   2 XZ  -0.319320   0.000000  -0.109119   0.059114   0.000000
   30  C   2 YZ  -0.133543   0.000000   0.280052   0.252087   0.000000
   31  C   3  S   0.000000  -0.304005   0.000000   0.000000   0.055284
   32  C   3  S   0.000000  -0.610269   0.000000   0.000000   0.169850
   33  C   3  S   0.000000   4.106735   0.000000   0.000000   2.575586
   34  C   3  X   0.000000  -0.222095   0.000000   0.000000  -0.329291
   35  C   3  Y   0.000000  -0.123016   0.000000   0.000000  -0.047706
   36  C   3  Z  -0.159062   0.000000  -0.002036   0.020683   0.000000
   37  C   3  X   0.000000   0.399124   0.000000   0.000000   0.510415
   38  C   3  Y   0.000000   0.690054   0.000000   0.000000  -1.395407
   39  C   3  Z   0.179728   0.000000   0.046345  -0.003195   0.000000
   40  C   3 XX   0.000000  -0.123542   0.000000   0.000000  -0.060826
   41  C   3 YY   0.000000   0.118950   0.000000   0.000000   0.092910
   42  C   3 ZZ   0.000000   0.004592   0.000000   0.000000  -0.032084
   43  C   3 XY   0.000000  -0.017564   0.000000   0.000000  -0.020660
   44  C   3 XZ  -0.319320   0.000000  -0.109119   0.059114   0.000000
   45  C   3 YZ   0.133543   0.000000  -0.280052  -0.252087   0.000000
   46  C   4  S   0.000000   0.000000   0.000000   0.000000   0.000000
   47  C   4  S   0.000000   0.000000   0.000000   0.000000   0.000000
   48  C   4  S   0.000000   0.000000   0.000000   0.000000   0.000000
   49  C   4  X   0.000000  -0.155954   0.000000   0.000000  -0.154075
   50  C   4  Y   0.000000   0.000000   0.000000   0.000000   0.000000
   51  C   4  Z   0.000000   0.000000   0.000000   0.134661   0.000000
   52  C   4  X   0.000000  -1.891009   0.000000   0.000000  -3.356288
   53  C   4  Y   0.000000   0.000000   0.000000   0.000000   0.000000
   54  C   4  Z   0.000000   0.000000   0.000000   0.180723   0.000000
   55  C   4 XX   0.000000   0.000000   0.000000   0.000000   0.000000
   56  C   4 YY   0.000000   0.000000   0.000000   0.000000   0.000000
   57  C   4 ZZ   0.000000   0.000000   0.000000   0.000000   0.000000
   58  C   4 XY   0.000000  -0.032343   0.000000   0.000000   0.162211
   59  C   4 XZ   0.049120   0.000000   0.227019   0.000000   0.000000
   60  C   4 YZ   0.000000   0.000000   0.000000   0.041744   0.000000
   61  C   5  S   0.000000   0.304005   0.000000   0.000000  -0.055284
   62  C   5  S   0.000000   0.610269   0.000000   0.000000  -0.169850
   63  C   5  S   0.000000  -4.106735   0.000000   0.000000  -2.575586
   64  C   5  X   0.000000  -0.222095   0.000000   0.000000  -0.329291
   65  C   5  Y   0.000000   0.123016   0.000000   0.000000   0.047706
   66  C   5  Z   0.159062   0.000000   0.002036   0.020683   0.000000
   67  C   5  X   0.000000   0.399124   0.000000   0.000000   0.510415
   68  C   5  Y   0.000000  -0.690054   0.000000   0.000000   1.395407
   69  C   5  Z  -0.179728   0.000000  -0.046345  -0.003195   0.000000
   70  C   5 XX   0.000000   0.123542   0.000000   0.000000   0.060826
   71  C   5 YY   0.000000  -0.118950   0.000000   0.000000  -0.092910
   72  C   5 ZZ   0.000000  -0.004592   0.000000   0.000000   0.032084
   73  C   5 XY   0.000000  -0.017564   0.000000   0.000000  -0.020660
   74  C   5 XZ  -0.319320   0.000000  -0.109119  -0.059114   0.000000
   75  C   5 YZ  -0.133543   0.000000   0.280052  -0.252087   0.000000
   76  C   6  S   0.000000  -0.304005   0.000000   0.000000  -0.055284
   77  C   6  S   0.000000  -0.610269   0.000000   0.000000  -0.169850
   78  C   6  S   0.000000   4.106735   0.000000   0.000000  -2.575586
   79  C   6  X   0.000000   0.222095   0.000000   0.000000  -0.329291
   80  C   6  Y   0.000000   0.123016   0.000000   0.000000  -0.047706
   81  C   6  Z   0.159062   0.000000   0.002036   0.020683   0.000000
   82  C   6  X   0.000000  -0.399124   0.000000   0.000000   0.510415
   83  C   6  Y   0.000000  -0.690054   0.000000   0.000000  -1.395407
   84  C   6  Z  -0.179728   0.000000  -0.046345  -0.003195   0.000000
   85  C   6 XX   0.000000  -0.123542   0.000000   0.000000   0.060826
   86  C   6 YY   0.000000   0.118950   0.000000   0.000000  -0.092910
   87  C   6 ZZ   0.000000   0.004592   0.000000   0.000000   0.032084
   88  C   6 XY   0.000000  -0.017564   0.000000   0.000000   0.020660
   89  C   6 XZ  -0.319320   0.000000  -0.109119  -0.059114   0.000000
   90  C   6 YZ   0.133543   0.000000  -0.280052   0.252087   0.000000
   91  O   7  S   0.000000   0.000000   0.000000   0.000000   0.000000
   92  O   7  S   0.000000   0.000000   0.000000   0.000000   0.000000
   93  O   7  S   0.000000   0.000000   0.000000   0.000000   0.000000
   94  O   7  S   0.000000   0.000000   0.000000   0.000000   0.000000
   95  O   7  X   0.000000  -0.295087   0.000000   0.000000   0.191689
   96  O   7  Y   0.000000   0.000000   0.000000   0.000000   0.000000
   97  O   7  Z   0.000000   0.000000   0.000000  -0.212380   0.000000
   98  O   7  X   0.000000  -0.016152   0.000000   0.000000   0.383950
   99  O   7  Y   0.000000   0.000000   0.000000   0.000000   0.000000
  100  O   7  Z   0.000000   0.000000   0.000000   0.249414   0.000000
  101  O   7  X   0.000000  -0.562970   0.000000   0.000000   0.332340
  102  O   7  Y   0.000000   0.000000   0.000000   0.000000   0.000000
  103  O   7  Z   0.000000   0.000000   0.000000  -0.254547   0.000000
  104  O   7 XX   0.000000   0.000000   0.000000   0.000000   0.000000
  105  O   7 YY   0.000000   0.000000   0.000000   0.000000   0.000000
  106  O   7 ZZ   0.000000   0.000000   0.000000   0.000000   0.000000
  107  O   7 XY   0.000000  -0.014722   0.000000   0.000000   0.027669
  108  O   7 XZ   0.005179   0.000000   0.004337   0.000000   0.000000
  109  O   7 YZ   0.000000   0.000000   0.000000   0.004466   0.000000
  110  O   7 XX   0.000000   0.000000   0.000000   0.000000   0.000000
  111  O   7 YY   0.000000   0.000000   0.000000   0.000000   0.000000
  112  O   7 ZZ   0.000000   0.000000   0.000000   0.000000   0.000000
  113  O   7 XY   0.000000   0.511494   0.000000   0.000000  -0.600885
  114  O   7 XZ  -0.083902   0.000000  -0.466270   0.000000   0.000000
  115  O   7 YZ   0.000000   0.000000   0.000000   0.521708   0.000000
  116  O   8  S   0.000000   0.000000   0.000000   0.000000   0.000000
  117  O   8  S   0.000000   0.000000   0.000000   0.000000   0.000000
  118  O   8  S   0.000000   0.000000   0.000000   0.000000   0.000000
  119  O   8  S   0.000000   0.000000   0.000000   0.000000   0.000000
  120  O   8  X   0.000000   0.295087   0.000000   0.000000   0.191689
  121  O   8  Y   0.000000   0.000000   0.000000   0.000000   0.000000
  122  O   8  Z   0.000000   0.000000   0.000000  -0.212380   0.000000
  123  O   8  X   0.000000   0.016152   0.000000   0.000000   0.383950
  124  O   8  Y   0.000000   0.000000   0.000000   0.000000   0.000000
  125  O   8  Z   0.000000   0.000000   0.000000   0.249414   0.000000
  126  O   8  X   0.000000   0.562970   0.000000   0.000000   0.332340
  127  O   8  Y   0.000000   0.000000   0.000000   0.000000   0.000000
  128  O   8  Z   0.000000   0.000000   0.000000  -0.254547   0.000000
  129  O   8 XX   0.000000   0.000000   0.000000   0.000000   0.000000
  130  O   8 YY   0.000000   0.000000   0.000000   0.000000   0.000000
  131  O   8 ZZ   0.000000   0.000000   0.000000   0.000000   0.000000
  132  O   8 XY   0.000000  -0.014722   0.000000   0.000000  -0.027669
  133  O   8 XZ   0.005179   0.000000   0.004337   0.000000   0.000000
  134  O   8 YZ   0.000000   0.000000   0.000000  -0.004466   0.000000
  135  O   8 XX   0.000000   0.000000   0.000000   0.000000   0.000000
  136  O   8 YY   0.000000   0.000000   0.000000   0.000000   0.000000
  137  O   8 ZZ   0.000000   0.000000   0.000000   0.000000   0.000000
  138  O   8 XY   0.000000   0.511494   0.000000   0.000000   0.600885
  139  O   8 XZ  -0.083902   0.000000  -0.466270   0.000000   0.000000
  140  O   8 YZ   0.000000   0.000000   0.000000  -0.521708   0.000000
  141  H   9  S   0.000000   0.216514   0.000000   0.000000  -0.510676
  142  H   9  S   0.000000   0.709350   0.000000   0.000000  -0.650985
  143  H   9  X   0.000000  -0.057575   0.000000   0.000000  -0.030173
  144  H   9  Y   0.000000  -0.048306   0.000000   0.000000   0.033738
  145  H   9  Z  -0.193046   0.000000   0.044244   0.130948   0.000000
  146  H  10  S   0.000000  -0.216514   0.000000   0.000000  -0.510676
  147  H  10  S   0.000000  -0.709350   0.000000   0.000000  -0.650985
  148  H  10  X   0.000000   0.057575   0.000000   0.000000  -0.030173
  149  H  10  Y   0.000000  -0.048306   0.000000   0.000000  -0.033738
  150  H  10  Z  -0.193046   0.000000   0.044244   0.130948   0.000000
  151  H  11  S   0.000000   0.216514   0.000000   0.000000   0.510676
  152  H  11  S   0.000000   0.709350   0.000000   0.000000   0.650985
  153  H  11  X   0.000000   0.057575   0.000000   0.000000  -0.030173
  154  H  11  Y   0.000000   0.048306   0.000000   0.000000   0.033738
  155  H  11  Z   0.193046   0.000000  -0.044244   0.130948   0.000000
  156  H  12  S   0.000000  -0.216514   0.000000   0.000000   0.510676
  157  H  12  S   0.000000  -0.709350   0.000000   0.000000   0.650985
  158  H  12  X   0.000000  -0.057575   0.000000   0.000000  -0.030173
  159  H  12  Y   0.000000   0.048306   0.000000   0.000000  -0.033738
  160  H  12  Z   0.193046   0.000000  -0.044244   0.130948   0.000000

                     86         87         88         89         90
                    1.2806     1.2889     1.3138     1.3334     1.3515
                     A          A          A          A          A   
    1  C   1  S  -0.232481  -0.258950   0.000000   0.000000  -0.014040
    2  C   1  S  -0.483031  -0.597534   0.000000   0.000000  -0.017472
    3  C   1  S   2.214805   1.618841   0.000000   0.000000   0.918532
    4  C   1  X   0.000000   0.000000  -0.268855   0.000000   0.000000
    5  C   1  Y   0.093392   0.271260   0.000000   0.000000  -0.241175
    6  C   1  Z   0.000000   0.000000   0.000000   0.000000   0.000000
    7  C   1  X   0.000000   0.000000   3.535565   0.000000   0.000000
    8  C   1  Y  -3.894019   1.316604   0.000000   0.000000   1.749209
    9  C   1  Z   0.000000   0.000000   0.000000   0.000000   0.000000
   10  C   1 XX   0.192232  -0.061325   0.000000   0.000000  -0.236289
   11  C   1 YY  -0.291179   0.054396   0.000000   0.000000   0.351955
   12  C   1 ZZ   0.098947   0.006929   0.000000   0.000000  -0.115666
   13  C   1 XY   0.000000   0.000000  -0.002063   0.000000   0.000000
   14  C   1 XZ   0.000000   0.000000   0.000000  -0.292808   0.000000
   15  C   1 YZ   0.000000   0.000000   0.000000   0.000000   0.000000
   16  C   2  S   0.187794  -0.044570   0.122710   0.000000  -0.160030
   17  C   2  S   0.371774  -0.087308   0.230617   0.000000  -0.359644
   18  C   2  S  -2.023944   1.832568  -3.407218   0.000000   1.478476
   19  C   2  X   0.019972   0.008786   0.103791   0.000000   0.052288
   20  C   2  Y  -0.095668   0.131733   0.151748   0.000000   0.106265
   21  C   2  Z   0.000000   0.000000   0.000000   0.170107   0.000000
   22  C   2  X   1.407122  -1.086557   0.306574   0.000000   0.183544
   23  C   2  Y   0.393933  -2.231537  -1.852823   0.000000  -0.324467
   24  C   2  Z   0.000000   0.000000   0.000000  -0.324801   0.000000
   25  C   2 XX  -0.110350  -0.071728  -0.002385   0.000000  -0.042031
   26  C   2 YY   0.144552   0.095200   0.035789   0.000000  -0.000255
   27  C   2 ZZ  -0.034201  -0.023471  -0.033405   0.000000   0.042285
   28  C   2 XY  -0.010903   0.114381   0.172253   0.000000  -0.005941
   29  C   2 XZ   0.000000   0.000000   0.000000   0.262519   0.000000
   30  C   2 YZ   0.000000   0.000000   0.000000  -0.022548   0.000000
   31  C   3  S   0.187794   0.044570   0.122710   0.000000   0.160030
   32  C   3  S   0.371774   0.087308   0.230617   0.000000   0.359644
   33  C   3  S  -2.023944  -1.832568  -3.407218   0.000000  -1.478476
   34  C   3  X   0.019972  -0.008786   0.103791   0.000000  -0.052288
   35  C   3  Y   0.095668   0.131733  -0.151748   0.000000   0.106265
   36  C   3  Z   0.000000   0.000000   0.000000  -0.170107   0.000000
   37  C   3  X   1.407122   1.086557   0.306574   0.000000  -0.183544
   38  C   3  Y  -0.393933  -2.231537   1.852823   0.000000  -0.324467
   39  C   3  Z   0.000000   0.000000   0.000000   0.324801   0.000000
   40  C   3 XX  -0.110350   0.071728  -0.002385   0.000000   0.042031
   41  C   3 YY   0.144552  -0.095200   0.035789   0.000000   0.000255
   42  C   3 ZZ  -0.034201   0.023471  -0.033405   0.000000  -0.042285
   43  C   3 XY   0.010903   0.114381  -0.172253   0.000000  -0.005941
   44  C   3 XZ   0.000000   0.000000   0.000000  -0.262519   0.000000
   45  C   3 YZ   0.000000   0.000000   0.000000  -0.022548   0.000000
   46  C   4  S  -0.232481   0.258950   0.000000   0.000000   0.014040
   47  C   4  S  -0.483031   0.597534   0.000000   0.000000   0.017472
   48  C   4  S   2.214805  -1.618841   0.000000   0.000000  -0.918532
   49  C   4  X   0.000000   0.000000  -0.268855   0.000000   0.000000
   50  C   4  Y  -0.093392   0.271260   0.000000   0.000000  -0.241175
   51  C   4  Z   0.000000   0.000000   0.000000   0.000000   0.000000
   52  C   4  X   0.000000   0.000000   3.535565   0.000000   0.000000
   53  C   4  Y   3.894019   1.316605   0.000000   0.000000   1.749209
   54  C   4  Z   0.000000   0.000000   0.000000   0.000000   0.000000
   55  C   4 XX   0.192232   0.061325   0.000000   0.000000   0.236289
   56  C   4 YY  -0.291179  -0.054396   0.000000   0.000000  -0.351955
   57  C   4 ZZ   0.098947  -0.006929   0.000000   0.000000   0.115666
   58  C   4 XY   0.000000   0.000000   0.002063   0.000000   0.000000
   59  C   4 XZ   0.000000   0.000000   0.000000   0.292808   0.000000
   60  C   4 YZ   0.000000   0.000000   0.000000   0.000000   0.000000
   61  C   5  S   0.187794   0.044570  -0.122710   0.000000   0.160030
   62  C   5  S   0.371774   0.087308  -0.230617   0.000000   0.359644
   63  C   5  S  -2.023944  -1.832568   3.407218   0.000000  -1.478476
   64  C   5  X  -0.019972   0.008786   0.103791   0.000000   0.052288
   65  C   5  Y   0.095668   0.131733   0.151748   0.000000   0.106265
   66  C   5  Z   0.000000   0.000000   0.000000   0.170107   0.000000
   67  C   5  X  -1.407122  -1.086557   0.306574   0.000000   0.183544
   68  C   5  Y  -0.393933  -2.231537  -1.852823   0.000000  -0.324467
   69  C   5  Z   0.000000   0.000000   0.000000  -0.324801   0.000000
   70  C   5 XX  -0.110350   0.071728   0.002385   0.000000   0.042031
   71  C   5 YY   0.144552  -0.095200  -0.035789   0.000000   0.000255
   72  C   5 ZZ  -0.034201   0.023471   0.033405   0.000000  -0.042285
   73  C   5 XY  -0.010903  -0.114381  -0.172253   0.000000   0.005941
   74  C   5 XZ   0.000000   0.000000   0.000000  -0.262519   0.000000
   75  C   5 YZ   0.000000   0.000000   0.000000   0.022548   0.000000
   76  C   6  S   0.187794  -0.044570  -0.122710   0.000000  -0.160030
   77  C   6  S   0.371774  -0.087308  -0.230617   0.000000  -0.359644
   78  C   6  S  -2.023944   1.832568   3.407218   0.000000   1.478476
   79  C   6  X  -0.019972  -0.008786   0.103791   0.000000  -0.052288
   80  C   6  Y  -0.095668   0.131733  -0.151748   0.000000   0.106265
   81  C   6  Z   0.000000   0.000000   0.000000  -0.170107   0.000000
   82  C   6  X  -1.407122   1.086557   0.306574   0.000000  -0.183544
   83  C   6  Y   0.393933  -2.231537   1.852823   0.000000  -0.324467
   84  C   6  Z   0.000000   0.000000   0.000000   0.324801   0.000000
   85  C   6 XX  -0.110350  -0.071728   0.002385   0.000000  -0.042031
   86  C   6 YY   0.144552   0.095200  -0.035789   0.000000  -0.000255
   87  C   6 ZZ  -0.034201  -0.023471   0.033405   0.000000   0.042285
   88  C   6 XY   0.010903  -0.114381   0.172253   0.000000   0.005941
   89  C   6 XZ   0.000000   0.000000   0.000000   0.262519   0.000000
   90  C   6 YZ   0.000000   0.000000   0.000000   0.022548   0.000000
   91  O   7  S   0.007393   0.023025   0.000000   0.000000   0.012874
   92  O   7  S   0.117447  -0.002015   0.000000   0.000000  -0.008417
   93  O   7  S   1.392884  -0.897532   0.000000   0.000000  -0.945742
   94  O   7  S   1.286260  -0.422247   0.000000   0.000000  -1.040918
   95  O   7  X   0.000000   0.000000   0.158635   0.000000   0.000000
   96  O   7  Y   0.333091  -0.219405   0.000000   0.000000  -0.432813
   97  O   7  Z   0.000000   0.000000   0.000000   0.000000   0.000000
   98  O   7  X   0.000000   0.000000  -0.593735   0.000000   0.000000
   99  O   7  Y  -1.071631   0.677060   0.000000   0.000000   1.023794
  100  O   7  Z   0.000000   0.000000   0.000000   0.000000   0.000000
  101  O   7  X   0.000000   0.000000   0.310809   0.000000   0.000000
  102  O   7  Y  -0.056679   0.006423   0.000000   0.000000   0.118956
  103  O   7  Z   0.000000   0.000000   0.000000   0.000000   0.000000
  104  O   7 XX  -0.015404  -0.007807   0.000000   0.000000   0.019952
  105  O   7 YY   0.031930   0.000460   0.000000   0.000000  -0.043778
  106  O   7 ZZ  -0.016526   0.007348   0.000000   0.000000   0.023826
  107  O   7 XY   0.000000   0.000000  -0.003246   0.000000   0.000000
  108  O   7 XZ   0.000000   0.000000   0.000000  -0.006076   0.000000
  109  O   7 YZ   0.000000   0.000000   0.000000   0.000000   0.000000
  110  O   7 XX   0.207543   0.495379   0.000000   0.000000  -0.239900
  111  O   7 YY  -0.301097  -0.102902   0.000000   0.000000   0.299347
  112  O   7 ZZ   0.093555  -0.392476   0.000000   0.000000  -0.059447
  113  O   7 XY   0.000000   0.000000  -0.494251   0.000000   0.000000
  114  O   7 XZ   0.000000   0.000000   0.000000   0.360545   0.000000
  115  O   7 YZ   0.000000   0.000000   0.000000   0.000000   0.000000
  116  O   8  S   0.007393  -0.023025   0.000000   0.000000  -0.012874
  117  O   8  S   0.117447   0.002015   0.000000   0.000000   0.008417
  118  O   8  S   1.392884   0.897532   0.000000   0.000000   0.945742
  119  O   8  S   1.286260   0.422247   0.000000   0.000000   1.040918
  120  O   8  X   0.000000   0.000000   0.158635   0.000000   0.000000
  121  O   8  Y  -0.333091  -0.219405   0.000000   0.000000  -0.432813
  122  O   8  Z   0.000000   0.000000   0.000000   0.000000   0.000000
  123  O   8  X   0.000000   0.000000  -0.593735   0.000000   0.000000
  124  O   8  Y   1.071631   0.677060   0.000000   0.000000   1.023794
  125  O   8  Z   0.000000   0.000000   0.000000   0.000000   0.000000
  126  O   8  X   0.000000   0.000000   0.310809   0.000000   0.000000
  127  O   8  Y   0.056679   0.006423   0.000000   0.000000   0.118956
  128  O   8  Z   0.000000   0.000000   0.000000   0.000000   0.000000
  129  O   8 XX  -0.015404   0.007807   0.000000   0.000000  -0.019952
  130  O   8 YY   0.031930  -0.000460   0.000000   0.000000   0.043778
  131  O   8 ZZ  -0.016526  -0.007348   0.000000   0.000000  -0.023826
  132  O   8 XY   0.000000   0.000000   0.003246   0.000000   0.000000
  133  O   8 XZ   0.000000   0.000000   0.000000   0.006076   0.000000
  134  O   8 YZ   0.000000   0.000000   0.000000   0.000000   0.000000
  135  O   8 XX   0.207543  -0.495379   0.000000   0.000000   0.239900
  136  O   8 YY  -0.301097   0.102902   0.000000   0.000000  -0.299347
  137  O   8 ZZ   0.093555   0.392476   0.000000   0.000000   0.059447
  138  O   8 XY   0.000000   0.000000   0.494251   0.000000   0.000000
  139  O   8 XZ   0.000000   0.000000   0.000000  -0.360545   0.000000
  140  O   8 YZ   0.000000   0.000000   0.000000   0.000000   0.000000
  141  H   9  S  -0.043895   0.418738   0.352682   0.000000  -0.307227
  142  H   9  S  -0.453635   0.685053   0.256175   0.000000   0.038008
  143  H   9  X  -0.027372   0.025841  -0.037323   0.000000  -0.051434
  144  H   9  Y  -0.052291   0.023243  -0.037768   0.000000   0.034256
  145  H   9  Z   0.000000   0.000000   0.000000   0.199435   0.000000
  146  H  10  S  -0.043895  -0.418738   0.352682   0.000000   0.307227
  147  H  10  S  -0.453635  -0.685053   0.256175   0.000000  -0.038008
  148  H  10  X  -0.027372  -0.025841  -0.037323   0.000000   0.051434
  149  H  10  Y   0.052291   0.023243   0.037768   0.000000   0.034256
  150  H  10  Z   0.000000   0.000000   0.000000  -0.199435   0.000000
  151  H  11  S  -0.043895  -0.418738  -0.352682   0.000000   0.307227
  152  H  11  S  -0.453635  -0.685053  -0.256175   0.000000  -0.038008
  153  H  11  X   0.027372   0.025841  -0.037323   0.000000  -0.051434
  154  H  11  Y   0.052291   0.023243  -0.037768   0.000000   0.034256
  155  H  11  Z   0.000000   0.000000   0.000000   0.199435   0.000000
  156  H  12  S  -0.043895   0.418738  -0.352682   0.000000  -0.307227
  157  H  12  S  -0.453635   0.685053  -0.256175   0.000000   0.038008
  158  H  12  X   0.027372  -0.025841  -0.037323   0.000000   0.051434
  159  H  12  Y  -0.052291   0.023243   0.037768   0.000000   0.034256
  160  H  12  Z   0.000000   0.000000   0.000000  -0.199435   0.000000

                     91         92         93         94         95
                    1.3792     1.3880     1.3936     1.4425     1.4562
                     A          A          A          A          A   
    1  C   1  S   0.000000   0.000000   0.000000  -0.445401   0.000000
    2  C   1  S   0.000000   0.000000   0.000000  -0.892749   0.000000
    3  C   1  S   0.000000   0.000000   0.000000   4.748883   0.000000
    4  C   1  X   0.000000   0.495541   0.000000   0.000000  -0.088288
    5  C   1  Y   0.000000   0.000000   0.000000  -0.033905   0.000000
    6  C   1  Z  -0.096414   0.000000  -0.119440   0.000000   0.000000
    7  C   1  X   0.000000  -5.170565   0.000000   0.000000   0.821276
    8  C   1  Y   0.000000   0.000000   0.000000  -2.213223   0.000000
    9  C   1  Z  -0.116478   0.000000  -0.117935   0.000000   0.000000
   10  C   1 XX   0.000000   0.000000   0.000000  -0.179601   0.000000
   11  C   1 YY   0.000000   0.000000   0.000000   0.256350   0.000000
   12  C   1 ZZ   0.000000   0.000000   0.000000  -0.076749   0.000000
   13  C   1 XY   0.000000   0.068701   0.000000   0.000000  -0.310803
   14  C   1 XZ   0.000000   0.000000   0.000000   0.000000   0.000000
   15  C   1 YZ  -0.127779   0.000000  -0.076084   0.000000   0.000000
   16  C   2  S   0.000000  -0.154354   0.000000   0.152900   0.345359
   17  C   2  S   0.000000  -0.327518   0.000000   0.312894   0.716505
   18  C   2  S   0.000000   1.802965   0.000000  -1.669117  -2.805818
   19  C   2  X   0.000000  -0.018800   0.000000   0.044624  -0.232035
   20  C   2  Y   0.000000   0.009959   0.000000  -0.179524   0.035511
   21  C   2  Z   0.009103   0.000000   0.079645   0.000000   0.000000
   22  C   2  X   0.000000  -0.395601   0.000000   1.477506   3.141395
   23  C   2  Y   0.000000   3.524644   0.000000   0.527837   0.523618
   24  C   2  Z   0.159229   0.000000  -0.001163   0.000000   0.000000
   25  C   2 XX   0.000000  -0.014964   0.000000  -0.092896  -0.052279
   26  C   2 YY   0.000000  -0.024089   0.000000   0.117292   0.069549
   27  C   2 ZZ   0.000000   0.039053   0.000000  -0.024396  -0.017271
   28  C   2 XY   0.000000  -0.178285   0.000000   0.095238  -0.069570
   29  C   2 XZ  -0.166457   0.000000  -0.184111   0.000000   0.000000
   30  C   2 YZ  -0.100432   0.000000   0.224193   0.000000   0.000000
   31  C   3  S   0.000000   0.154354   0.000000   0.152900  -0.345359
   32  C   3  S   0.000000   0.327518   0.000000   0.312894  -0.716505
   33  C   3  S   0.000000  -1.802965   0.000000  -1.669117   2.805818
   34  C   3  X   0.000000   0.018800   0.000000   0.044624   0.232035
   35  C   3  Y   0.000000   0.009959   0.000000   0.179524   0.035511
   36  C   3  Z  -0.009103   0.000000   0.079645   0.000000   0.000000
   37  C   3  X   0.000000   0.395601   0.000000   1.477506  -3.141395
   38  C   3  Y   0.000000   3.524644   0.000000  -0.527837   0.523618
   39  C   3  Z  -0.159229   0.000000  -0.001163   0.000000   0.000000
   40  C   3 XX   0.000000   0.014964   0.000000  -0.092896   0.052279
   41  C   3 YY   0.000000   0.024089   0.000000   0.117292  -0.069549
   42  C   3 ZZ   0.000000  -0.039053   0.000000  -0.024396   0.017271
   43  C   3 XY   0.000000  -0.178285   0.000000  -0.095238  -0.069570
   44  C   3 XZ   0.166457   0.000000  -0.184111   0.000000   0.000000
   45  C   3 YZ  -0.100432   0.000000  -0.224193   0.000000   0.000000
   46  C   4  S   0.000000   0.000000   0.000000  -0.445401   0.000000
   47  C   4  S   0.000000   0.000000   0.000000  -0.892749   0.000000
   48  C   4  S   0.000000   0.000000   0.000000   4.748883   0.000000
   49  C   4  X   0.000000  -0.495541   0.000000   0.000000   0.088288
   50  C   4  Y   0.000000   0.000000   0.000000   0.033905   0.000000
   51  C   4  Z   0.096414   0.000000  -0.119440   0.000000   0.000000
   52  C   4  X   0.000000   5.170565   0.000000   0.000000  -0.821276
   53  C   4  Y   0.000000   0.000000   0.000000   2.213223   0.000000
   54  C   4  Z   0.116478   0.000000  -0.117935   0.000000   0.000000
   55  C   4 XX   0.000000   0.000000   0.000000  -0.179601   0.000000
   56  C   4 YY   0.000000   0.000000   0.000000   0.256350   0.000000
   57  C   4 ZZ   0.000000   0.000000   0.000000  -0.076749   0.000000
   58  C   4 XY   0.000000   0.068701   0.000000   0.000000  -0.310803
   59  C   4 XZ   0.000000   0.000000   0.000000   0.000000   0.000000
   60  C   4 YZ  -0.127779   0.000000   0.076084   0.000000   0.000000
   61  C   5  S   0.000000  -0.154354   0.000000   0.152900   0.345359
   62  C   5  S   0.000000  -0.327518   0.000000   0.312894   0.716505
   63  C   5  S   0.000000   1.802965   0.000000  -1.669117  -2.805818
   64  C   5  X   0.000000   0.018800   0.000000  -0.044624   0.232035
   65  C   5  Y   0.000000  -0.009959   0.000000   0.179524  -0.035511
   66  C   5  Z  -0.009103   0.000000   0.079645   0.000000   0.000000
   67  C   5  X   0.000000   0.395601   0.000000  -1.477506  -3.141395
   68  C   5  Y   0.000000  -3.524644   0.000000  -0.527837  -0.523618
   69  C   5  Z  -0.159229   0.000000  -0.001163   0.000000   0.000000
   70  C   5 XX   0.000000  -0.014964   0.000000  -0.092896  -0.052279
   71  C   5 YY   0.000000  -0.024089   0.000000   0.117292   0.069549
   72  C   5 ZZ   0.000000   0.039053   0.000000  -0.024396  -0.017271
   73  C   5 XY   0.000000  -0.178285   0.000000   0.095238  -0.069570
   74  C   5 XZ  -0.166457   0.000000   0.184111   0.000000   0.000000
   75  C   5 YZ  -0.100432   0.000000  -0.224193   0.000000   0.000000
   76  C   6  S   0.000000   0.154354   0.000000   0.152900  -0.345359
   77  C   6  S   0.000000   0.327518   0.000000   0.312894  -0.716505
   78  C   6  S   0.000000  -1.802965   0.000000  -1.669117   2.805818
   79  C   6  X   0.000000  -0.018800   0.000000  -0.044624  -0.232035
   80  C   6  Y   0.000000  -0.009959   0.000000  -0.179524  -0.035511
   81  C   6  Z   0.009103   0.000000   0.079645   0.000000   0.000000
   82  C   6  X   0.000000  -0.395601   0.000000  -1.477506   3.141395
   83  C   6  Y   0.000000  -3.524644   0.000000   0.527837  -0.523618
   84  C   6  Z   0.159229   0.000000  -0.001163   0.000000   0.000000
   85  C   6 XX   0.000000   0.014964   0.000000  -0.092896   0.052279
   86  C   6 YY   0.000000   0.024089   0.000000   0.117292  -0.069549
   87  C   6 ZZ   0.000000  -0.039053   0.000000  -0.024396   0.017271
   88  C   6 XY   0.000000  -0.178285   0.000000  -0.095238  -0.069570
   89  C   6 XZ   0.166457   0.000000   0.184111   0.000000   0.000000
   90  C   6 YZ  -0.100432   0.000000   0.224193   0.000000   0.000000
   91  O   7  S   0.000000   0.000000   0.000000   0.053513   0.000000
   92  O   7  S   0.000000   0.000000   0.000000   0.149469   0.000000
   93  O   7  S   0.000000   0.000000   0.000000  -0.118946   0.000000
   94  O   7  S   0.000000   0.000000   0.000000  -0.041630   0.000000
   95  O   7  X   0.000000  -0.112373   0.000000   0.000000  -0.073680
   96  O   7  Y   0.000000   0.000000   0.000000  -0.306051   0.000000
   97  O   7  Z   0.602840   0.000000   0.554605   0.000000   0.000000
   98  O   7  X   0.000000   0.646324   0.000000   0.000000   0.322115
   99  O   7  Y   0.000000   0.000000   0.000000   0.649422   0.000000
  100  O   7  Z  -0.651211   0.000000  -0.597186   0.000000   0.000000
  101  O   7  X   0.000000  -0.152783   0.000000   0.000000   0.089773
  102  O   7  Y   0.000000   0.000000   0.000000  -0.039232   0.000000
  103  O   7  Z   0.281804   0.000000   0.256432   0.000000   0.000000
  104  O   7 XX   0.000000   0.000000   0.000000   0.011479   0.000000
  105  O   7 YY   0.000000   0.000000   0.000000  -0.025353   0.000000
  106  O   7 ZZ   0.000000   0.000000   0.000000   0.013874   0.000000
  107  O   7 XY   0.000000   0.001210   0.000000   0.000000   0.016737
  108  O   7 XZ   0.000000   0.000000   0.000000   0.000000   0.000000
  109  O   7 YZ   0.000319   0.000000   0.008525   0.000000   0.000000
  110  O   7 XX   0.000000   0.000000   0.000000  -0.050116   0.000000
  111  O   7 YY   0.000000   0.000000   0.000000   0.160677   0.000000
  112  O   7 ZZ   0.000000   0.000000   0.000000  -0.110561   0.000000
  113  O   7 XY   0.000000   0.389649   0.000000   0.000000  -0.558801
  114  O   7 XZ   0.000000   0.000000   0.000000   0.000000   0.000000
  115  O   7 YZ  -0.177679   0.000000  -0.099469   0.000000   0.000000
  116  O   8  S   0.000000   0.000000   0.000000   0.053513   0.000000
  117  O   8  S   0.000000   0.000000   0.000000   0.149469   0.000000
  118  O   8  S   0.000000   0.000000   0.000000  -0.118946   0.000000
  119  O   8  S   0.000000   0.000000   0.000000  -0.041630   0.000000
  120  O   8  X   0.000000   0.112373   0.000000   0.000000   0.073680
  121  O   8  Y   0.000000   0.000000   0.000000   0.306051   0.000000
  122  O   8  Z  -0.602840   0.000000   0.554605   0.000000   0.000000
  123  O   8  X   0.000000  -0.646324   0.000000   0.000000  -0.322115
  124  O   8  Y   0.000000   0.000000   0.000000  -0.649422   0.000000
  125  O   8  Z   0.651211   0.000000  -0.597186   0.000000   0.000000
  126  O   8  X   0.000000   0.152783   0.000000   0.000000  -0.089773
  127  O   8  Y   0.000000   0.000000   0.000000   0.039232   0.000000
  128  O   8  Z  -0.281804   0.000000   0.256432   0.000000   0.000000
  129  O   8 XX   0.000000   0.000000   0.000000   0.011479   0.000000
  130  O   8 YY   0.000000   0.000000   0.000000  -0.025353   0.000000
  131  O   8 ZZ   0.000000   0.000000   0.000000   0.013874   0.000000
  132  O   8 XY   0.000000   0.001210   0.000000   0.000000   0.016737
  133  O   8 XZ   0.000000   0.000000   0.000000   0.000000   0.000000
  134  O   8 YZ   0.000319   0.000000  -0.008525   0.000000   0.000000
  135  O   8 XX   0.000000   0.000000   0.000000  -0.050116   0.000000
  136  O   8 YY   0.000000   0.000000   0.000000   0.160677   0.000000
  137  O   8 ZZ   0.000000   0.000000   0.000000  -0.110561   0.000000
  138  O   8 XY   0.000000   0.389649   0.000000   0.000000  -0.558801
  139  O   8 XZ   0.000000   0.000000   0.000000   0.000000   0.000000
  140  O   8 YZ  -0.177679   0.000000   0.099469   0.000000   0.000000
  141  H   9  S   0.000000  -0.505491   0.000000  -0.340981  -0.459332
  142  H   9  S   0.000000  -0.590388   0.000000  -0.383211  -0.829371
  143  H   9  X   0.000000  -0.017307   0.000000  -0.082402  -0.097768
  144  H   9  Y   0.000000  -0.022792   0.000000  -0.017776  -0.084721
  145  H   9  Z  -0.120206   0.000000   0.045901   0.000000   0.000000
  146  H  10  S   0.000000   0.505491   0.000000  -0.340981   0.459332
  147  H  10  S   0.000000   0.590388   0.000000  -0.383211   0.829371
  148  H  10  X   0.000000   0.017307   0.000000  -0.082402   0.097768
  149  H  10  Y   0.000000  -0.022792   0.000000   0.017776  -0.084721
  150  H  10  Z   0.120206   0.000000   0.045901   0.000000   0.000000
  151  H  11  S   0.000000  -0.505491   0.000000  -0.340981  -0.459332
  152  H  11  S   0.000000  -0.590388   0.000000  -0.383211  -0.829371
  153  H  11  X   0.000000   0.017307   0.000000   0.082402   0.097768
  154  H  11  Y   0.000000   0.022792   0.000000   0.017776   0.084721
  155  H  11  Z   0.120206   0.000000   0.045901   0.000000   0.000000
  156  H  12  S   0.000000   0.505491   0.000000  -0.340981   0.459332
  157  H  12  S   0.000000   0.590388   0.000000  -0.383211   0.829371
  158  H  12  X   0.000000  -0.017307   0.000000   0.082402  -0.097768
  159  H  12  Y   0.000000   0.022792   0.000000  -0.017776   0.084721
  160  H  12  Z  -0.120206   0.000000   0.045901   0.000000   0.000000

                     96         97         98         99        100
                    1.5576     1.6445     1.7015     1.7027     1.7054
                     A          A          A          A          A   
    1  C   1  S  -0.050204   0.000000   0.000000   0.000000   0.000000
    2  C   1  S  -0.155625   0.000000   0.000000   0.000000   0.000000
    3  C   1  S   1.178093   0.000000   0.000000   0.000000   0.000000
    4  C   1  X   0.000000   0.000000   0.000000   0.000000   0.295396
    5  C   1  Y  -0.208135   0.000000   0.000000   0.000000   0.000000
    6  C   1  Z   0.000000   0.352820   0.000000   0.259309   0.000000
    7  C   1  X   0.000000   0.000000   0.000000   0.000000  -2.113062
    8  C   1  Y  -0.309159   0.000000   0.000000   0.000000   0.000000
    9  C   1  Z   0.000000   1.082866   0.000000   1.420173   0.000000
   10  C   1 XX  -0.040065   0.000000   0.000000   0.000000   0.000000
   11  C   1 YY  -0.223356   0.000000   0.000000   0.000000   0.000000
   12  C   1 ZZ   0.263420   0.000000   0.000000   0.000000   0.000000
   13  C   1 XY   0.000000   0.000000   0.000000   0.000000   0.094720
   14  C   1 XZ   0.000000   0.000000  -0.457641   0.000000   0.000000
   15  C   1 YZ   0.000000   0.155892   0.000000   0.204153   0.000000
   16  C   2  S   0.242203   0.000000   0.000000   0.000000  -0.069740
   17  C   2  S   0.476007   0.000000   0.000000   0.000000  -0.147975
   18  C   2  S  -1.296834   0.000000   0.000000   0.000000   1.096202
   19  C   2  X  -0.090461   0.000000   0.000000   0.000000  -0.074902
   20  C   2  Y  -0.037225   0.000000   0.000000   0.000000   0.241845
   21  C   2  Z   0.000000  -0.026938   0.183714   0.008254   0.000000
   22  C   2  X   0.103849   0.000000   0.000000   0.000000  -0.152372
   23  C   2  Y  -0.366893   0.000000   0.000000   0.000000  -0.149151
   24  C   2  Z   0.000000  -0.377015   0.456815  -0.926214   0.000000
   25  C   2 XX  -0.229755   0.000000   0.000000   0.000000  -0.270187
   26  C   2 YY  -0.101520   0.000000   0.000000   0.000000   0.226974
   27  C   2 ZZ   0.331274   0.000000   0.000000   0.000000   0.043214
   28  C   2 XY  -0.124393   0.000000   0.000000   0.000000   0.138338
   29  C   2 XZ   0.000000   0.334789  -0.092703   0.275139   0.000000
   30  C   2 YZ   0.000000  -0.186374  -0.321213   0.045490   0.000000
   31  C   3  S   0.242203   0.000000   0.000000   0.000000  -0.069740
   32  C   3  S   0.476007   0.000000   0.000000   0.000000  -0.147975
   33  C   3  S  -1.296834   0.000000   0.000000   0.000000   1.096202
   34  C   3  X  -0.090461   0.000000   0.000000   0.000000  -0.074902
   35  C   3  Y   0.037225   0.000000   0.000000   0.000000  -0.241845
   36  C   3  Z   0.000000  -0.026938  -0.183714  -0.008254   0.000000
   37  C   3  X   0.103849   0.000000   0.000000   0.000000  -0.152372
   38  C   3  Y   0.366893   0.000000   0.000000   0.000000   0.149151
   39  C   3  Z   0.000000  -0.377015  -0.456815   0.926214   0.000000
   40  C   3 XX  -0.229755   0.000000   0.000000   0.000000  -0.270187
   41  C   3 YY  -0.101520   0.000000   0.000000   0.000000   0.226974
   42  C   3 ZZ   0.331274   0.000000   0.000000   0.000000   0.043214
   43  C   3 XY   0.124393   0.000000   0.000000   0.000000  -0.138338
   44  C   3 XZ   0.000000   0.334789   0.092703  -0.275139   0.000000
   45  C   3 YZ   0.000000   0.186374  -0.321213   0.045490   0.000000
   46  C   4  S  -0.050204   0.000000   0.000000   0.000000   0.000000
   47  C   4  S  -0.155625   0.000000   0.000000   0.000000   0.000000
   48  C   4  S   1.178093   0.000000   0.000000   0.000000   0.000000
   49  C   4  X   0.000000   0.000000   0.000000   0.000000   0.295396
   50  C   4  Y   0.208135   0.000000   0.000000   0.000000   0.000000
   51  C   4  Z   0.000000   0.352820   0.000000  -0.259309   0.000000
   52  C   4  X   0.000000   0.000000   0.000000   0.000000  -2.113062
   53  C   4  Y   0.309159   0.000000   0.000000   0.000000   0.000000
   54  C   4  Z   0.000000   1.082866   0.000000  -1.420173   0.000000
   55  C   4 XX  -0.040065   0.000000   0.000000   0.000000   0.000000
   56  C   4 YY  -0.223356   0.000000   0.000000   0.000000   0.000000
   57  C   4 ZZ   0.263420   0.000000   0.000000   0.000000   0.000000
   58  C   4 XY   0.000000   0.000000   0.000000   0.000000  -0.094720
   59  C   4 XZ   0.000000   0.000000   0.457641   0.000000   0.000000
   60  C   4 YZ   0.000000  -0.155892   0.000000   0.204153   0.000000
   61  C   5  S   0.242203   0.000000   0.000000   0.000000   0.069740
   62  C   5  S   0.476007   0.000000   0.000000   0.000000   0.147975
   63  C   5  S  -1.296834   0.000000   0.000000   0.000000  -1.096202
   64  C   5  X   0.090461   0.000000   0.000000   0.000000  -0.074902
   65  C   5  Y   0.037225   0.000000   0.000000   0.000000   0.241845
   66  C   5  Z   0.000000  -0.026938   0.183714  -0.008254   0.000000
   67  C   5  X  -0.103849   0.000000   0.000000   0.000000  -0.152372
   68  C   5  Y   0.366893   0.000000   0.000000   0.000000  -0.149151
   69  C   5  Z   0.000000  -0.377015   0.456815   0.926214   0.000000
   70  C   5 XX  -0.229755   0.000000   0.000000   0.000000   0.270187
   71  C   5 YY  -0.101520   0.000000   0.000000   0.000000  -0.226974
   72  C   5 ZZ   0.331274   0.000000   0.000000   0.000000  -0.043214
   73  C   5 XY  -0.124393   0.000000   0.000000   0.000000  -0.138338
   74  C   5 XZ   0.000000  -0.334789   0.092703   0.275139   0.000000
   75  C   5 YZ   0.000000   0.186374   0.321213   0.045490   0.000000
   76  C   6  S   0.242203   0.000000   0.000000   0.000000   0.069740
   77  C   6  S   0.476007   0.000000   0.000000   0.000000   0.147975
   78  C   6  S  -1.296834   0.000000   0.000000   0.000000  -1.096202
   79  C   6  X   0.090461   0.000000   0.000000   0.000000  -0.074902
   80  C   6  Y  -0.037225   0.000000   0.000000   0.000000  -0.241845
   81  C   6  Z   0.000000  -0.026938  -0.183714   0.008254   0.000000
   82  C   6  X  -0.103849   0.000000   0.000000   0.000000  -0.152372
   83  C   6  Y  -0.366893   0.000000   0.000000   0.000000   0.149151
   84  C   6  Z   0.000000  -0.377015  -0.456815  -0.926214   0.000000
   85  C   6 XX  -0.229755   0.000000   0.000000   0.000000   0.270187
   86  C   6 YY  -0.101520   0.000000   0.000000   0.000000  -0.226974
   87  C   6 ZZ   0.331274   0.000000   0.000000   0.000000  -0.043214
   88  C   6 XY   0.124393   0.000000   0.000000   0.000000   0.138338
   89  C   6 XZ   0.000000  -0.334789  -0.092703  -0.275139   0.000000
   90  C   6 YZ   0.000000  -0.186374   0.321213   0.045490   0.000000
   91  O   7  S   0.049871   0.000000   0.000000   0.000000   0.000000
   92  O   7  S   0.134146   0.000000   0.000000   0.000000   0.000000
   93  O   7  S  -0.006792   0.000000   0.000000   0.000000   0.000000
   94  O   7  S   0.265856   0.000000   0.000000   0.000000   0.000000
   95  O   7  X   0.000000   0.000000   0.000000   0.000000  -0.426840
   96  O   7  Y  -0.287097   0.000000   0.000000   0.000000   0.000000
   97  O   7  Z   0.000000   0.392315   0.000000   0.388901   0.000000
   98  O   7  X   0.000000   0.000000   0.000000   0.000000   1.008258
   99  O   7  Y   0.088742   0.000000   0.000000   0.000000   0.000000
  100  O   7  Z   0.000000  -0.929581   0.000000  -0.996145   0.000000
  101  O   7  X   0.000000   0.000000   0.000000   0.000000   0.084588
  102  O   7  Y  -0.153870   0.000000   0.000000   0.000000   0.000000
  103  O   7  Z   0.000000  -0.003337   0.000000   0.018561   0.000000
  104  O   7 XX   0.008477   0.000000   0.000000   0.000000   0.000000
  105  O   7 YY  -0.011349   0.000000   0.000000   0.000000   0.000000
  106  O   7 ZZ   0.002872   0.000000   0.000000   0.000000   0.000000
  107  O   7 XY   0.000000   0.000000   0.000000   0.000000  -0.002509
  108  O   7 XZ   0.000000   0.000000  -0.006649   0.000000   0.000000
  109  O   7 YZ   0.000000  -0.020597   0.000000  -0.013909   0.000000
  110  O   7 XX   0.272356   0.000000   0.000000   0.000000   0.000000
  111  O   7 YY  -0.007007   0.000000   0.000000   0.000000   0.000000
  112  O   7 ZZ  -0.265350   0.000000   0.000000   0.000000   0.000000
  113  O   7 XY   0.000000   0.000000   0.000000   0.000000  -0.267212
  114  O   7 XZ   0.000000   0.000000   0.141780   0.000000   0.000000
  115  O   7 YZ   0.000000   0.583788   0.000000   0.584176   0.000000
  116  O   8  S   0.049871   0.000000   0.000000   0.000000   0.000000
  117  O   8  S   0.134146   0.000000   0.000000   0.000000   0.000000
  118  O   8  S  -0.006792   0.000000   0.000000   0.000000   0.000000
  119  O   8  S   0.265856   0.000000   0.000000   0.000000   0.000000
  120  O   8  X   0.000000   0.000000   0.000000   0.000000  -0.426840
  121  O   8  Y   0.287097   0.000000   0.000000   0.000000   0.000000
  122  O   8  Z   0.000000   0.392315   0.000000  -0.388901   0.000000
  123  O   8  X   0.000000   0.000000   0.000000   0.000000   1.008258
  124  O   8  Y  -0.088742   0.000000   0.000000   0.000000   0.000000
  125  O   8  Z   0.000000  -0.929581   0.000000   0.996145   0.000000
  126  O   8  X   0.000000   0.000000   0.000000   0.000000   0.084588
  127  O   8  Y   0.153870   0.000000   0.000000   0.000000   0.000000
  128  O   8  Z   0.000000  -0.003337   0.000000  -0.018561   0.000000
  129  O   8 XX   0.008477   0.000000   0.000000   0.000000   0.000000
  130  O   8 YY  -0.011349   0.000000   0.000000   0.000000   0.000000
  131  O   8 ZZ   0.002872   0.000000   0.000000   0.000000   0.000000
  132  O   8 XY   0.000000   0.000000   0.000000   0.000000   0.002509
  133  O   8 XZ   0.000000   0.000000   0.006649   0.000000   0.000000
  134  O   8 YZ   0.000000   0.020597   0.000000  -0.013909   0.000000
  135  O   8 XX   0.272356   0.000000   0.000000   0.000000   0.000000
  136  O   8 YY  -0.007007   0.000000   0.000000   0.000000   0.000000
  137  O   8 ZZ  -0.265350   0.000000   0.000000   0.000000   0.000000
  138  O   8 XY   0.000000   0.000000   0.000000   0.000000   0.267212
  139  O   8 XZ   0.000000   0.000000  -0.141780   0.000000   0.000000
  140  O   8 YZ   0.000000  -0.583788   0.000000   0.584176   0.000000
  141  H   9  S   0.481752   0.000000   0.000000   0.000000   0.069358
  142  H   9  S   0.055966   0.000000   0.000000   0.000000  -0.014592
  143  H   9  X   0.070270   0.000000   0.000000   0.000000  -0.094813
  144  H   9  Y  -0.048690   0.000000   0.000000   0.000000   0.150602
  145  H   9  Z   0.000000   0.104508  -0.303256   0.276434   0.000000
  146  H  10  S   0.481752   0.000000   0.000000   0.000000   0.069358
  147  H  10  S   0.055966   0.000000   0.000000   0.000000  -0.014592
  148  H  10  X   0.070270   0.000000   0.000000   0.000000  -0.094813
  149  H  10  Y   0.048690   0.000000   0.000000   0.000000  -0.150602
  150  H  10  Z   0.000000   0.104508   0.303256  -0.276434   0.000000
  151  H  11  S   0.481752   0.000000   0.000000   0.000000  -0.069358
  152  H  11  S   0.055966   0.000000   0.000000   0.000000   0.014592
  153  H  11  X  -0.070270   0.000000   0.000000   0.000000  -0.094813
  154  H  11  Y   0.048690   0.000000   0.000000   0.000000   0.150602
  155  H  11  Z   0.000000   0.104508  -0.303256  -0.276434   0.000000
  156  H  12  S   0.481752   0.000000   0.000000   0.000000  -0.069358
  157  H  12  S   0.055966   0.000000   0.000000   0.000000   0.014592
  158  H  12  X  -0.070270   0.000000   0.000000   0.000000  -0.094813
  159  H  12  Y  -0.048690   0.000000   0.000000   0.000000  -0.150602
  160  H  12  Z   0.000000   0.104508   0.303256   0.276434   0.000000

                    101        102        103        104        105
                    1.8249     1.8258     1.8451     1.8520     1.8610
                     A          A          A          A          A   
    1  C   1  S  -0.274204   0.000000   0.000000   0.119340   0.000000
    2  C   1  S  -0.579197   0.000000   0.000000   0.343882   0.000000
    3  C   1  S   0.724297   0.000000   0.000000   1.465983   0.000000
    4  C   1  X   0.000000   0.000000  -0.379221   0.000000  -0.058174
    5  C   1  Y  -0.121389   0.000000   0.000000  -0.464365   0.000000
    6  C   1  Z   0.000000  -0.183009   0.000000   0.000000   0.000000
    7  C   1  X   0.000000   0.000000  -3.145531   0.000000  -4.681863
    8  C   1  Y  -0.442196   0.000000   0.000000   0.341658   0.000000
    9  C   1  Z   0.000000  -0.179978   0.000000   0.000000   0.000000
   10  C   1 XX   0.315273   0.000000   0.000000   0.058346   0.000000
   11  C   1 YY  -0.099632   0.000000   0.000000  -0.079541   0.000000
   12  C   1 ZZ  -0.215641   0.000000   0.000000   0.021195   0.000000
   13  C   1 XY   0.000000   0.000000  -0.179477   0.000000   0.176021
   14  C   1 XZ   0.000000   0.000000   0.000000   0.000000   0.000000
   15  C   1 YZ   0.000000  -0.577786   0.000000   0.000000   0.000000
   16  C   2  S  -0.166677   0.000000   0.087492   0.005300  -0.074217
   17  C   2  S  -0.355603   0.000000   0.214630  -0.043561  -0.054005
   18  C   2  S  -0.075446   0.000000   1.991931  -1.144866   5.099634
   19  C   2  X   0.110594   0.000000  -0.109875   0.062679  -0.117171
   20  C   2  Y   0.052213   0.000000   0.077922   0.095681  -0.133165
   21  C   2  Z   0.000000  -0.134409   0.000000   0.000000   0.000000
   22  C   2  X   0.008369   0.000000  -0.670724   0.376257  -1.858426
   23  C   2  Y  -0.100895   0.000000   0.837842  -1.081628  -0.302752
   24  C   2  Z   0.000000  -0.095880   0.000000   0.000000   0.000000
   25  C   2 XX  -0.110177   0.000000  -0.058440  -0.283083  -0.284374
   26  C   2 YY   0.248836   0.000000  -0.098649   0.170745   0.306532
   27  C   2 ZZ  -0.138659   0.000000   0.157089   0.112338  -0.022158
   28  C   2 XY  -0.264035   0.000000  -0.188685   0.232461   0.037240
   29  C   2 XZ   0.000000  -0.088692   0.000000   0.000000   0.000000
   30  C   2 YZ   0.000000  -0.194662   0.000000   0.000000   0.000000
   31  C   3  S  -0.166677   0.000000   0.087492   0.005300   0.074217
   32  C   3  S  -0.355603   0.000000   0.214630  -0.043561   0.054005
   33  C   3  S  -0.075446   0.000000   1.991931  -1.144866  -5.099634
   34  C   3  X   0.110594   0.000000  -0.109875   0.062679   0.117171
   35  C   3  Y  -0.052213   0.000000  -0.077922  -0.095681  -0.133165
   36  C   3  Z   0.000000  -0.134409   0.000000   0.000000   0.000000
   37  C   3  X   0.008369   0.000000  -0.670724   0.376257   1.858426
   38  C   3  Y   0.100895   0.000000  -0.837842   1.081628  -0.302752
   39  C   3  Z   0.000000  -0.095880   0.000000   0.000000   0.000000
   40  C   3 XX  -0.110177   0.000000  -0.058440  -0.283083   0.284374
   41  C   3 YY   0.248836   0.000000  -0.098649   0.170745  -0.306532
   42  C   3 ZZ  -0.138659   0.000000   0.157089   0.112338   0.022158
   43  C   3 XY   0.264035   0.000000   0.188685  -0.232461   0.037240
   44  C   3 XZ   0.000000  -0.088692   0.000000   0.000000   0.000000
   45  C   3 YZ   0.000000   0.194662   0.000000   0.000000   0.000000
   46  C   4  S  -0.274204   0.000000   0.000000   0.119340   0.000000
   47  C   4  S  -0.579197   0.000000   0.000000   0.343882   0.000000
   48  C   4  S   0.724297   0.000000   0.000000   1.465983   0.000000
   49  C   4  X   0.000000   0.000000  -0.379221   0.000000   0.058174
   50  C   4  Y   0.121389   0.000000   0.000000   0.464365   0.000000
   51  C   4  Z   0.000000  -0.183009   0.000000   0.000000   0.000000
   52  C   4  X   0.000000   0.000000  -3.145531   0.000000   4.681863
   53  C   4  Y   0.442196   0.000000   0.000000  -0.341658   0.000000
   54  C   4  Z   0.000000  -0.179978   0.000000   0.000000   0.000000
   55  C   4 XX   0.315273   0.000000   0.000000   0.058346   0.000000
   56  C   4 YY  -0.099632   0.000000   0.000000  -0.079541   0.000000
   57  C   4 ZZ  -0.215641   0.000000   0.000000   0.021195   0.000000
   58  C   4 XY   0.000000   0.000000   0.179477   0.000000   0.176021
   59  C   4 XZ   0.000000   0.000000   0.000000   0.000000   0.000000
   60  C   4 YZ   0.000000   0.577786   0.000000   0.000000   0.000000
   61  C   5  S  -0.166677   0.000000  -0.087492   0.005300  -0.074217
   62  C   5  S  -0.355603   0.000000  -0.214630  -0.043561  -0.054005
   63  C   5  S  -0.075446   0.000000  -1.991931  -1.144866   5.099634
   64  C   5  X  -0.110594   0.000000  -0.109875  -0.062679   0.117171
   65  C   5  Y  -0.052213   0.000000   0.077922  -0.095681   0.133165
   66  C   5  Z   0.000000  -0.134409   0.000000   0.000000   0.000000
   67  C   5  X  -0.008369   0.000000  -0.670724  -0.376257   1.858426
   68  C   5  Y   0.100895   0.000000   0.837842   1.081628   0.302752
   69  C   5  Z   0.000000  -0.095880   0.000000   0.000000   0.000000
   70  C   5 XX  -0.110177   0.000000   0.058440  -0.283083  -0.284374
   71  C   5 YY   0.248836   0.000000   0.098649   0.170745   0.306532
   72  C   5 ZZ  -0.138659   0.000000  -0.157089   0.112338  -0.022158
   73  C   5 XY  -0.264035   0.000000   0.188685   0.232461   0.037240
   74  C   5 XZ   0.000000   0.088692   0.000000   0.000000   0.000000
   75  C   5 YZ   0.000000   0.194662   0.000000   0.000000   0.000000
   76  C   6  S  -0.166677   0.000000  -0.087492   0.005300   0.074217
   77  C   6  S  -0.355603   0.000000  -0.214630  -0.043561   0.054005
   78  C   6  S  -0.075446   0.000000  -1.991931  -1.144866  -5.099634
   79  C   6  X  -0.110594   0.000000  -0.109875  -0.062679  -0.117171
   80  C   6  Y   0.052213   0.000000  -0.077922   0.095681   0.133165
   81  C   6  Z   0.000000  -0.134409   0.000000   0.000000   0.000000
   82  C   6  X  -0.008369   0.000000  -0.670724  -0.376257  -1.858426
   83  C   6  Y  -0.100895   0.000000  -0.837842  -1.081628   0.302752
   84  C   6  Z   0.000000  -0.095880   0.000000   0.000000   0.000000
   85  C   6 XX  -0.110177   0.000000   0.058440  -0.283083   0.284374
   86  C   6 YY   0.248836   0.000000   0.098649   0.170745  -0.306532
   87  C   6 ZZ  -0.138659   0.000000  -0.157089   0.112338   0.022158
   88  C   6 XY   0.264035   0.000000  -0.188685  -0.232461   0.037240
   89  C   6 XZ   0.000000   0.088692   0.000000   0.000000   0.000000
   90  C   6 YZ   0.000000  -0.194662   0.000000   0.000000   0.000000
   91  O   7  S  -0.064852   0.000000   0.000000   0.046095   0.000000
   92  O   7  S  -0.116526   0.000000   0.000000   0.109240   0.000000
   93  O   7  S   0.481883   0.000000   0.000000  -0.374103   0.000000
   94  O   7  S  -0.191151   0.000000   0.000000   0.430625   0.000000
   95  O   7  X   0.000000   0.000000  -0.399492   0.000000  -0.565463
   96  O   7  Y  -0.248960   0.000000   0.000000   0.041814   0.000000
   97  O   7  Z   0.000000  -0.023484   0.000000   0.000000   0.000000
   98  O   7  X   0.000000   0.000000   1.246328   0.000000   1.589122
   99  O   7  Y   0.074733   0.000000   0.000000  -0.258637   0.000000
  100  O   7  Z   0.000000   0.421298   0.000000   0.000000   0.000000
  101  O   7  X   0.000000   0.000000   0.051794   0.000000   0.172073
  102  O   7  Y   0.085895   0.000000   0.000000  -0.168061   0.000000
  103  O   7  Z   0.000000   0.038617   0.000000   0.000000   0.000000
  104  O   7 XX   0.015223   0.000000   0.000000   0.003953   0.000000
  105  O   7 YY  -0.026077   0.000000   0.000000  -0.019690   0.000000
  106  O   7 ZZ   0.010854   0.000000   0.000000   0.015736   0.000000
  107  O   7 XY   0.000000   0.000000   0.007537   0.000000  -0.008463
  108  O   7 XZ   0.000000   0.000000   0.000000   0.000000   0.000000
  109  O   7 YZ   0.000000   0.020948   0.000000   0.000000   0.000000
  110  O   7 XX  -0.168147   0.000000   0.000000   0.091335   0.000000
  111  O   7 YY   0.063979   0.000000   0.000000   0.132704   0.000000
  112  O   7 ZZ   0.104169   0.000000   0.000000  -0.224039   0.000000
  113  O   7 XY   0.000000   0.000000  -0.696802   0.000000  -0.507436
  114  O   7 XZ   0.000000   0.000000   0.000000   0.000000   0.000000
  115  O   7 YZ   0.000000  -0.500286   0.000000   0.000000   0.000000
  116  O   8  S  -0.064852   0.000000   0.000000   0.046095   0.000000
  117  O   8  S  -0.116526   0.000000   0.000000   0.109240   0.000000
  118  O   8  S   0.481883   0.000000   0.000000  -0.374103   0.000000
  119  O   8  S  -0.191151   0.000000   0.000000   0.430625   0.000000
  120  O   8  X   0.000000   0.000000  -0.399492   0.000000   0.565463
  121  O   8  Y   0.248960   0.000000   0.000000  -0.041814   0.000000
  122  O   8  Z   0.000000  -0.023484   0.000000   0.000000   0.000000
  123  O   8  X   0.000000   0.000000   1.246328   0.000000  -1.589122
  124  O   8  Y  -0.074733   0.000000   0.000000   0.258637   0.000000
  125  O   8  Z   0.000000   0.421298   0.000000   0.000000   0.000000
  126  O   8  X   0.000000   0.000000   0.051794   0.000000  -0.172073
  127  O   8  Y  -0.085895   0.000000   0.000000   0.168061   0.000000
  128  O   8  Z   0.000000   0.038617   0.000000   0.000000   0.000000
  129  O   8 XX   0.015223   0.000000   0.000000   0.003953   0.000000
  130  O   8 YY  -0.026077   0.000000   0.000000  -0.019690   0.000000
  131  O   8 ZZ   0.010854   0.000000   0.000000   0.015736   0.000000
  132  O   8 XY   0.000000   0.000000  -0.007537   0.000000  -0.008463
  133  O   8 XZ   0.000000   0.000000   0.000000   0.000000   0.000000
  134  O   8 YZ   0.000000  -0.020948   0.000000   0.000000   0.000000
  135  O   8 XX  -0.168147   0.000000   0.000000   0.091335   0.000000
  136  O   8 YY   0.063979   0.000000   0.000000   0.132704   0.000000
  137  O   8 ZZ   0.104169   0.000000   0.000000  -0.224039   0.000000
  138  O   8 XY   0.000000   0.000000   0.696802   0.000000  -0.507436
  139  O   8 XZ   0.000000   0.000000   0.000000   0.000000   0.000000
  140  O   8 YZ   0.000000   0.500286   0.000000   0.000000   0.000000
  141  H   9  S   0.191068   0.000000   0.096563   0.207106   0.117737
  142  H   9  S  -0.059192   0.000000   0.015300   0.029106   0.271523
  143  H   9  X   0.073088   0.000000   0.209366  -0.232121   0.035286
  144  H   9  Y   0.158514   0.000000  -0.177214   0.291083   0.133780
  145  H   9  Z   0.000000   0.443557   0.000000   0.000000   0.000000
  146  H  10  S   0.191068   0.000000   0.096563   0.207106  -0.117737
  147  H  10  S  -0.059192   0.000000   0.015300   0.029106  -0.271523
  148  H  10  X   0.073088   0.000000   0.209366  -0.232121  -0.035286
  149  H  10  Y  -0.158514   0.000000   0.177214  -0.291083   0.133780
  150  H  10  Z   0.000000   0.443557   0.000000   0.000000   0.000000
  151  H  11  S   0.191068   0.000000  -0.096563   0.207106   0.117737
  152  H  11  S  -0.059192   0.000000  -0.015300   0.029106   0.271523
  153  H  11  X  -0.073088   0.000000   0.209366   0.232121  -0.035286
  154  H  11  Y  -0.158514   0.000000  -0.177214  -0.291083  -0.133780
  155  H  11  Z   0.000000   0.443557   0.000000   0.000000   0.000000
  156  H  12  S   0.191068   0.000000  -0.096563   0.207106  -0.117737
  157  H  12  S  -0.059192   0.000000  -0.015300   0.029106  -0.271523
  158  H  12  X  -0.073088   0.000000   0.209366   0.232121   0.035286
  159  H  12  Y   0.158514   0.000000   0.177214   0.291083  -0.133780
  160  H  12  Z   0.000000   0.443557   0.000000   0.000000   0.000000

                    106        107        108        109        110
                    1.8613     1.8779     1.8832     1.9217     1.9573
                     A          A          A          A          A   
    1  C   1  S   0.000000   0.000000  -0.753802   0.000000   0.105227
    2  C   1  S   0.000000   0.000000  -1.454067   0.000000   0.236398
    3  C   1  S   0.000000   0.000000   9.583026   0.000000   8.697549
    4  C   1  X   0.000000   0.135662   0.000000   0.000000   0.000000
    5  C   1  Y   0.000000   0.000000  -0.196638   0.000000   0.736846
    6  C   1  Z   0.286070   0.000000   0.000000   0.000000   0.000000
    7  C   1  X   0.000000  -3.893200   0.000000   0.000000   0.000000
    8  C   1  Y   0.000000   0.000000  -3.682814   0.000000  -4.128101
    9  C   1  Z   0.224530   0.000000   0.000000   0.000000   0.000000
   10  C   1 XX   0.000000   0.000000   0.010091   0.000000  -0.218338
   11  C   1 YY   0.000000   0.000000   0.070235   0.000000   0.427579
   12  C   1 ZZ   0.000000   0.000000  -0.080326   0.000000  -0.209241
   13  C   1 XY   0.000000  -0.110314   0.000000   0.000000   0.000000
   14  C   1 XZ   0.000000   0.000000   0.000000   0.308634   0.000000
   15  C   1 YZ   0.738953   0.000000   0.000000   0.000000   0.000000
   16  C   2  S   0.000000  -0.176919   0.471340   0.000000   0.209944
   17  C   2  S   0.000000  -0.340454   0.909194   0.000000   0.386532
   18  C   2  S   0.000000   3.296735  -8.585109   0.000000  -5.912104
   19  C   2  X   0.000000   0.080368  -0.037113   0.000000  -0.063994
   20  C   2  Y   0.000000  -0.078398  -0.096353   0.000000   0.068071
   21  C   2  Z   0.083986   0.000000   0.000000   0.045340   0.000000
   22  C   2  X   0.000000  -0.725801   4.100617   0.000000   4.179012
   23  C   2  Y   0.000000   1.404222   2.402860   0.000000   1.229456
   24  C   2  Z   0.255372   0.000000   0.000000   0.050890   0.000000
   25  C   2 XX   0.000000   0.318266   0.018070   0.000000   0.024519
   26  C   2 YY   0.000000  -0.167219   0.046473   0.000000   0.056496
   27  C   2 ZZ   0.000000  -0.151047  -0.064542   0.000000  -0.081015
   28  C   2 XY   0.000000   0.202614  -0.053908   0.000000   0.145719
   29  C   2 XZ   0.089610   0.000000   0.000000   0.410235   0.000000
   30  C   2 YZ   0.034784   0.000000   0.000000   0.086103   0.000000
   31  C   3  S   0.000000  -0.176919  -0.471340   0.000000  -0.209944
   32  C   3  S   0.000000  -0.340454  -0.909194   0.000000  -0.386532
   33  C   3  S   0.000000   3.296735   8.585109   0.000000   5.912104
   34  C   3  X   0.000000   0.080368   0.037113   0.000000   0.063994
   35  C   3  Y   0.000000   0.078398  -0.096353   0.000000   0.068071
   36  C   3  Z  -0.083986   0.000000   0.000000   0.045340   0.000000
   37  C   3  X   0.000000  -0.725801  -4.100617   0.000000  -4.179012
   38  C   3  Y   0.000000  -1.404222   2.402860   0.000000   1.229456
   39  C   3  Z  -0.255372   0.000000   0.000000   0.050890   0.000000
   40  C   3 XX   0.000000   0.318266  -0.018070   0.000000  -0.024519
   41  C   3 YY   0.000000  -0.167219  -0.046473   0.000000  -0.056496
   42  C   3 ZZ   0.000000  -0.151047   0.064542   0.000000   0.081015
   43  C   3 XY   0.000000  -0.202614  -0.053908   0.000000   0.145719
   44  C   3 XZ  -0.089610   0.000000   0.000000   0.410235   0.000000
   45  C   3 YZ   0.034784   0.000000   0.000000  -0.086103   0.000000
   46  C   4  S   0.000000   0.000000   0.753802   0.000000  -0.105227
   47  C   4  S   0.000000   0.000000   1.454067   0.000000  -0.236398
   48  C   4  S   0.000000   0.000000  -9.583026   0.000000  -8.697549
   49  C   4  X   0.000000   0.135662   0.000000   0.000000   0.000000
   50  C   4  Y   0.000000   0.000000  -0.196638   0.000000   0.736846
   51  C   4  Z  -0.286070   0.000000   0.000000   0.000000   0.000000
   52  C   4  X   0.000000  -3.893200   0.000000   0.000000   0.000000
   53  C   4  Y   0.000000   0.000000  -3.682814   0.000000  -4.128101
   54  C   4  Z  -0.224530   0.000000   0.000000   0.000000   0.000000
   55  C   4 XX   0.000000   0.000000  -0.010091   0.000000   0.218338
   56  C   4 YY   0.000000   0.000000  -0.070235   0.000000  -0.427579
   57  C   4 ZZ   0.000000   0.000000   0.080326   0.000000   0.209241
   58  C   4 XY   0.000000   0.110314   0.000000   0.000000   0.000000
   59  C   4 XZ   0.000000   0.000000   0.000000   0.308634   0.000000
   60  C   4 YZ   0.738953   0.000000   0.000000   0.000000   0.000000
   61  C   5  S   0.000000   0.176919  -0.471340   0.000000  -0.209944
   62  C   5  S   0.000000   0.340454  -0.909194   0.000000  -0.386532
   63  C   5  S   0.000000  -3.296735   8.585109   0.000000   5.912104
   64  C   5  X   0.000000   0.080368  -0.037113   0.000000  -0.063994
   65  C   5  Y   0.000000  -0.078398  -0.096353   0.000000   0.068071
   66  C   5  Z  -0.083986   0.000000   0.000000  -0.045340   0.000000
   67  C   5  X   0.000000  -0.725801   4.100617   0.000000   4.179012
   68  C   5  Y   0.000000   1.404222   2.402860   0.000000   1.229456
   69  C   5  Z  -0.255372   0.000000   0.000000  -0.050890   0.000000
   70  C   5 XX   0.000000  -0.318266  -0.018070   0.000000  -0.024519
   71  C   5 YY   0.000000   0.167219  -0.046473   0.000000  -0.056496
   72  C   5 ZZ   0.000000   0.151047   0.064542   0.000000   0.081015
   73  C   5 XY   0.000000  -0.202614   0.053908   0.000000  -0.145719
   74  C   5 XZ   0.089610   0.000000   0.000000   0.410235   0.000000
   75  C   5 YZ   0.034784   0.000000   0.000000   0.086103   0.000000
   76  C   6  S   0.000000   0.176919   0.471340   0.000000   0.209944
   77  C   6  S   0.000000   0.340454   0.909194   0.000000   0.386532
   78  C   6  S   0.000000  -3.296735  -8.585109   0.000000  -5.912104
   79  C   6  X   0.000000   0.080368   0.037113   0.000000   0.063994
   80  C   6  Y   0.000000   0.078398  -0.096353   0.000000   0.068071
   81  C   6  Z   0.083986   0.000000   0.000000  -0.045340   0.000000
   82  C   6  X   0.000000  -0.725801  -4.100617   0.000000  -4.179012
   83  C   6  Y   0.000000  -1.404222   2.402860   0.000000   1.229456
   84  C   6  Z   0.255372   0.000000   0.000000  -0.050890   0.000000
   85  C   6 XX   0.000000  -0.318266   0.018070   0.000000   0.024519
   86  C   6 YY   0.000000   0.167219   0.046473   0.000000   0.056496
   87  C   6 ZZ   0.000000   0.151047  -0.064542   0.000000  -0.081015
   88  C   6 XY   0.000000   0.202614   0.053908   0.000000  -0.145719
   89  C   6 XZ  -0.089610   0.000000   0.000000   0.410235   0.000000
   90  C   6 YZ   0.034784   0.000000   0.000000  -0.086103   0.000000
   91  O   7  S   0.000000   0.000000   0.142682   0.000000  -0.033152
   92  O   7  S   0.000000   0.000000   0.356099   0.000000  -0.136718
   93  O   7  S   0.000000   0.000000  -0.441147   0.000000  -0.101365
   94  O   7  S   0.000000   0.000000   0.280831   0.000000   0.118829
   95  O   7  X   0.000000  -0.281412   0.000000   0.000000   0.000000
   96  O   7  Y   0.000000   0.000000  -0.060382   0.000000   0.188358
   97  O   7  Z   0.021629   0.000000   0.000000   0.000000   0.000000
   98  O   7  X   0.000000   0.985782   0.000000   0.000000   0.000000
   99  O   7  Y   0.000000   0.000000   0.187496   0.000000   0.962431
  100  O   7  Z  -0.546300   0.000000   0.000000   0.000000   0.000000
  101  O   7  X   0.000000  -0.109354   0.000000   0.000000   0.000000
  102  O   7  Y   0.000000   0.000000  -0.032174   0.000000   0.044830
  103  O   7  Z  -0.058364   0.000000   0.000000   0.000000   0.000000
  104  O   7 XX   0.000000   0.000000   0.022796   0.000000  -0.045826
  105  O   7 YY   0.000000   0.000000  -0.036811   0.000000   0.063721
  106  O   7 ZZ   0.000000   0.000000   0.014014   0.000000  -0.017895
  107  O   7 XY   0.000000  -0.005950   0.000000   0.000000   0.000000
  108  O   7 XZ   0.000000   0.000000   0.000000   0.007331   0.000000
  109  O   7 YZ  -0.038257   0.000000   0.000000   0.000000   0.000000
  110  O   7 XX   0.000000   0.000000  -0.150309   0.000000   0.424666
  111  O   7 YY   0.000000   0.000000   0.385441   0.000000  -0.787846
  112  O   7 ZZ   0.000000   0.000000  -0.235132   0.000000   0.363180
  113  O   7 XY   0.000000  -0.330213   0.000000   0.000000   0.000000
  114  O   7 XZ   0.000000   0.000000   0.000000  -0.108352   0.000000
  115  O   7 YZ   0.647113   0.000000   0.000000   0.000000   0.000000
  116  O   8  S   0.000000   0.000000  -0.142682   0.000000   0.033152
  117  O   8  S   0.000000   0.000000  -0.356099   0.000000   0.136718
  118  O   8  S   0.000000   0.000000   0.441147   0.000000   0.101365
  119  O   8  S   0.000000   0.000000  -0.280831   0.000000  -0.118829
  120  O   8  X   0.000000  -0.281412   0.000000   0.000000   0.000000
  121  O   8  Y   0.000000   0.000000  -0.060382   0.000000   0.188358
  122  O   8  Z  -0.021629   0.000000   0.000000   0.000000   0.000000
  123  O   8  X   0.000000   0.985782   0.000000   0.000000   0.000000
  124  O   8  Y   0.000000   0.000000   0.187496   0.000000   0.962431
  125  O   8  Z   0.546300   0.000000   0.000000   0.000000   0.000000
  126  O   8  X   0.000000  -0.109354   0.000000   0.000000   0.000000
  127  O   8  Y   0.000000   0.000000  -0.032174   0.000000   0.044830
  128  O   8  Z   0.058364   0.000000   0.000000   0.000000   0.000000
  129  O   8 XX   0.000000   0.000000  -0.022796   0.000000   0.045826
  130  O   8 YY   0.000000   0.000000   0.036811   0.000000  -0.063721
  131  O   8 ZZ   0.000000   0.000000  -0.014014   0.000000   0.017895
  132  O   8 XY   0.000000   0.005950   0.000000   0.000000   0.000000
  133  O   8 XZ   0.000000   0.000000   0.000000   0.007331   0.000000
  134  O   8 YZ  -0.038257   0.000000   0.000000   0.000000   0.000000
  135  O   8 XX   0.000000   0.000000   0.150309   0.000000  -0.424666
  136  O   8 YY   0.000000   0.000000  -0.385441   0.000000   0.787846
  137  O   8 ZZ   0.000000   0.000000   0.235132   0.000000  -0.363180
  138  O   8 XY   0.000000   0.330213   0.000000   0.000000   0.000000
  139  O   8 XZ   0.000000   0.000000   0.000000  -0.108352   0.000000
  140  O   8 YZ   0.647113   0.000000   0.000000   0.000000   0.000000
  141  H   9  S   0.000000  -0.545955  -0.244945   0.000000  -0.494415
  142  H   9  S   0.000000   0.127005  -0.993390   0.000000  -0.918668
  143  H   9  X   0.000000  -0.130322  -0.048796   0.000000  -0.252716
  144  H   9  Y   0.000000  -0.141413  -0.149706   0.000000   0.033323
  145  H   9  Z  -0.373200   0.000000   0.000000  -0.520268   0.000000
  146  H  10  S   0.000000  -0.545955   0.244945   0.000000   0.494415
  147  H  10  S   0.000000   0.127005   0.993390   0.000000   0.918668
  148  H  10  X   0.000000  -0.130322   0.048796   0.000000   0.252716
  149  H  10  Y   0.000000   0.141413  -0.149706   0.000000   0.033323
  150  H  10  Z   0.373200   0.000000   0.000000  -0.520268   0.000000
  151  H  11  S   0.000000   0.545955   0.244945   0.000000   0.494415
  152  H  11  S   0.000000  -0.127005   0.993390   0.000000   0.918668
  153  H  11  X   0.000000  -0.130322  -0.048796   0.000000  -0.252716
  154  H  11  Y   0.000000  -0.141413  -0.149706   0.000000   0.033323
  155  H  11  Z   0.373200   0.000000   0.000000   0.520268   0.000000
  156  H  12  S   0.000000   0.545955  -0.244945   0.000000  -0.494415
  157  H  12  S   0.000000  -0.127005  -0.993390   0.000000  -0.918668
  158  H  12  X   0.000000  -0.130322   0.048796   0.000000   0.252716
  159  H  12  Y   0.000000   0.141413  -0.149706   0.000000   0.033323
  160  H  12  Z  -0.373200   0.000000   0.000000   0.520268   0.000000

                    111        112        113        114        115
                    2.0037     2.0104     2.0204     2.0289     2.0534
                     A          A          A          A          A   
    1  C   1  S   0.000000  -0.213588  -0.567404   0.000000   0.000000
    2  C   1  S   0.000000  -0.387472  -1.050908   0.000000   0.000000
    3  C   1  S   0.000000  -6.031948  -1.386095   0.000000   0.000000
    4  C   1  X   0.000000   0.000000   0.000000  -0.551460   0.000000
    5  C   1  Y   0.000000  -0.077910  -0.702444   0.000000   0.000000
    6  C   1  Z   0.157357   0.000000   0.000000   0.000000   0.000000
    7  C   1  X   0.000000   0.000000   0.000000  -1.037165   0.000000
    8  C   1  Y   0.000000   4.784609   3.613172   0.000000   0.000000
    9  C   1  Z   0.009303   0.000000   0.000000   0.000000   0.000000
   10  C   1 XX   0.000000   0.094189   0.094267   0.000000   0.000000
   11  C   1 YY   0.000000   0.323805  -0.003227   0.000000   0.000000
   12  C   1 ZZ   0.000000  -0.417993  -0.091039   0.000000   0.000000
   13  C   1 XY   0.000000   0.000000   0.000000  -0.101345   0.000000
   14  C   1 XZ   0.000000   0.000000   0.000000   0.000000  -0.832512
   15  C   1 YZ  -0.142591   0.000000   0.000000   0.000000   0.000000
   16  C   2  S   0.000000  -0.478857  -0.117623  -0.231123   0.000000
   17  C   2  S   0.000000  -0.901381  -0.234230  -0.436785   0.000000
   18  C   2  S   0.000000   8.273070   1.021036   1.084975   0.000000
   19  C   2  X   0.000000   0.056832   0.018509   0.009322   0.000000
   20  C   2  Y   0.000000  -0.194490   0.101125   0.206301   0.000000
   21  C   2  Z   0.121530   0.000000   0.000000   0.000000   0.242511
   22  C   2  X   0.000000  -3.835729  -1.338083  -0.790013   0.000000
   23  C   2  Y   0.000000  -2.849457  -0.837308  -0.197399   0.000000
   24  C   2  Z   0.168004   0.000000   0.000000   0.000000   0.120246
   25  C   2 XX   0.000000   0.073180   0.094599   0.305120   0.000000
   26  C   2 YY   0.000000   0.248514  -0.037955   0.051280   0.000000
   27  C   2 ZZ   0.000000  -0.321695  -0.056643  -0.356400   0.000000
   28  C   2 XY   0.000000   0.199008   0.073457  -0.322586   0.000000
   29  C   2 XZ   0.222725   0.000000   0.000000   0.000000  -0.195919
   30  C   2 YZ  -0.704816   0.000000   0.000000   0.000000   0.328754
   31  C   3  S   0.000000   0.478857  -0.117623  -0.231123   0.000000
   32  C   3  S   0.000000   0.901381  -0.234230  -0.436785   0.000000
   33  C   3  S   0.000000  -8.273070   1.021036   1.084975   0.000000
   34  C   3  X   0.000000  -0.056832   0.018509   0.009322   0.000000
   35  C   3  Y   0.000000  -0.194490  -0.101125  -0.206301   0.000000
   36  C   3  Z  -0.121530   0.000000   0.000000   0.000000   0.242511
   37  C   3  X   0.000000   3.835729  -1.338083  -0.790013   0.000000
   38  C   3  Y   0.000000  -2.849457   0.837308   0.197399   0.000000
   39  C   3  Z  -0.168004   0.000000   0.000000   0.000000   0.120246
   40  C   3 XX   0.000000  -0.073180   0.094599   0.305120   0.000000
   41  C   3 YY   0.000000  -0.248514  -0.037955   0.051280   0.000000
   42  C   3 ZZ   0.000000   0.321695  -0.056643  -0.356400   0.000000
   43  C   3 XY   0.000000   0.199008  -0.073457   0.322586   0.000000
   44  C   3 XZ  -0.222725   0.000000   0.000000   0.000000  -0.195919
   45  C   3 YZ  -0.704816   0.000000   0.000000   0.000000  -0.328754
   46  C   4  S   0.000000   0.213588  -0.567404   0.000000   0.000000
   47  C   4  S   0.000000   0.387472  -1.050908   0.000000   0.000000
   48  C   4  S   0.000000   6.031948  -1.386095   0.000000   0.000000
   49  C   4  X   0.000000   0.000000   0.000000  -0.551460   0.000000
   50  C   4  Y   0.000000  -0.077910   0.702444   0.000000   0.000000
   51  C   4  Z  -0.157357   0.000000   0.000000   0.000000   0.000000
   52  C   4  X   0.000000   0.000000   0.000000  -1.037165   0.000000
   53  C   4  Y   0.000000   4.784609  -3.613172   0.000000   0.000000
   54  C   4  Z  -0.009303   0.000000   0.000000   0.000000   0.000000
   55  C   4 XX   0.000000  -0.094189   0.094267   0.000000   0.000000
   56  C   4 YY   0.000000  -0.323805  -0.003227   0.000000   0.000000
   57  C   4 ZZ   0.000000   0.417993  -0.091039   0.000000   0.000000
   58  C   4 XY   0.000000   0.000000   0.000000   0.101345   0.000000
   59  C   4 XZ   0.000000   0.000000   0.000000   0.000000  -0.832512
   60  C   4 YZ  -0.142591   0.000000   0.000000   0.000000   0.000000
   61  C   5  S   0.000000   0.478857  -0.117623   0.231123   0.000000
   62  C   5  S   0.000000   0.901381  -0.234230   0.436785   0.000000
   63  C   5  S   0.000000  -8.273070   1.021036  -1.084975   0.000000
   64  C   5  X   0.000000   0.056832  -0.018509   0.009322   0.000000
   65  C   5  Y   0.000000  -0.194490  -0.101125   0.206301   0.000000
   66  C   5  Z  -0.121530   0.000000   0.000000   0.000000  -0.242511
   67  C   5  X   0.000000  -3.835729   1.338083  -0.790013   0.000000
   68  C   5  Y   0.000000  -2.849457   0.837308  -0.197399   0.000000
   69  C   5  Z  -0.168004   0.000000   0.000000   0.000000  -0.120246
   70  C   5 XX   0.000000  -0.073180   0.094599  -0.305120   0.000000
   71  C   5 YY   0.000000  -0.248514  -0.037955  -0.051280   0.000000
   72  C   5 ZZ   0.000000   0.321695  -0.056643   0.356400   0.000000
   73  C   5 XY   0.000000  -0.199008   0.073457   0.322586   0.000000
   74  C   5 XZ   0.222725   0.000000   0.000000   0.000000  -0.195919
   75  C   5 YZ  -0.704816   0.000000   0.000000   0.000000   0.328754
   76  C   6  S   0.000000  -0.478857  -0.117623   0.231123   0.000000
   77  C   6  S   0.000000  -0.901381  -0.234230   0.436785   0.000000
   78  C   6  S   0.000000   8.273070   1.021036  -1.084975   0.000000
   79  C   6  X   0.000000  -0.056832  -0.018509   0.009322   0.000000
   80  C   6  Y   0.000000  -0.194490   0.101125  -0.206301   0.000000
   81  C   6  Z   0.121530   0.000000   0.000000   0.000000  -0.242511
   82  C   6  X   0.000000   3.835729   1.338083  -0.790013   0.000000
   83  C   6  Y   0.000000  -2.849457  -0.837308   0.197399   0.000000
   84  C   6  Z   0.168004   0.000000   0.000000   0.000000  -0.120246
   85  C   6 XX   0.000000   0.073180   0.094599  -0.305120   0.000000
   86  C   6 YY   0.000000   0.248514  -0.037955  -0.051280   0.000000
   87  C   6 ZZ   0.000000  -0.321695  -0.056643   0.356400   0.000000
   88  C   6 XY   0.000000  -0.199008  -0.073457  -0.322586   0.000000
   89  C   6 XZ  -0.222725   0.000000   0.000000   0.000000  -0.195919
   90  C   6 YZ  -0.704816   0.000000   0.000000   0.000000  -0.328754
   91  O   7  S   0.000000   0.063414   0.190990   0.000000   0.000000
   92  O   7  S   0.000000   0.127719   0.454377   0.000000   0.000000
   93  O   7  S   0.000000  -1.248126  -1.566298   0.000000   0.000000
   94  O   7  S   0.000000  -0.708234  -0.331969   0.000000   0.000000
   95  O   7  X   0.000000   0.000000   0.000000  -0.098639   0.000000
   96  O   7  Y   0.000000   0.341066   0.185849   0.000000   0.000000
   97  O   7  Z  -0.060413   0.000000   0.000000   0.000000   0.000000
   98  O   7  X   0.000000   0.000000   0.000000   0.487171   0.000000
   99  O   7  Y   0.000000  -0.478482  -0.796774   0.000000   0.000000
  100  O   7  Z   0.120073   0.000000   0.000000   0.000000   0.000000
  101  O   7  X   0.000000   0.000000   0.000000  -0.026640   0.000000
  102  O   7  Y   0.000000   0.302960   0.119371   0.000000   0.000000
  103  O   7  Z  -0.047808   0.000000   0.000000   0.000000   0.000000
  104  O   7 XX   0.000000   0.027888   0.058463   0.000000   0.000000
  105  O   7 YY   0.000000  -0.019167  -0.072366   0.000000   0.000000
  106  O   7 ZZ   0.000000  -0.008720   0.013902   0.000000   0.000000
  107  O   7 XY   0.000000   0.000000   0.000000   0.037385   0.000000
  108  O   7 XZ   0.000000   0.000000   0.000000   0.000000  -0.035872
  109  O   7 YZ  -0.031473   0.000000   0.000000   0.000000   0.000000
  110  O   7 XX   0.000000  -0.318808  -0.472501   0.000000   0.000000
  111  O   7 YY   0.000000   0.489469   1.076430   0.000000   0.000000
  112  O   7 ZZ   0.000000  -0.170661  -0.603929   0.000000   0.000000
  113  O   7 XY   0.000000   0.000000   0.000000  -0.301893   0.000000
  114  O   7 XZ   0.000000   0.000000   0.000000   0.000000   0.194300
  115  O   7 YZ  -0.078880   0.000000   0.000000   0.000000   0.000000
  116  O   8  S   0.000000  -0.063414   0.190990   0.000000   0.000000
  117  O   8  S   0.000000  -0.127719   0.454377   0.000000   0.000000
  118  O   8  S   0.000000   1.248126  -1.566298   0.000000   0.000000
  119  O   8  S   0.000000   0.708234  -0.331969   0.000000   0.000000
  120  O   8  X   0.000000   0.000000   0.000000  -0.098639   0.000000
  121  O   8  Y   0.000000   0.341066  -0.185849   0.000000   0.000000
  122  O   8  Z   0.060413   0.000000   0.000000   0.000000   0.000000
  123  O   8  X   0.000000   0.000000   0.000000   0.487171   0.000000
  124  O   8  Y   0.000000  -0.478482   0.796774   0.000000   0.000000
  125  O   8  Z  -0.120073   0.000000   0.000000   0.000000   0.000000
  126  O   8  X   0.000000   0.000000   0.000000  -0.026640   0.000000
  127  O   8  Y   0.000000   0.302960  -0.119371   0.000000   0.000000
  128  O   8  Z   0.047808   0.000000   0.000000   0.000000   0.000000
  129  O   8 XX   0.000000  -0.027888   0.058463   0.000000   0.000000
  130  O   8 YY   0.000000   0.019167  -0.072366   0.000000   0.000000
  131  O   8 ZZ   0.000000   0.008720   0.013902   0.000000   0.000000
  132  O   8 XY   0.000000   0.000000   0.000000  -0.037385   0.000000
  133  O   8 XZ   0.000000   0.000000   0.000000   0.000000  -0.035872
  134  O   8 YZ  -0.031473   0.000000   0.000000   0.000000   0.000000
  135  O   8 XX   0.000000   0.318808  -0.472501   0.000000   0.000000
  136  O   8 YY   0.000000  -0.489469   1.076430   0.000000   0.000000
  137  O   8 ZZ   0.000000   0.170661  -0.603929   0.000000   0.000000
  138  O   8 XY   0.000000   0.000000   0.000000   0.301893   0.000000
  139  O   8 XZ   0.000000   0.000000   0.000000   0.000000   0.194300
  140  O   8 YZ  -0.078880   0.000000   0.000000   0.000000   0.000000
  141  H   9  S   0.000000   0.074299   0.175453   0.092304   0.000000
  142  H   9  S   0.000000   1.236729   0.562111   0.260203   0.000000
  143  H   9  X   0.000000   0.062639   0.104467  -0.110417   0.000000
  144  H   9  Y   0.000000  -0.121991  -0.131465   0.303863   0.000000
  145  H   9  Z   0.005967   0.000000   0.000000   0.000000  -0.197677
  146  H  10  S   0.000000  -0.074299   0.175453   0.092304   0.000000
  147  H  10  S   0.000000  -1.236729   0.562111   0.260203   0.000000
  148  H  10  X   0.000000  -0.062639   0.104467  -0.110417   0.000000
  149  H  10  Y   0.000000  -0.121991   0.131465  -0.303863   0.000000
  150  H  10  Z  -0.005967   0.000000   0.000000   0.000000  -0.197677
  151  H  11  S   0.000000  -0.074299   0.175453  -0.092304   0.000000
  152  H  11  S   0.000000  -1.236729   0.562111  -0.260203   0.000000
  153  H  11  X   0.000000   0.062639  -0.104467  -0.110417   0.000000
  154  H  11  Y   0.000000  -0.121991   0.131465   0.303863   0.000000
  155  H  11  Z  -0.005967   0.000000   0.000000   0.000000   0.197677
  156  H  12  S   0.000000   0.074299   0.175453  -0.092304   0.000000
  157  H  12  S   0.000000   1.236729   0.562111  -0.260203   0.000000
  158  H  12  X   0.000000  -0.062639  -0.104467  -0.110417   0.000000
  159  H  12  Y   0.000000  -0.121991  -0.131465  -0.303863   0.000000
  160  H  12  Z   0.005967   0.000000   0.000000   0.000000   0.197677

                    116        117        118        119        120
                    2.0539     2.0898     2.1131     2.1330     2.1497
                     A          A          A          A          A   
    1  C   1  S  -0.118343   0.000000   0.196965   0.079647   0.000000
    2  C   1  S  -0.128130   0.000000   0.508776   0.135178   0.000000
    3  C   1  S   3.440034   0.000000   1.774086  -5.211604   0.000000
    4  C   1  X   0.000000  -0.279523   0.000000   0.000000   0.000000
    5  C   1  Y  -0.465365   0.000000  -0.260930  -0.304989   0.000000
    6  C   1  Z   0.000000   0.000000   0.000000   0.000000   0.089655
    7  C   1  X   0.000000  -8.398774   0.000000   0.000000   0.000000
    8  C   1  Y   1.022072   0.000000  -2.077564   4.994917   0.000000
    9  C   1  Z   0.000000   0.000000   0.000000   0.000000   0.306218
   10  C   1 XX   0.147779   0.000000   0.546554  -0.585899   0.000000
   11  C   1 YY  -0.023356   0.000000   0.017389   0.037753   0.000000
   12  C   1 ZZ  -0.124423   0.000000  -0.563943   0.548147   0.000000
   13  C   1 XY   0.000000  -0.042856   0.000000   0.000000   0.000000
   14  C   1 XZ   0.000000   0.000000   0.000000   0.000000   0.000000
   15  C   1 YZ   0.000000   0.000000   0.000000   0.000000   0.864946
   16  C   2  S   0.032024  -0.170471  -0.028023  -0.113252   0.000000
   17  C   2  S   0.111771  -0.367952  -0.118189  -0.203435   0.000000
   18  C   2  S   2.835210   2.203099  -0.984382   5.859327   0.000000
   19  C   2  X   0.074881   0.005243   0.367407  -0.432998   0.000000
   20  C   2  Y  -0.322823   0.346063  -0.265826   0.319634   0.000000
   21  C   2  Z   0.000000   0.000000   0.000000   0.000000   0.009574
   22  C   2  X   1.345943  -4.241997   0.858802  -2.288987   0.000000
   23  C   2  Y  -3.626434   5.290242   0.469460  -2.316865   0.000000
   24  C   2  Z   0.000000   0.000000   0.000000   0.000000  -0.064472
   25  C   2 XX  -0.306775   0.165788  -0.392583   0.180455   0.000000
   26  C   2 YY   0.334391  -0.298863   0.123828  -0.242907   0.000000
   27  C   2 ZZ  -0.027616   0.133075   0.268755   0.062451   0.000000
   28  C   2 XY   0.190683  -0.192379   0.319846   0.087099   0.000000
   29  C   2 XZ   0.000000   0.000000   0.000000   0.000000  -0.390062
   30  C   2 YZ   0.000000   0.000000   0.000000   0.000000  -0.078211
   31  C   3  S  -0.032024   0.170471  -0.028023   0.113252   0.000000
   32  C   3  S  -0.111771   0.367952  -0.118189   0.203435   0.000000
   33  C   3  S  -2.835210  -2.203099  -0.984382  -5.859327   0.000000
   34  C   3  X  -0.074881  -0.005243   0.367407   0.432998   0.000000
   35  C   3  Y  -0.322823   0.346063   0.265826   0.319634   0.000000
   36  C   3  Z   0.000000   0.000000   0.000000   0.000000   0.009574
   37  C   3  X  -1.345943   4.241997   0.858802   2.288987   0.000000
   38  C   3  Y  -3.626434   5.290242  -0.469460  -2.316865   0.000000
   39  C   3  Z   0.000000   0.000000   0.000000   0.000000  -0.064472
   40  C   3 XX   0.306775  -0.165788  -0.392583  -0.180455   0.000000
   41  C   3 YY  -0.334391   0.298863   0.123828   0.242907   0.000000
   42  C   3 ZZ   0.027616  -0.133075   0.268755  -0.062451   0.000000
   43  C   3 XY   0.190683  -0.192379  -0.319846   0.087099   0.000000
   44  C   3 XZ   0.000000   0.000000   0.000000   0.000000  -0.390062
   45  C   3 YZ   0.000000   0.000000   0.000000   0.000000   0.078211
   46  C   4  S   0.118343   0.000000   0.196965  -0.079647   0.000000
   47  C   4  S   0.128130   0.000000   0.508776  -0.135178   0.000000
   48  C   4  S  -3.440034   0.000000   1.774086   5.211604   0.000000
   49  C   4  X   0.000000   0.279523   0.000000   0.000000   0.000000
   50  C   4  Y  -0.465365   0.000000   0.260930  -0.304989   0.000000
   51  C   4  Z   0.000000   0.000000   0.000000   0.000000   0.089655
   52  C   4  X   0.000000   8.398774   0.000000   0.000000   0.000000
   53  C   4  Y   1.022072   0.000000   2.077564   4.994917   0.000000
   54  C   4  Z   0.000000   0.000000   0.000000   0.000000   0.306218
   55  C   4 XX  -0.147779   0.000000   0.546554   0.585899   0.000000
   56  C   4 YY   0.023356   0.000000   0.017389  -0.037753   0.000000
   57  C   4 ZZ   0.124423   0.000000  -0.563943  -0.548147   0.000000
   58  C   4 XY   0.000000  -0.042856   0.000000   0.000000   0.000000
   59  C   4 XZ   0.000000   0.000000   0.000000   0.000000   0.000000
   60  C   4 YZ   0.000000   0.000000   0.000000   0.000000  -0.864946
   61  C   5  S  -0.032024  -0.170471  -0.028023   0.113252   0.000000
   62  C   5  S  -0.111771  -0.367952  -0.118189   0.203435   0.000000
   63  C   5  S  -2.835210   2.203099  -0.984382  -5.859327   0.000000
   64  C   5  X   0.074881  -0.005243  -0.367407  -0.432998   0.000000
   65  C   5  Y  -0.322823  -0.346063   0.265826   0.319634   0.000000
   66  C   5  Z   0.000000   0.000000   0.000000   0.000000   0.009574
   67  C   5  X   1.345943   4.241997  -0.858802  -2.288987   0.000000
   68  C   5  Y  -3.626434  -5.290242  -0.469460  -2.316865   0.000000
   69  C   5  Z   0.000000   0.000000   0.000000   0.000000  -0.064472
   70  C   5 XX   0.306775   0.165788  -0.392583  -0.180455   0.000000
   71  C   5 YY  -0.334391  -0.298863   0.123828   0.242907   0.000000
   72  C   5 ZZ   0.027616   0.133075   0.268755  -0.062451   0.000000
   73  C   5 XY  -0.190683  -0.192379   0.319846  -0.087099   0.000000
   74  C   5 XZ   0.000000   0.000000   0.000000   0.000000   0.390062
   75  C   5 YZ   0.000000   0.000000   0.000000   0.000000   0.078211
   76  C   6  S   0.032024   0.170471  -0.028023  -0.113252   0.000000
   77  C   6  S   0.111771   0.367952  -0.118189  -0.203435   0.000000
   78  C   6  S   2.835210  -2.203099  -0.984382   5.859327   0.000000
   79  C   6  X  -0.074881   0.005243  -0.367407   0.432998   0.000000
   80  C   6  Y  -0.322823  -0.346063  -0.265826   0.319634   0.000000
   81  C   6  Z   0.000000   0.000000   0.000000   0.000000   0.009574
   82  C   6  X  -1.345943  -4.241997  -0.858802   2.288987   0.000000
   83  C   6  Y  -3.626434  -5.290242   0.469460  -2.316865   0.000000
   84  C   6  Z   0.000000   0.000000   0.000000   0.000000  -0.064472
   85  C   6 XX  -0.306775  -0.165788  -0.392583   0.180455   0.000000
   86  C   6 YY   0.334391   0.298863   0.123828  -0.242907   0.000000
   87  C   6 ZZ  -0.027616  -0.133075   0.268755   0.062451   0.000000
   88  C   6 XY  -0.190683  -0.192379  -0.319846  -0.087099   0.000000
   89  C   6 XZ   0.000000   0.000000   0.000000   0.000000   0.390062
   90  C   6 YZ   0.000000   0.000000   0.000000   0.000000  -0.078211
   91  O   7  S   0.075348   0.000000  -0.113786   0.154160   0.000000
   92  O   7  S   0.168894   0.000000  -0.250903   0.331633   0.000000
   93  O   7  S  -0.919284   0.000000   0.839183  -1.547471   0.000000
   94  O   7  S   0.546893   0.000000   0.274274  -0.256821   0.000000
   95  O   7  X   0.000000  -0.273528   0.000000   0.000000   0.000000
   96  O   7  Y   0.103229   0.000000  -0.051695   0.237347   0.000000
   97  O   7  Z   0.000000   0.000000   0.000000   0.000000  -0.051381
   98  O   7  X   0.000000   1.322163   0.000000   0.000000   0.000000
   99  O   7  Y  -0.323795   0.000000   0.103996  -0.601591   0.000000
  100  O   7  Z   0.000000   0.000000   0.000000   0.000000  -0.470496
  101  O   7  X   0.000000  -0.037186   0.000000   0.000000   0.000000
  102  O   7  Y  -0.224464   0.000000  -0.070150   0.014116   0.000000
  103  O   7  Z   0.000000   0.000000   0.000000   0.000000  -0.032785
  104  O   7 XX   0.036478   0.000000   0.025800   0.004173   0.000000
  105  O   7 YY  -0.039707   0.000000  -0.006973  -0.017105   0.000000
  106  O   7 ZZ   0.003229   0.000000  -0.018828   0.012932   0.000000
  107  O   7 XY   0.000000   0.005995   0.000000   0.000000   0.000000
  108  O   7 XZ   0.000000   0.000000   0.000000   0.000000   0.000000
  109  O   7 YZ   0.000000   0.000000   0.000000   0.000000  -0.072701
  110  O   7 XX   0.104258   0.000000  -0.043582  -0.059959   0.000000
  111  O   7 YY   0.260954   0.000000  -0.207389   0.590496   0.000000
  112  O   7 ZZ  -0.365211   0.000000   0.250971  -0.530537   0.000000
  113  O   7 XY   0.000000  -0.449868   0.000000   0.000000   0.000000
  114  O   7 XZ   0.000000   0.000000   0.000000   0.000000   0.000000
  115  O   7 YZ   0.000000   0.000000   0.000000   0.000000   0.547213
  116  O   8  S  -0.075348   0.000000  -0.113786  -0.154160   0.000000
  117  O   8  S  -0.168894   0.000000  -0.250903  -0.331633   0.000000
  118  O   8  S   0.919284   0.000000   0.839183   1.547471   0.000000
  119  O   8  S  -0.546893   0.000000   0.274274   0.256821   0.000000
  120  O   8  X   0.000000   0.273528   0.000000   0.000000   0.000000
  121  O   8  Y   0.103229   0.000000   0.051695   0.237347   0.000000
  122  O   8  Z   0.000000   0.000000   0.000000   0.000000  -0.051381
  123  O   8  X   0.000000  -1.322163   0.000000   0.000000   0.000000
  124  O   8  Y  -0.323795   0.000000  -0.103996  -0.601591   0.000000
  125  O   8  Z   0.000000   0.000000   0.000000   0.000000  -0.470496
  126  O   8  X   0.000000   0.037186   0.000000   0.000000   0.000000
  127  O   8  Y  -0.224464   0.000000   0.070150   0.014116   0.000000
  128  O   8  Z   0.000000   0.000000   0.000000   0.000000  -0.032785
  129  O   8 XX  -0.036478   0.000000   0.025800  -0.004173   0.000000
  130  O   8 YY   0.039707   0.000000  -0.006973   0.017105   0.000000
  131  O   8 ZZ  -0.003229   0.000000  -0.018828  -0.012932   0.000000
  132  O   8 XY   0.000000   0.005995   0.000000   0.000000   0.000000
  133  O   8 XZ   0.000000   0.000000   0.000000   0.000000   0.000000
  134  O   8 YZ   0.000000   0.000000   0.000000   0.000000   0.072701
  135  O   8 XX  -0.104258   0.000000  -0.043582   0.059959   0.000000
  136  O   8 YY  -0.260954   0.000000  -0.207389  -0.590496   0.000000
  137  O   8 ZZ   0.365211   0.000000   0.250971   0.530537   0.000000
  138  O   8 XY   0.000000  -0.449868   0.000000   0.000000   0.000000
  139  O   8 XZ   0.000000   0.000000   0.000000   0.000000   0.000000
  140  O   8 YZ   0.000000   0.000000   0.000000   0.000000  -0.547213
  141  H   9  S  -0.045069   0.132937  -0.107504   0.114403   0.000000
  142  H   9  S   0.053982   0.245009  -0.308313   0.747171   0.000000
  143  H   9  X  -0.164438   0.262279   0.144644  -0.115214   0.000000
  144  H   9  Y   0.433524  -0.398257  -0.269452  -0.018521   0.000000
  145  H   9  Z   0.000000   0.000000   0.000000   0.000000   0.345605
  146  H  10  S   0.045069  -0.132937  -0.107504  -0.114403   0.000000
  147  H  10  S  -0.053982  -0.245009  -0.308313  -0.747171   0.000000
  148  H  10  X   0.164438  -0.262279   0.144644   0.115214   0.000000
  149  H  10  Y   0.433524  -0.398257   0.269452  -0.018521   0.000000
  150  H  10  Z   0.000000   0.000000   0.000000   0.000000   0.345605
  151  H  11  S   0.045069   0.132937  -0.107504  -0.114403   0.000000
  152  H  11  S  -0.053982   0.245009  -0.308313  -0.747171   0.000000
  153  H  11  X  -0.164438  -0.262279  -0.144644  -0.115214   0.000000
  154  H  11  Y   0.433524   0.398257   0.269452  -0.018521   0.000000
  155  H  11  Z   0.000000   0.000000   0.000000   0.000000   0.345605
  156  H  12  S  -0.045069  -0.132937  -0.107504   0.114403   0.000000
  157  H  12  S   0.053982  -0.245009  -0.308313   0.747171   0.000000
  158  H  12  X   0.164438   0.262279  -0.144644   0.115214   0.000000
  159  H  12  Y   0.433524   0.398257  -0.269452  -0.018521   0.000000
  160  H  12  Z   0.000000   0.000000   0.000000   0.000000   0.345605

                    121        122        123        124        125
                    2.1926     2.2220     2.2523     2.3005     2.3461
                     A          A          A          A          A   
    1  C   1  S   0.000000   0.000000   0.000000   0.000000   0.117649
    2  C   1  S   0.000000   0.000000   0.000000   0.000000   0.149661
    3  C   1  S   0.000000   0.000000   0.000000   0.000000  -4.967601
    4  C   1  X   0.280631   0.000000   0.037244  -0.404423   0.000000
    5  C   1  Y   0.000000   0.000000   0.000000   0.000000  -0.408454
    6  C   1  Z   0.000000   0.000000   0.000000   0.000000   0.000000
    7  C   1  X   2.309749   0.000000  -2.309556  -4.101422   0.000000
    8  C   1  Y   0.000000   0.000000   0.000000   0.000000  -0.289872
    9  C   1  Z   0.000000   0.000000   0.000000   0.000000   0.000000
   10  C   1 XX   0.000000   0.000000   0.000000   0.000000   0.069808
   11  C   1 YY   0.000000   0.000000   0.000000   0.000000  -0.760625
   12  C   1 ZZ   0.000000   0.000000   0.000000   0.000000   0.690816
   13  C   1 XY  -0.742923   0.000000  -0.285455   0.680674   0.000000
   14  C   1 XZ   0.000000   0.066543   0.000000   0.000000   0.000000
   15  C   1 YZ   0.000000   0.000000   0.000000   0.000000   0.000000
   16  C   2  S   0.211605   0.000000  -0.422481  -0.144990  -0.190734
   17  C   2  S   0.354127   0.000000  -0.870446  -0.169749  -0.368704
   18  C   2  S  -2.738588   0.000000   3.742458   3.471858   1.533563
   19  C   2  X   0.186554   0.000000  -0.100322  -0.281342  -0.251594
   20  C   2  Y  -0.264948   0.000000  -0.047212  -0.332426   0.056945
   21  C   2  Z   0.000000  -0.021339   0.000000   0.000000   0.000000
   22  C   2  X   0.908284   0.000000  -1.357564  -2.833346  -0.655729
   23  C   2  Y  -0.997657   0.000000  -0.713436   1.877285   0.467618
   24  C   2  Z   0.000000   0.023124   0.000000   0.000000   0.000000
   25  C   2 XX  -0.159503   0.000000   0.183851   0.130183   0.084423
   26  C   2 YY  -0.264697   0.000000  -0.061824   0.469854   0.144337
   27  C   2 ZZ   0.424200   0.000000  -0.122027  -0.600037  -0.228760
   28  C   2 XY   0.095355   0.000000   0.266752  -0.152937   0.014319
   29  C   2 XZ   0.000000   0.470055   0.000000   0.000000   0.000000
   30  C   2 YZ   0.000000   0.428139   0.000000   0.000000   0.000000
   31  C   3  S   0.211605   0.000000   0.422481   0.144990  -0.190734
   32  C   3  S   0.354127   0.000000   0.870446   0.169749  -0.368704
   33  C   3  S  -2.738588   0.000000  -3.742458  -3.471858   1.533563
   34  C   3  X   0.186554   0.000000   0.100322   0.281342  -0.251594
   35  C   3  Y   0.264948   0.000000  -0.047212  -0.332426  -0.056945
   36  C   3  Z   0.000000   0.021339   0.000000   0.000000   0.000000
   37  C   3  X   0.908284   0.000000   1.357564   2.833346  -0.655729
   38  C   3  Y   0.997657   0.000000  -0.713436   1.877285  -0.467618
   39  C   3  Z   0.000000  -0.023124   0.000000   0.000000   0.000000
   40  C   3 XX  -0.159503   0.000000  -0.183851  -0.130183   0.084423
   41  C   3 YY  -0.264697   0.000000   0.061824  -0.469854   0.144337
   42  C   3 ZZ   0.424200   0.000000   0.122027   0.600037  -0.228760
   43  C   3 XY  -0.095355   0.000000   0.266752  -0.152937  -0.014319
   44  C   3 XZ   0.000000  -0.470055   0.000000   0.000000   0.000000
   45  C   3 YZ   0.000000   0.428139   0.000000   0.000000   0.000000
   46  C   4  S   0.000000   0.000000   0.000000   0.000000   0.117649
   47  C   4  S   0.000000   0.000000   0.000000   0.000000   0.149661
   48  C   4  S   0.000000   0.000000   0.000000   0.000000  -4.967601
   49  C   4  X   0.280631   0.000000  -0.037244   0.404423   0.000000
   50  C   4  Y   0.000000   0.000000   0.000000   0.000000   0.408454
   51  C   4  Z   0.000000   0.000000   0.000000   0.000000   0.000000
   52  C   4  X   2.309749   0.000000   2.309556   4.101422   0.000000
   53  C   4  Y   0.000000   0.000000   0.000000   0.000000   0.289872
   54  C   4  Z   0.000000   0.000000   0.000000   0.000000   0.000000
   55  C   4 XX   0.000000   0.000000   0.000000   0.000000   0.069808
   56  C   4 YY   0.000000   0.000000   0.000000   0.000000  -0.760625
   57  C   4 ZZ   0.000000   0.000000   0.000000   0.000000   0.690816
   58  C   4 XY   0.742923   0.000000  -0.285455   0.680674   0.000000
   59  C   4 XZ   0.000000  -0.066543   0.000000   0.000000   0.000000
   60  C   4 YZ   0.000000   0.000000   0.000000   0.000000   0.000000
   61  C   5  S  -0.211605   0.000000  -0.422481  -0.144990  -0.190734
   62  C   5  S  -0.354127   0.000000  -0.870446  -0.169749  -0.368704
   63  C   5  S   2.738588   0.000000   3.742458   3.471858   1.533563
   64  C   5  X   0.186554   0.000000   0.100322   0.281342   0.251594
   65  C   5  Y  -0.264948   0.000000   0.047212   0.332426  -0.056945
   66  C   5  Z   0.000000  -0.021339   0.000000   0.000000   0.000000
   67  C   5  X   0.908284   0.000000   1.357564   2.833346   0.655729
   68  C   5  Y  -0.997657   0.000000   0.713436  -1.877285  -0.467618
   69  C   5  Z   0.000000   0.023124   0.000000   0.000000   0.000000
   70  C   5 XX   0.159503   0.000000   0.183851   0.130183   0.084423
   71  C   5 YY   0.264697   0.000000  -0.061824   0.469854   0.144337
   72  C   5 ZZ  -0.424200   0.000000  -0.122027  -0.600037  -0.228760
   73  C   5 XY  -0.095355   0.000000   0.266752  -0.152937   0.014319
   74  C   5 XZ   0.000000  -0.470055   0.000000   0.000000   0.000000
   75  C   5 YZ   0.000000  -0.428139   0.000000   0.000000   0.000000
   76  C   6  S  -0.211605   0.000000   0.422481   0.144990  -0.190734
   77  C   6  S  -0.354127   0.000000   0.870446   0.169749  -0.368704
   78  C   6  S   2.738588   0.000000  -3.742458  -3.471858   1.533563
   79  C   6  X   0.186554   0.000000  -0.100322  -0.281342   0.251594
   80  C   6  Y   0.264948   0.000000   0.047212   0.332426   0.056945
   81  C   6  Z   0.000000   0.021339   0.000000   0.000000   0.000000
   82  C   6  X   0.908284   0.000000  -1.357564  -2.833346   0.655729
   83  C   6  Y   0.997657   0.000000   0.713436  -1.877285   0.467618
   84  C   6  Z   0.000000  -0.023124   0.000000   0.000000   0.000000
   85  C   6 XX   0.159503   0.000000  -0.183851  -0.130183   0.084423
   86  C   6 YY   0.264697   0.000000   0.061824  -0.469854   0.144337
   87  C   6 ZZ  -0.424200   0.000000   0.122027   0.600037  -0.228760
   88  C   6 XY   0.095355   0.000000   0.266752  -0.152937  -0.014319
   89  C   6 XZ   0.000000   0.470055   0.000000   0.000000   0.000000
   90  C   6 YZ   0.000000  -0.428139   0.000000   0.000000   0.000000
   91  O   7  S   0.000000   0.000000   0.000000   0.000000  -0.257040
   92  O   7  S   0.000000   0.000000   0.000000   0.000000  -0.491012
   93  O   7  S   0.000000   0.000000   0.000000   0.000000   2.374743
   94  O   7  S   0.000000   0.000000   0.000000   0.000000   0.371403
   95  O   7  X  -0.002872   0.000000  -0.208721   0.008719   0.000000
   96  O   7  Y   0.000000   0.000000   0.000000   0.000000  -0.329326
   97  O   7  Z   0.000000   0.000000   0.000000   0.000000   0.000000
   98  O   7  X   0.162218   0.000000   0.890142   0.016122   0.000000
   99  O   7  Y   0.000000   0.000000   0.000000   0.000000  -0.943796
  100  O   7  Z   0.000000   0.000000   0.000000   0.000000   0.000000
  101  O   7  X   0.029411   0.000000   0.006596  -0.037551   0.000000
  102  O   7  Y   0.000000   0.000000   0.000000   0.000000  -0.148955
  103  O   7  Z   0.000000   0.000000   0.000000   0.000000   0.000000
  104  O   7 XX   0.000000   0.000000   0.000000   0.000000  -0.015667
  105  O   7 YY   0.000000   0.000000   0.000000   0.000000  -0.058996
  106  O   7 ZZ   0.000000   0.000000   0.000000   0.000000   0.074663
  107  O   7 XY   0.009916   0.000000  -0.003977   0.011370   0.000000
  108  O   7 XZ   0.000000  -0.015266   0.000000   0.000000   0.000000
  109  O   7 YZ   0.000000   0.000000   0.000000   0.000000   0.000000
  110  O   7 XX   0.000000   0.000000   0.000000   0.000000  -0.207749
  111  O   7 YY   0.000000   0.000000   0.000000   0.000000   0.300227
  112  O   7 ZZ   0.000000   0.000000   0.000000   0.000000  -0.092478
  113  O   7 XY  -0.450378   0.000000  -0.418713   0.409200   0.000000
  114  O   7 XZ   0.000000  -0.061700   0.000000   0.000000   0.000000
  115  O   7 YZ   0.000000   0.000000   0.000000   0.000000   0.000000
  116  O   8  S   0.000000   0.000000   0.000000   0.000000  -0.257040
  117  O   8  S   0.000000   0.000000   0.000000   0.000000  -0.491012
  118  O   8  S   0.000000   0.000000   0.000000   0.000000   2.374743
  119  O   8  S   0.000000   0.000000   0.000000   0.000000   0.371403
  120  O   8  X  -0.002872   0.000000   0.208721  -0.008719   0.000000
  121  O   8  Y   0.000000   0.000000   0.000000   0.000000   0.329326
  122  O   8  Z   0.000000   0.000000   0.000000   0.000000   0.000000
  123  O   8  X   0.162218   0.000000  -0.890142  -0.016122   0.000000
  124  O   8  Y   0.000000   0.000000   0.000000   0.000000   0.943796
  125  O   8  Z   0.000000   0.000000   0.000000   0.000000   0.000000
  126  O   8  X   0.029411   0.000000  -0.006596   0.037551   0.000000
  127  O   8  Y   0.000000   0.000000   0.000000   0.000000   0.148955
  128  O   8  Z   0.000000   0.000000   0.000000   0.000000   0.000000
  129  O   8 XX   0.000000   0.000000   0.000000   0.000000  -0.015667
  130  O   8 YY   0.000000   0.000000   0.000000   0.000000  -0.058996
  131  O   8 ZZ   0.000000   0.000000   0.000000   0.000000   0.074663
  132  O   8 XY  -0.009916   0.000000  -0.003977   0.011370   0.000000
  133  O   8 XZ   0.000000   0.015266   0.000000   0.000000   0.000000
  134  O   8 YZ   0.000000   0.000000   0.000000   0.000000   0.000000
  135  O   8 XX   0.000000   0.000000   0.000000   0.000000  -0.207749
  136  O   8 YY   0.000000   0.000000   0.000000   0.000000   0.300227
  137  O   8 ZZ   0.000000   0.000000   0.000000   0.000000  -0.092478
  138  O   8 XY   0.450378   0.000000  -0.418713   0.409200   0.000000
  139  O   8 XZ   0.000000   0.061700   0.000000   0.000000   0.000000
  140  O   8 YZ   0.000000   0.000000   0.000000   0.000000   0.000000
  141  H   9  S   0.275432   0.000000  -0.065391  -0.041231  -0.039672
  142  H   9  S  -0.063562   0.000000   0.567498   0.407975   0.112255
  143  H   9  X  -0.236397   0.000000  -0.397611   0.038910  -0.126615
  144  H   9  Y   0.280294   0.000000  -0.071709  -0.305480  -0.287161
  145  H   9  Z   0.000000  -0.493107   0.000000   0.000000   0.000000
  146  H  10  S   0.275432   0.000000   0.065391   0.041231  -0.039672
  147  H  10  S  -0.063562   0.000000  -0.567498  -0.407975   0.112255
  148  H  10  X  -0.236397   0.000000   0.397611  -0.038910  -0.126615
  149  H  10  Y  -0.280294   0.000000  -0.071709  -0.305480   0.287161
  150  H  10  Z   0.000000   0.493107   0.000000   0.000000   0.000000
  151  H  11  S  -0.275432   0.000000  -0.065391  -0.041231  -0.039672
  152  H  11  S   0.063562   0.000000   0.567498   0.407975   0.112255
  153  H  11  X  -0.236397   0.000000   0.397611  -0.038910   0.126615
  154  H  11  Y   0.280294   0.000000   0.071709   0.305480   0.287161
  155  H  11  Z   0.000000  -0.493107   0.000000   0.000000   0.000000
  156  H  12  S  -0.275432   0.000000   0.065391   0.041231  -0.039672
  157  H  12  S   0.063562   0.000000  -0.567498  -0.407975   0.112255
  158  H  12  X  -0.236397   0.000000  -0.397611   0.038910   0.126615
  159  H  12  Y  -0.280294   0.000000   0.071709   0.305480  -0.287161
  160  H  12  Z   0.000000   0.493107   0.000000   0.000000   0.000000

                    126        127        128        129        130
                    2.3949     2.4512     2.4799     2.6741     2.6940
                     A          A          A          A          A   
    1  C   1  S  -0.089214   0.000000   0.000000  -0.196384   0.000000
    2  C   1  S  -0.071239   0.000000   0.000000  -0.348743   0.000000
    3  C   1  S   6.560196   0.000000   0.000000   2.391654   0.000000
    4  C   1  X   0.000000   0.000000   0.000000   0.000000   0.401438
    5  C   1  Y   0.126015   0.000000   0.000000   0.116436   0.000000
    6  C   1  Z   0.000000   0.000000  -0.042789   0.000000   0.000000
    7  C   1  X   0.000000   0.000000   0.000000   0.000000   3.635774
    8  C   1  Y  -0.701878   0.000000   0.000000  -0.294132   0.000000
    9  C   1  Z   0.000000   0.000000   0.313879   0.000000   0.000000
   10  C   1 XX  -0.037902   0.000000   0.000000   0.505127   0.000000
   11  C   1 YY   0.604787   0.000000   0.000000  -0.116508   0.000000
   12  C   1 ZZ  -0.566885   0.000000   0.000000  -0.388619   0.000000
   13  C   1 XY   0.000000   0.000000   0.000000   0.000000   0.746743
   14  C   1 XZ   0.000000   0.813082   0.000000   0.000000   0.000000
   15  C   1 YZ   0.000000   0.000000   0.725526   0.000000   0.000000
   16  C   2  S   0.283358   0.000000   0.000000  -0.094904   0.336232
   17  C   2  S   0.489161   0.000000   0.000000  -0.272571   0.566213
   18  C   2  S  -4.836480   0.000000   0.000000  -1.257112  -5.988017
   19  C   2  X   0.354570   0.000000   0.000000  -0.255079  -0.462987
   20  C   2  Y   0.375158   0.000000   0.000000  -0.496394   0.201756
   21  C   2  Z   0.000000  -0.021844   0.071631   0.000000   0.000000
   22  C   2  X   2.121562   0.000000   0.000000   0.117793   1.848534
   23  C   2  Y   1.127637   0.000000   0.000000  -0.250698   0.732366
   24  C   2  Z   0.000000   0.052719  -0.091125   0.000000   0.000000
   25  C   2 XX  -0.055545   0.000000   0.000000  -0.050746  -0.014467
   26  C   2 YY  -0.365132   0.000000   0.000000  -0.235222  -0.460206
   27  C   2 ZZ   0.420677   0.000000   0.000000   0.285968   0.474673
   28  C   2 XY   0.109444   0.000000   0.000000  -0.231054   0.226747
   29  C   2 XZ   0.000000   0.432054  -0.570412   0.000000   0.000000
   30  C   2 YZ   0.000000  -0.623830  -0.247233   0.000000   0.000000
   31  C   3  S  -0.283358   0.000000   0.000000  -0.094904  -0.336232
   32  C   3  S  -0.489161   0.000000   0.000000  -0.272571  -0.566213
   33  C   3  S   4.836480   0.000000   0.000000  -1.257112   5.988017
   34  C   3  X  -0.354570   0.000000   0.000000  -0.255079   0.462987
   35  C   3  Y   0.375158   0.000000   0.000000   0.496394   0.201756
   36  C   3  Z   0.000000   0.021844  -0.071631   0.000000   0.000000
   37  C   3  X  -2.121562   0.000000   0.000000   0.117793  -1.848534
   38  C   3  Y   1.127637   0.000000   0.000000   0.250698   0.732366
   39  C   3  Z   0.000000  -0.052719   0.091125   0.000000   0.000000
   40  C   3 XX   0.055545   0.000000   0.000000  -0.050746   0.014467
   41  C   3 YY   0.365132   0.000000   0.000000  -0.235222   0.460206
   42  C   3 ZZ  -0.420677   0.000000   0.000000   0.285968  -0.474673
   43  C   3 XY   0.109444   0.000000   0.000000   0.231054   0.226747
   44  C   3 XZ   0.000000  -0.432054   0.570412   0.000000   0.000000
   45  C   3 YZ   0.000000  -0.623830  -0.247233   0.000000   0.000000
   46  C   4  S   0.089214   0.000000   0.000000  -0.196384   0.000000
   47  C   4  S   0.071239   0.000000   0.000000  -0.348743   0.000000
   48  C   4  S  -6.560196   0.000000   0.000000   2.391654   0.000000
   49  C   4  X   0.000000   0.000000   0.000000   0.000000  -0.401438
   50  C   4  Y   0.126015   0.000000   0.000000  -0.116436   0.000000
   51  C   4  Z   0.000000   0.000000   0.042789   0.000000   0.000000
   52  C   4  X   0.000000   0.000000   0.000000   0.000000  -3.635774
   53  C   4  Y  -0.701878   0.000000   0.000000   0.294132   0.000000
   54  C   4  Z   0.000000   0.000000  -0.313879   0.000000   0.000000
   55  C   4 XX   0.037902   0.000000   0.000000   0.505127   0.000000
   56  C   4 YY  -0.604787   0.000000   0.000000  -0.116508   0.000000
   57  C   4 ZZ   0.566885   0.000000   0.000000  -0.388619   0.000000
   58  C   4 XY   0.000000   0.000000   0.000000   0.000000   0.746743
   59  C   4 XZ   0.000000  -0.813082   0.000000   0.000000   0.000000
   60  C   4 YZ   0.000000   0.000000   0.725526   0.000000   0.000000
   61  C   5  S  -0.283358   0.000000   0.000000  -0.094904   0.336232
   62  C   5  S  -0.489161   0.000000   0.000000  -0.272571   0.566213
   63  C   5  S   4.836480   0.000000   0.000000  -1.257112  -5.988017
   64  C   5  X   0.354570   0.000000   0.000000   0.255079   0.462987
   65  C   5  Y   0.375158   0.000000   0.000000   0.496394  -0.201756
   66  C   5  Z   0.000000  -0.021844  -0.071631   0.000000   0.000000
   67  C   5  X   2.121562   0.000000   0.000000  -0.117793  -1.848534
   68  C   5  Y   1.127637   0.000000   0.000000   0.250698  -0.732366
   69  C   5  Z   0.000000   0.052719   0.091125   0.000000   0.000000
   70  C   5 XX   0.055545   0.000000   0.000000  -0.050746  -0.014467
   71  C   5 YY   0.365132   0.000000   0.000000  -0.235222  -0.460206
   72  C   5 ZZ  -0.420677   0.000000   0.000000   0.285968   0.474673
   73  C   5 XY  -0.109444   0.000000   0.000000  -0.231054   0.226747
   74  C   5 XZ   0.000000  -0.432054  -0.570412   0.000000   0.000000
   75  C   5 YZ   0.000000   0.623830  -0.247233   0.000000   0.000000
   76  C   6  S   0.283358   0.000000   0.000000  -0.094904  -0.336232
   77  C   6  S   0.489161   0.000000   0.000000  -0.272571  -0.566213
   78  C   6  S  -4.836480   0.000000   0.000000  -1.257112   5.988017
   79  C   6  X  -0.354570   0.000000   0.000000   0.255079  -0.462987
   80  C   6  Y   0.375158   0.000000   0.000000  -0.496394  -0.201756
   81  C   6  Z   0.000000   0.021844   0.071631   0.000000   0.000000
   82  C   6  X  -2.121562   0.000000   0.000000  -0.117793   1.848534
   83  C   6  Y   1.127637   0.000000   0.000000  -0.250698  -0.732366
   84  C   6  Z   0.000000  -0.052719  -0.091125   0.000000   0.000000
   85  C   6 XX  -0.055545   0.000000   0.000000  -0.050746   0.014467
   86  C   6 YY  -0.365132   0.000000   0.000000  -0.235222   0.460206
   87  C   6 ZZ   0.420677   0.000000   0.000000   0.285968  -0.474673
   88  C   6 XY  -0.109444   0.000000   0.000000   0.231054   0.226747
   89  C   6 XZ   0.000000   0.432054   0.570412   0.000000   0.000000
   90  C   6 YZ   0.000000   0.623830  -0.247233   0.000000   0.000000
   91  O   7  S   0.205013   0.000000   0.000000   0.096418   0.000000
   92  O   7  S   0.388304   0.000000   0.000000   0.198165   0.000000
   93  O   7  S  -1.932937   0.000000   0.000000  -0.471374   0.000000
   94  O   7  S  -0.350579   0.000000   0.000000  -0.281290   0.000000
   95  O   7  X   0.000000   0.000000   0.000000   0.000000   0.095427
   96  O   7  Y   0.278285   0.000000   0.000000  -0.064894   0.000000
   97  O   7  Z   0.000000   0.000000  -0.045025   0.000000   0.000000
   98  O   7  X   0.000000   0.000000   0.000000   0.000000  -1.179130
   99  O   7  Y   0.780604   0.000000   0.000000   0.307733   0.000000
  100  O   7  Z   0.000000   0.000000  -0.375560   0.000000   0.000000
  101  O   7  X   0.000000   0.000000   0.000000   0.000000  -0.260005
  102  O   7  Y   0.158969   0.000000   0.000000   0.127218   0.000000
  103  O   7  Z   0.000000   0.000000  -0.033771   0.000000   0.000000
  104  O   7 XX   0.016496   0.000000   0.000000   0.030381   0.000000
  105  O   7 YY   0.045023   0.000000   0.000000   0.012026   0.000000
  106  O   7 ZZ  -0.061519   0.000000   0.000000  -0.042407   0.000000
  107  O   7 XY   0.000000   0.000000   0.000000   0.000000  -0.158085
  108  O   7 XZ   0.000000   0.065283   0.000000   0.000000   0.000000
  109  O   7 YZ   0.000000   0.000000  -0.094222   0.000000   0.000000
  110  O   7 XX   0.107335   0.000000   0.000000  -0.014575   0.000000
  111  O   7 YY  -0.141631   0.000000   0.000000  -0.083535   0.000000
  112  O   7 ZZ   0.034296   0.000000   0.000000   0.098110   0.000000
  113  O   7 XY   0.000000   0.000000   0.000000   0.000000   0.743364
  114  O   7 XZ   0.000000  -0.172404   0.000000   0.000000   0.000000
  115  O   7 YZ   0.000000   0.000000   0.427909   0.000000   0.000000
  116  O   8  S  -0.205013   0.000000   0.000000   0.096418   0.000000
  117  O   8  S  -0.388304   0.000000   0.000000   0.198165   0.000000
  118  O   8  S   1.932937   0.000000   0.000000  -0.471374   0.000000
  119  O   8  S   0.350579   0.000000   0.000000  -0.281290   0.000000
  120  O   8  X   0.000000   0.000000   0.000000   0.000000  -0.095427
  121  O   8  Y   0.278285   0.000000   0.000000   0.064894   0.000000
  122  O   8  Z   0.000000   0.000000   0.045025   0.000000   0.000000
  123  O   8  X   0.000000   0.000000   0.000000   0.000000   1.179130
  124  O   8  Y   0.780604   0.000000   0.000000  -0.307733   0.000000
  125  O   8  Z   0.000000   0.000000   0.375560   0.000000   0.000000
  126  O   8  X   0.000000   0.000000   0.000000   0.000000   0.260005
  127  O   8  Y   0.158969   0.000000   0.000000  -0.127218   0.000000
  128  O   8  Z   0.000000   0.000000   0.033771   0.000000   0.000000
  129  O   8 XX  -0.016496   0.000000   0.000000   0.030381   0.000000
  130  O   8 YY  -0.045023   0.000000   0.000000   0.012026   0.000000
  131  O   8 ZZ   0.061519   0.000000   0.000000  -0.042407   0.000000
  132  O   8 XY   0.000000   0.000000   0.000000   0.000000  -0.158085
  133  O   8 XZ   0.000000  -0.065283   0.000000   0.000000   0.000000
  134  O   8 YZ   0.000000   0.000000  -0.094222   0.000000   0.000000
  135  O   8 XX  -0.107335   0.000000   0.000000  -0.014575   0.000000
  136  O   8 YY   0.141631   0.000000   0.000000  -0.083535   0.000000
  137  O   8 ZZ  -0.034296   0.000000   0.000000   0.098110   0.000000
  138  O   8 XY   0.000000   0.000000   0.000000   0.000000   0.743364
  139  O   8 XZ   0.000000   0.172404   0.000000   0.000000   0.000000
  140  O   8 YZ   0.000000   0.000000   0.427909   0.000000   0.000000
  141  H   9  S  -0.163954   0.000000   0.000000   0.601156   0.195233
  142  H   9  S  -0.598491   0.000000   0.000000   0.322570  -0.114220
  143  H   9  X   0.326255   0.000000   0.000000  -0.673405  -0.210913
  144  H   9  Y   0.158007   0.000000   0.000000  -0.150148  -0.272399
  145  H   9  Z   0.000000  -0.053546   0.415083   0.000000   0.000000
  146  H  10  S   0.163954   0.000000   0.000000   0.601156  -0.195233
  147  H  10  S   0.598491   0.000000   0.000000   0.322570   0.114220
  148  H  10  X  -0.326255   0.000000   0.000000  -0.673405   0.210913
  149  H  10  Y   0.158007   0.000000   0.000000   0.150148  -0.272399
  150  H  10  Z   0.000000   0.053546  -0.415083   0.000000   0.000000
  151  H  11  S   0.163954   0.000000   0.000000   0.601156   0.195233
  152  H  11  S   0.598491   0.000000   0.000000   0.322570  -0.114220
  153  H  11  X   0.326255   0.000000   0.000000   0.673405   0.210913
  154  H  11  Y   0.158007   0.000000   0.000000   0.150148   0.272399
  155  H  11  Z   0.000000  -0.053546  -0.415083   0.000000   0.000000
  156  H  12  S  -0.163954   0.000000   0.000000   0.601156  -0.195233
  157  H  12  S  -0.598491   0.000000   0.000000   0.322570   0.114220
  158  H  12  X  -0.326255   0.000000   0.000000   0.673405  -0.210913
  159  H  12  Y   0.158007   0.000000   0.000000  -0.150148   0.272399
  160  H  12  Z   0.000000   0.053546   0.415083   0.000000   0.000000

                    131        132        133        134        135
                    2.7432     2.7745     2.8780     2.8827     2.9409
                     A          A          A          A          A   
    1  C   1  S   0.000000   0.000000   0.509835  -0.257320   0.000000
    2  C   1  S   0.000000   0.000000   0.931722  -0.424657   0.000000
    3  C   1  S   0.000000   0.000000   0.062876   8.240340   0.000000
    4  C   1  X  -0.280982   0.113257   0.000000   0.000000  -0.521049
    5  C   1  Y   0.000000   0.000000   0.407362   0.230304   0.000000
    6  C   1  Z   0.000000   0.000000   0.000000   0.000000   0.000000
    7  C   1  X   0.863698  -2.067238   0.000000   0.000000   2.163786
    8  C   1  Y   0.000000   0.000000   2.354785  -1.629560   0.000000
    9  C   1  Z   0.000000   0.000000   0.000000   0.000000   0.000000
   10  C   1 XX   0.000000   0.000000  -0.502700   0.640228   0.000000
   11  C   1 YY   0.000000   0.000000   0.489363  -0.086478   0.000000
   12  C   1 ZZ   0.000000   0.000000   0.013337  -0.553750   0.000000
   13  C   1 XY   0.733264  -0.894518   0.000000   0.000000   0.907437
   14  C   1 XZ   0.000000   0.000000   0.000000   0.000000   0.000000
   15  C   1 YZ   0.000000   0.000000   0.000000   0.000000   0.000000
   16  C   2  S   0.065209  -0.407290  -0.250877  -0.049783  -0.006646
   17  C   2  S   0.100033  -0.867198  -0.514746  -0.264023   0.039102
   18  C   2  S  -1.030316   1.341526   0.880444  -5.641255   0.156719
   19  C   2  X  -0.677555  -0.075179  -0.244107  -0.091118  -0.063425
   20  C   2  Y  -0.236981  -0.093918   0.161878  -0.006634   0.496143
   21  C   2  Z   0.000000   0.000000   0.000000   0.000000   0.000000
   22  C   2  X  -0.195889  -0.650270  -0.881716   2.496495   0.876303
   23  C   2  Y  -0.287138   0.312163  -0.308323   0.764836  -1.190666
   24  C   2  Z   0.000000   0.000000   0.000000   0.000000   0.000000
   25  C   2 XX   0.052628  -0.533329  -0.382546   0.109738   0.866209
   26  C   2 YY  -0.215179   0.439196   0.421668  -0.642858  -0.594397
   27  C   2 ZZ   0.162551   0.094133  -0.039122   0.533119  -0.271812
   28  C   2 XY  -0.418593  -0.140373  -0.220025  -0.252301  -0.250033
   29  C   2 XZ   0.000000   0.000000   0.000000   0.000000   0.000000
   30  C   2 YZ   0.000000   0.000000   0.000000   0.000000   0.000000
   31  C   3  S   0.065209  -0.407290  -0.250877   0.049783   0.006646
   32  C   3  S   0.100033  -0.867198  -0.514746   0.264023  -0.039102
   33  C   3  S  -1.030316   1.341526   0.880444   5.641255  -0.156719
   34  C   3  X  -0.677555  -0.075179  -0.244107   0.091118   0.063425
   35  C   3  Y   0.236981   0.093918  -0.161878  -0.006634   0.496143
   36  C   3  Z   0.000000   0.000000   0.000000   0.000000   0.000000
   37  C   3  X  -0.195889  -0.650270  -0.881716  -2.496495  -0.876303
   38  C   3  Y   0.287138  -0.312163   0.308323   0.764836  -1.190666
   39  C   3  Z   0.000000   0.000000   0.000000   0.000000   0.000000
   40  C   3 XX   0.052628  -0.533329  -0.382546  -0.109738  -0.866209
   41  C   3 YY  -0.215179   0.439196   0.421668   0.642858   0.594397
   42  C   3 ZZ   0.162551   0.094133  -0.039122  -0.533119   0.271812
   43  C   3 XY   0.418593   0.140373   0.220025  -0.252301  -0.250033
   44  C   3 XZ   0.000000   0.000000   0.000000   0.000000   0.000000
   45  C   3 YZ   0.000000   0.000000   0.000000   0.000000   0.000000
   46  C   4  S   0.000000   0.000000   0.509835   0.257320   0.000000
   47  C   4  S   0.000000   0.000000   0.931722   0.424657   0.000000
   48  C   4  S   0.000000   0.000000   0.062876  -8.240340   0.000000
   49  C   4  X  -0.280982   0.113257   0.000000   0.000000   0.521049
   50  C   4  Y   0.000000   0.000000  -0.407362   0.230304   0.000000
   51  C   4  Z   0.000000   0.000000   0.000000   0.000000   0.000000
   52  C   4  X   0.863698  -2.067238   0.000000   0.000000  -2.163786
   53  C   4  Y   0.000000   0.000000  -2.354785  -1.629560   0.000000
   54  C   4  Z   0.000000   0.000000   0.000000   0.000000   0.000000
   55  C   4 XX   0.000000   0.000000  -0.502700  -0.640228   0.000000
   56  C   4 YY   0.000000   0.000000   0.489363   0.086478   0.000000
   57  C   4 ZZ   0.000000   0.000000   0.013337   0.553750   0.000000
   58  C   4 XY  -0.733264   0.894518   0.000000   0.000000   0.907437
   59  C   4 XZ   0.000000   0.000000   0.000000   0.000000   0.000000
   60  C   4 YZ   0.000000   0.000000   0.000000   0.000000   0.000000
   61  C   5  S  -0.065209   0.407290  -0.250877   0.049783  -0.006646
   62  C   5  S  -0.100033   0.867198  -0.514746   0.264023   0.039102
   63  C   5  S   1.030316  -1.341526   0.880444   5.641255   0.156719
   64  C   5  X  -0.677555  -0.075179   0.244107  -0.091118   0.063425
   65  C   5  Y  -0.236981  -0.093918  -0.161878  -0.006634  -0.496143
   66  C   5  Z   0.000000   0.000000   0.000000   0.000000   0.000000
   67  C   5  X  -0.195889  -0.650270   0.881716   2.496495  -0.876303
   68  C   5  Y  -0.287138   0.312163   0.308323   0.764836   1.190666
   69  C   5  Z   0.000000   0.000000   0.000000   0.000000   0.000000
   70  C   5 XX  -0.052628   0.533329  -0.382546  -0.109738   0.866209
   71  C   5 YY   0.215179  -0.439196   0.421668   0.642858  -0.594397
   72  C   5 ZZ  -0.162551  -0.094133  -0.039122  -0.533119  -0.271812
   73  C   5 XY   0.418593   0.140373  -0.220025   0.252301  -0.250033
   74  C   5 XZ   0.000000   0.000000   0.000000   0.000000   0.000000
   75  C   5 YZ   0.000000   0.000000   0.000000   0.000000   0.000000
   76  C   6  S  -0.065209   0.407290  -0.250877  -0.049783   0.006646
   77  C   6  S  -0.100033   0.867198  -0.514746  -0.264023  -0.039102
   78  C   6  S   1.030316  -1.341526   0.880444  -5.641255  -0.156719
   79  C   6  X  -0.677555  -0.075179   0.244107   0.091118  -0.063425
   80  C   6  Y   0.236981   0.093918   0.161878  -0.006634  -0.496143
   81  C   6  Z   0.000000   0.000000   0.000000   0.000000   0.000000
   82  C   6  X  -0.195889  -0.650270   0.881716  -2.496495   0.876303
   83  C   6  Y   0.287138  -0.312163  -0.308323   0.764836   1.190666
   84  C   6  Z   0.000000   0.000000   0.000000   0.000000   0.000000
   85  C   6 XX  -0.052628   0.533329  -0.382546   0.109738  -0.866209
   86  C   6 YY   0.215179  -0.439196   0.421668  -0.642858   0.594397
   87  C   6 ZZ  -0.162551  -0.094133  -0.039122   0.533119   0.271812
   88  C   6 XY  -0.418593  -0.140373   0.220025   0.252301  -0.250033
   89  C   6 XZ   0.000000   0.000000   0.000000   0.000000   0.000000
   90  C   6 YZ   0.000000   0.000000   0.000000   0.000000   0.000000
   91  O   7  S   0.000000   0.000000   0.466851   0.277824   0.000000
   92  O   7  S   0.000000   0.000000   0.942612   0.560121   0.000000
   93  O   7  S   0.000000   0.000000  -2.811343  -1.487620   0.000000
   94  O   7  S   0.000000   0.000000  -0.991054  -0.515084   0.000000
   95  O   7  X  -0.038691   0.015995   0.000000   0.000000  -0.045888
   96  O   7  Y   0.000000   0.000000  -0.030876  -0.107385   0.000000
   97  O   7  Z   0.000000   0.000000   0.000000   0.000000   0.000000
   98  O   7  X  -0.390652   0.752498   0.000000   0.000000  -0.589005
   99  O   7  Y   0.000000   0.000000   1.479003   0.996172   0.000000
  100  O   7  Z   0.000000   0.000000   0.000000   0.000000   0.000000
  101  O   7  X  -0.122441   0.083461   0.000000   0.000000  -0.082967
  102  O   7  Y   0.000000   0.000000   0.302410   0.226761   0.000000
  103  O   7  Z   0.000000   0.000000   0.000000   0.000000   0.000000
  104  O   7 XX   0.000000   0.000000  -0.129741   0.079581   0.000000
  105  O   7 YY   0.000000   0.000000   0.158792   0.045372   0.000000
  106  O   7 ZZ   0.000000   0.000000  -0.029051  -0.124953   0.000000
  107  O   7 XY  -0.105462   0.192097   0.000000   0.000000  -0.213514
  108  O   7 XZ   0.000000   0.000000   0.000000   0.000000   0.000000
  109  O   7 YZ   0.000000   0.000000   0.000000   0.000000   0.000000
  110  O   7 XX   0.000000   0.000000   0.343036   0.102387   0.000000
  111  O   7 YY   0.000000   0.000000  -0.648075  -0.296995   0.000000
  112  O   7 ZZ   0.000000   0.000000   0.305039   0.194609   0.000000
  113  O   7 XY   0.397064  -0.604546   0.000000   0.000000   0.512408
  114  O   7 XZ   0.000000   0.000000   0.000000   0.000000   0.000000
  115  O   7 YZ   0.000000   0.000000   0.000000   0.000000   0.000000
  116  O   8  S   0.000000   0.000000   0.466851  -0.277824   0.000000
  117  O   8  S   0.000000   0.000000   0.942612  -0.560121   0.000000
  118  O   8  S   0.000000   0.000000  -2.811343   1.487620   0.000000
  119  O   8  S   0.000000   0.000000  -0.991054   0.515084   0.000000
  120  O   8  X  -0.038691   0.015995   0.000000   0.000000   0.045888
  121  O   8  Y   0.000000   0.000000   0.030876  -0.107385   0.000000
  122  O   8  Z   0.000000   0.000000   0.000000   0.000000   0.000000
  123  O   8  X  -0.390652   0.752498   0.000000   0.000000   0.589005
  124  O   8  Y   0.000000   0.000000  -1.479003   0.996172   0.000000
  125  O   8  Z   0.000000   0.000000   0.000000   0.000000   0.000000
  126  O   8  X  -0.122441   0.083461   0.000000   0.000000   0.082967
  127  O   8  Y   0.000000   0.000000  -0.302410   0.226761   0.000000
  128  O   8  Z   0.000000   0.000000   0.000000   0.000000   0.000000
  129  O   8 XX   0.000000   0.000000  -0.129741  -0.079581   0.000000
  130  O   8 YY   0.000000   0.000000   0.158792  -0.045372   0.000000
  131  O   8 ZZ   0.000000   0.000000  -0.029051   0.124953   0.000000
  132  O   8 XY   0.105462  -0.192097   0.000000   0.000000  -0.213514
  133  O   8 XZ   0.000000   0.000000   0.000000   0.000000   0.000000
  134  O   8 YZ   0.000000   0.000000   0.000000   0.000000   0.000000
  135  O   8 XX   0.000000   0.000000   0.343036  -0.102387   0.000000
  136  O   8 YY   0.000000   0.000000  -0.648075   0.296995   0.000000
  137  O   8 ZZ   0.000000   0.000000   0.305039  -0.194609   0.000000
  138  O   8 XY  -0.397064   0.604546   0.000000   0.000000   0.512408
  139  O   8 XZ   0.000000   0.000000   0.000000   0.000000   0.000000
  140  O   8 YZ   0.000000   0.000000   0.000000   0.000000   0.000000
  141  H   9  S   0.635211   0.492595   0.420279   0.398865  -0.415625
  142  H   9  S   0.409578   0.204609   0.400685  -0.231973  -0.132293
  143  H   9  X  -0.622986  -0.323484  -0.126201  -0.625865   0.048640
  144  H   9  Y  -0.188347  -0.488132  -0.391322  -0.012324   0.522717
  145  H   9  Z   0.000000   0.000000   0.000000   0.000000   0.000000
  146  H  10  S   0.635211   0.492595   0.420279  -0.398865   0.415625
  147  H  10  S   0.409578   0.204609   0.400685   0.231973   0.132293
  148  H  10  X  -0.622986  -0.323484  -0.126201   0.625865  -0.048640
  149  H  10  Y   0.188347   0.488132   0.391322  -0.012324   0.522717
  150  H  10  Z   0.000000   0.000000   0.000000   0.000000   0.000000
  151  H  11  S  -0.635211  -0.492595   0.420279  -0.398865  -0.415625
  152  H  11  S  -0.409578  -0.204609   0.400685   0.231973  -0.132293
  153  H  11  X  -0.622986  -0.323484   0.126201  -0.625865  -0.048640
  154  H  11  Y  -0.188347  -0.488132   0.391322  -0.012324  -0.522717
  155  H  11  Z   0.000000   0.000000   0.000000   0.000000   0.000000
  156  H  12  S  -0.635211  -0.492595   0.420279   0.398865   0.415625
  157  H  12  S  -0.409578  -0.204609   0.400685  -0.231973   0.132293
  158  H  12  X  -0.622986  -0.323484   0.126201   0.625865   0.048640
  159  H  12  Y   0.188347   0.488132  -0.391322  -0.012324  -0.522717
  160  H  12  Z   0.000000   0.000000   0.000000   0.000000   0.000000

                    136        137        138        139        140
                    2.9689     2.9787     3.1929     3.2188     3.5767
                     A          A          A          A          A   
    1  C   1  S  -0.143826  -0.677818   0.000000  -0.401996   0.000000
    2  C   1  S  -0.419879  -1.233045   0.000000  -0.729301   0.000000
    3  C   1  S  -7.051285   0.525798   0.000000  -0.327027   0.000000
    4  C   1  X   0.000000   0.000000  -0.445516   0.000000   0.000000
    5  C   1  Y   0.364308  -0.456047   0.000000  -0.310602   0.000000
    6  C   1  Z   0.000000   0.000000   0.000000   0.000000   0.000000
    7  C   1  X   0.000000   0.000000   1.671415   0.000000   0.000000
    8  C   1  Y   5.336275  -3.491734   0.000000  -1.826516   0.000000
    9  C   1  Z   0.000000   0.000000   0.000000   0.000000   0.000000
   10  C   1 XX  -0.449496   0.378634   0.000000  -0.632999   0.000000
   11  C   1 YY   0.028919  -0.305816   0.000000   0.704074   0.000000
   12  C   1 ZZ   0.420577  -0.072818   0.000000  -0.071075   0.000000
   13  C   1 XY   0.000000   0.000000   0.078284   0.000000   0.000000
   14  C   1 XZ   0.000000   0.000000   0.000000   0.000000   0.013415
   15  C   1 YZ   0.000000   0.000000   0.000000   0.000000   0.000000
   16  C   2  S  -0.383310   0.040078  -0.030860   0.066528   0.000000
   17  C   2  S  -0.596760   0.042896  -0.136346   0.103817   0.000000
   18  C   2  S  10.154690  -3.204258  -1.443498  -0.899887   0.000000
   19  C   2  X   0.046814   0.075834  -0.394021  -0.346624   0.000000
   20  C   2  Y   0.243666   0.290197  -0.143549   0.060759   0.000000
   21  C   2  Z   0.000000   0.000000   0.000000   0.000000  -0.000136
   22  C   2  X  -3.404420   1.427299   0.609440   0.429621   0.000000
   23  C   2  Y  -3.476643   1.232984  -1.071794   0.200642   0.000000
   24  C   2  Z   0.000000   0.000000   0.000000   0.000000  -0.036649
   25  C   2 XX   0.675331   0.374964  -0.221409  -0.419108   0.000000
   26  C   2 YY  -0.064897  -0.495645  -0.110759   0.248203   0.000000
   27  C   2 ZZ  -0.610434   0.120682   0.332168   0.170905   0.000000
   28  C   2 XY  -0.569362   0.176179  -1.041779  -0.372134   0.000000
   29  C   2 XZ   0.000000   0.000000   0.000000   0.000000   0.013253
   30  C   2 YZ   0.000000   0.000000   0.000000   0.000000  -0.035030
   31  C   3  S   0.383310  -0.040078   0.030860   0.066528   0.000000
   32  C   3  S   0.596760  -0.042896   0.136346   0.103817   0.000000
   33  C   3  S -10.154690   3.204258   1.443498  -0.899887   0.000000
   34  C   3  X  -0.046814  -0.075834   0.394021  -0.346624   0.000000
   35  C   3  Y   0.243666   0.290197  -0.143549  -0.060759   0.000000
   36  C   3  Z   0.000000   0.000000   0.000000   0.000000  -0.000136
   37  C   3  X   3.404420  -1.427299  -0.609440   0.429621   0.000000
   38  C   3  Y  -3.476643   1.232984  -1.071794  -0.200642   0.000000
   39  C   3  Z   0.000000   0.000000   0.000000   0.000000  -0.036649
   40  C   3 XX  -0.675331  -0.374964   0.221409  -0.419108   0.000000
   41  C   3 YY   0.064897   0.495645   0.110759   0.248203   0.000000
   42  C   3 ZZ   0.610434  -0.120682  -0.332168   0.170905   0.000000
   43  C   3 XY  -0.569362   0.176179  -1.041779   0.372134   0.000000
   44  C   3 XZ   0.000000   0.000000   0.000000   0.000000   0.013253
   45  C   3 YZ   0.000000   0.000000   0.000000   0.000000   0.035030
   46  C   4  S   0.143826   0.677818   0.000000  -0.401996   0.000000
   47  C   4  S   0.419879   1.233045   0.000000  -0.729301   0.000000
   48  C   4  S   7.051285  -0.525798   0.000000  -0.327027   0.000000
   49  C   4  X   0.000000   0.000000   0.445516   0.000000   0.000000
   50  C   4  Y   0.364308  -0.456047   0.000000   0.310602   0.000000
   51  C   4  Z   0.000000   0.000000   0.000000   0.000000   0.000000
   52  C   4  X   0.000000   0.000000  -1.671415   0.000000   0.000000
   53  C   4  Y   5.336275  -3.491734   0.000000   1.826516   0.000000
   54  C   4  Z   0.000000   0.000000   0.000000   0.000000   0.000000
   55  C   4 XX   0.449496  -0.378634   0.000000  -0.632999   0.000000
   56  C   4 YY  -0.028919   0.305816   0.000000   0.704074   0.000000
   57  C   4 ZZ  -0.420577   0.072818   0.000000  -0.071075   0.000000
   58  C   4 XY   0.000000   0.000000   0.078284   0.000000   0.000000
   59  C   4 XZ   0.000000   0.000000   0.000000   0.000000   0.013415
   60  C   4 YZ   0.000000   0.000000   0.000000   0.000000   0.000000
   61  C   5  S   0.383310  -0.040078  -0.030860   0.066528   0.000000
   62  C   5  S   0.596760  -0.042896  -0.136346   0.103817   0.000000
   63  C   5  S -10.154690   3.204258  -1.443498  -0.899887   0.000000
   64  C   5  X   0.046814   0.075834   0.394021   0.346624   0.000000
   65  C   5  Y   0.243666   0.290197   0.143549  -0.060759   0.000000
   66  C   5  Z   0.000000   0.000000   0.000000   0.000000   0.000136
   67  C   5  X  -3.404420   1.427299  -0.609440  -0.429621   0.000000
   68  C   5  Y  -3.476643   1.232984   1.071794  -0.200642   0.000000
   69  C   5  Z   0.000000   0.000000   0.000000   0.000000   0.036649
   70  C   5 XX  -0.675331  -0.374964  -0.221409  -0.419108   0.000000
   71  C   5 YY   0.064897   0.495645  -0.110759   0.248203   0.000000
   72  C   5 ZZ   0.610434  -0.120682   0.332168   0.170905   0.000000
   73  C   5 XY   0.569362  -0.176179  -1.041779  -0.372134   0.000000
   74  C   5 XZ   0.000000   0.000000   0.000000   0.000000   0.013253
   75  C   5 YZ   0.000000   0.000000   0.000000   0.000000  -0.035030
   76  C   6  S  -0.383310   0.040078   0.030860   0.066528   0.000000
   77  C   6  S  -0.596760   0.042896   0.136346   0.103817   0.000000
   78  C   6  S  10.154690  -3.204258   1.443498  -0.899887   0.000000
   79  C   6  X  -0.046814  -0.075834  -0.394021   0.346624   0.000000
   80  C   6  Y   0.243666   0.290197   0.143549   0.060759   0.000000
   81  C   6  Z   0.000000   0.000000   0.000000   0.000000   0.000136
   82  C   6  X   3.404420  -1.427299   0.609440  -0.429621   0.000000
   83  C   6  Y  -3.476643   1.232984   1.071794   0.200642   0.000000
   84  C   6  Z   0.000000   0.000000   0.000000   0.000000   0.036649
   85  C   6 XX   0.675331   0.374964   0.221409  -0.419108   0.000000
   86  C   6 YY  -0.064897  -0.495645   0.110759   0.248203   0.000000
   87  C   6 ZZ  -0.610434   0.120682  -0.332168   0.170905   0.000000
   88  C   6 XY   0.569362  -0.176179  -1.041779   0.372134   0.000000
   89  C   6 XZ   0.000000   0.000000   0.000000   0.000000   0.013253
   90  C   6 YZ   0.000000   0.000000   0.000000   0.000000   0.035030
   91  O   7  S   0.137122  -0.651041   0.000000  -0.561987   0.000000
   92  O   7  S   0.284580  -1.322664   0.000000  -1.159046   0.000000
   93  O   7  S  -1.304574   3.618044   0.000000   2.158538   0.000000
   94  O   7  S  -0.668636   1.235176   0.000000   0.801742   0.000000
   95  O   7  X   0.000000   0.000000   0.011551   0.000000   0.000000
   96  O   7  Y   0.034058   0.154760   0.000000   0.397695   0.000000
   97  O   7  Z   0.000000   0.000000   0.000000   0.000000   0.000000
   98  O   7  X   0.000000   0.000000  -0.113103   0.000000   0.000000
   99  O   7  Y  -0.122757  -1.838128   0.000000  -1.179657   0.000000
  100  O   7  Z   0.000000   0.000000   0.000000   0.000000   0.000000
  101  O   7  X   0.000000   0.000000  -0.016175   0.000000   0.000000
  102  O   7  Y   0.200295  -0.371532   0.000000  -0.234467   0.000000
  103  O   7  Z   0.000000   0.000000   0.000000   0.000000   0.000000
  104  O   7 XX   0.004877   0.125175   0.000000  -0.077670   0.000000
  105  O   7 YY   0.008989  -0.186320   0.000000  -0.053682   0.000000
  106  O   7 ZZ  -0.013866   0.061146   0.000000   0.131352   0.000000
  107  O   7 XY   0.000000   0.000000   0.099035   0.000000   0.000000
  108  O   7 XZ   0.000000   0.000000   0.000000   0.000000  -0.826553
  109  O   7 YZ   0.000000   0.000000   0.000000   0.000000   0.000000
  110  O   7 XX   0.014570  -0.433471   0.000000  -0.137155   0.000000
  111  O   7 YY   0.166048   0.802407   0.000000   0.442016   0.000000
  112  O   7 ZZ  -0.180619  -0.368936   0.000000  -0.304861   0.000000
  113  O   7 XY   0.000000   0.000000  -0.076083   0.000000   0.000000
  114  O   7 XZ   0.000000   0.000000   0.000000   0.000000   0.417366
  115  O   7 YZ   0.000000   0.000000   0.000000   0.000000   0.000000
  116  O   8  S  -0.137122   0.651041   0.000000  -0.561987   0.000000
  117  O   8  S  -0.284580   1.322664   0.000000  -1.159046   0.000000
  118  O   8  S   1.304574  -3.618044   0.000000   2.158538   0.000000
  119  O   8  S   0.668636  -1.235176   0.000000   0.801742   0.000000
  120  O   8  X   0.000000   0.000000  -0.011551   0.000000   0.000000
  121  O   8  Y   0.034058   0.154760   0.000000  -0.397695   0.000000
  122  O   8  Z   0.000000   0.000000   0.000000   0.000000   0.000000
  123  O   8  X   0.000000   0.000000   0.113103   0.000000   0.000000
  124  O   8  Y  -0.122757  -1.838128   0.000000   1.179657   0.000000
  125  O   8  Z   0.000000   0.000000   0.000000   0.000000   0.000000
  126  O   8  X   0.000000   0.000000   0.016175   0.000000   0.000000
  127  O   8  Y   0.200295  -0.371532   0.000000   0.234467   0.000000
  128  O   8  Z   0.000000   0.000000   0.000000   0.000000   0.000000
  129  O   8 XX  -0.004877  -0.125175   0.000000  -0.077670   0.000000
  130  O   8 YY  -0.008989   0.186320   0.000000  -0.053682   0.000000
  131  O   8 ZZ   0.013866  -0.061146   0.000000   0.131352   0.000000
  132  O   8 XY   0.000000   0.000000   0.099035   0.000000   0.000000
  133  O   8 XZ   0.000000   0.000000   0.000000   0.000000  -0.826553
  134  O   8 YZ   0.000000   0.000000   0.000000   0.000000   0.000000
  135  O   8 XX  -0.014570   0.433471   0.000000  -0.137155   0.000000
  136  O   8 YY  -0.166048  -0.802407   0.000000   0.442016   0.000000
  137  O   8 ZZ   0.180619   0.368936   0.000000  -0.304861   0.000000
  138  O   8 XY   0.000000   0.000000  -0.076083   0.000000   0.000000
  139  O   8 XZ   0.000000   0.000000   0.000000   0.000000   0.417366
  140  O   8 YZ   0.000000   0.000000   0.000000   0.000000   0.000000
  141  H   9  S  -0.196237  -0.263628   0.965576   0.466427   0.000000
  142  H   9  S   0.865166  -0.526646   0.215095  -0.140126   0.000000
  143  H   9  X   0.131707   0.000196  -0.734375  -0.258573   0.000000
  144  H   9  Y   0.545902   0.181719  -0.083184  -0.262099   0.000000
  145  H   9  Z   0.000000   0.000000   0.000000   0.000000   0.010513
  146  H  10  S   0.196237   0.263628  -0.965576   0.466427   0.000000
  147  H  10  S  -0.865166   0.526646  -0.215095  -0.140126   0.000000
  148  H  10  X  -0.131707  -0.000196   0.734375  -0.258573   0.000000
  149  H  10  Y   0.545902   0.181719  -0.083184   0.262099   0.000000
  150  H  10  Z   0.000000   0.000000   0.000000   0.000000   0.010513
  151  H  11  S   0.196237   0.263628   0.965576   0.466427   0.000000
  152  H  11  S  -0.865166   0.526646   0.215095  -0.140126   0.000000
  153  H  11  X   0.131707   0.000196   0.734375   0.258573   0.000000
  154  H  11  Y   0.545902   0.181719   0.083184   0.262099   0.000000
  155  H  11  Z   0.000000   0.000000   0.000000   0.000000  -0.010513
  156  H  12  S  -0.196237  -0.263628  -0.965576   0.466427   0.000000
  157  H  12  S   0.865166  -0.526646  -0.215095  -0.140126   0.000000
  158  H  12  X  -0.131707  -0.000196  -0.734375   0.258573   0.000000
  159  H  12  Y   0.545902   0.181719   0.083184  -0.262099   0.000000
  160  H  12  Z   0.000000   0.000000   0.000000   0.000000  -0.010513

                    141        142        143        144        145
                    3.5986     3.6611     3.6734     3.6831     3.6910
                     A          A          A          A          A   
    1  C   1  S   0.000000   0.000000  -0.315985  -0.066094   0.000000
    2  C   1  S   0.000000   0.000000  -0.578867  -0.104725   0.000000
    3  C   1  S   0.000000   0.000000   3.347721   1.512363   0.000000
    4  C   1  X   0.000000   0.000000   0.000000   0.000000   0.000000
    5  C   1  Y   0.000000   0.000000  -0.099325  -0.000988   0.000000
    6  C   1  Z   0.000000  -0.010271   0.000000   0.000000  -0.016460
    7  C   1  X   0.000000   0.000000   0.000000   0.000000   0.000000
    8  C   1  Y   0.000000   0.000000  -0.847909   0.206385   0.000000
    9  C   1  Z   0.000000   0.253373   0.000000   0.000000   0.309340
   10  C   1 XX   0.000000   0.000000  -0.263365   0.206740   0.000000
   11  C   1 YY   0.000000   0.000000   0.416008  -0.101912   0.000000
   12  C   1 ZZ   0.000000   0.000000  -0.152643  -0.104828   0.000000
   13  C   1 XY   0.000000   0.000000   0.000000   0.000000   0.000000
   14  C   1 XZ  -0.055863   0.000000   0.000000   0.000000   0.000000
   15  C   1 YZ   0.000000  -0.195601   0.000000   0.000000  -0.211990
   16  C   2  S   0.000000   0.000000   0.062178   0.063509   0.000000
   17  C   2  S   0.000000   0.000000   0.076029   0.112135   0.000000
   18  C   2  S   0.000000   0.000000  -1.526602  -0.631508   0.000000
   19  C   2  X   0.000000   0.000000  -0.114720   0.105800   0.000000
   20  C   2  Y   0.000000   0.000000  -0.036207  -0.066175   0.000000
   21  C   2  Z  -0.023299  -0.006186   0.000000   0.000000  -0.041330
   22  C   2  X   0.000000   0.000000   1.188031   0.198209   0.000000
   23  C   2  Y   0.000000   0.000000  -0.649891  -0.351191   0.000000
   24  C   2  Z   0.103248  -0.057167   0.000000   0.000000  -0.100105
   25  C   2 XX   0.000000   0.000000  -0.268606   0.068256   0.000000
   26  C   2 YY   0.000000   0.000000   0.073557  -0.123294   0.000000
   27  C   2 ZZ   0.000000   0.000000   0.195049   0.055037   0.000000
   28  C   2 XY   0.000000   0.000000  -0.517468   0.101427   0.000000
   29  C   2 XZ  -0.029819   0.081895   0.000000   0.000000   0.104763
   30  C   2 YZ   0.076160   0.022161   0.000000   0.000000   0.085398
   31  C   3  S   0.000000   0.000000  -0.062178   0.063509   0.000000
   32  C   3  S   0.000000   0.000000  -0.076029   0.112135   0.000000
   33  C   3  S   0.000000   0.000000   1.526602  -0.631508   0.000000
   34  C   3  X   0.000000   0.000000   0.114720   0.105800   0.000000
   35  C   3  Y   0.000000   0.000000  -0.036207   0.066175   0.000000
   36  C   3  Z   0.023299  -0.006186   0.000000   0.000000   0.041330
   37  C   3  X   0.000000   0.000000  -1.188031   0.198209   0.000000
   38  C   3  Y   0.000000   0.000000  -0.649891   0.351191   0.000000
   39  C   3  Z  -0.103248  -0.057167   0.000000   0.000000   0.100105
   40  C   3 XX   0.000000   0.000000   0.268606   0.068256   0.000000
   41  C   3 YY   0.000000   0.000000  -0.073557  -0.123294   0.000000
   42  C   3 ZZ   0.000000   0.000000  -0.195049   0.055037   0.000000
   43  C   3 XY   0.000000   0.000000  -0.517468  -0.101427   0.000000
   44  C   3 XZ   0.029819   0.081895   0.000000   0.000000  -0.104763
   45  C   3 YZ   0.076160  -0.022161   0.000000   0.000000   0.085398
   46  C   4  S   0.000000   0.000000   0.315985  -0.066094   0.000000
   47  C   4  S   0.000000   0.000000   0.578867  -0.104725   0.000000
   48  C   4  S   0.000000   0.000000  -3.347721   1.512363   0.000000
   49  C   4  X   0.000000   0.000000   0.000000   0.000000   0.000000
   50  C   4  Y   0.000000   0.000000  -0.099325   0.000988   0.000000
   51  C   4  Z   0.000000  -0.010271   0.000000   0.000000   0.016460
   52  C   4  X   0.000000   0.000000   0.000000   0.000000   0.000000
   53  C   4  Y   0.000000   0.000000  -0.847909  -0.206385   0.000000
   54  C   4  Z   0.000000   0.253373   0.000000   0.000000  -0.309340
   55  C   4 XX   0.000000   0.000000   0.263365   0.206740   0.000000
   56  C   4 YY   0.000000   0.000000  -0.416008  -0.101912   0.000000
   57  C   4 ZZ   0.000000   0.000000   0.152643  -0.104828   0.000000
   58  C   4 XY   0.000000   0.000000   0.000000   0.000000   0.000000
   59  C   4 XZ   0.055863   0.000000   0.000000   0.000000   0.000000
   60  C   4 YZ   0.000000   0.195601   0.000000   0.000000  -0.211990
   61  C   5  S   0.000000   0.000000  -0.062178   0.063509   0.000000
   62  C   5  S   0.000000   0.000000  -0.076029   0.112135   0.000000
   63  C   5  S   0.000000   0.000000   1.526602  -0.631508   0.000000
   64  C   5  X   0.000000   0.000000  -0.114720  -0.105800   0.000000
   65  C   5  Y   0.000000   0.000000  -0.036207   0.066175   0.000000
   66  C   5  Z  -0.023299  -0.006186   0.000000   0.000000   0.041330
   67  C   5  X   0.000000   0.000000   1.188031  -0.198209   0.000000
   68  C   5  Y   0.000000   0.000000  -0.649891   0.351191   0.000000
   69  C   5  Z   0.103248  -0.057167   0.000000   0.000000   0.100105
   70  C   5 XX   0.000000   0.000000   0.268606   0.068256   0.000000
   71  C   5 YY   0.000000   0.000000  -0.073557  -0.123294   0.000000
   72  C   5 ZZ   0.000000   0.000000  -0.195049   0.055037   0.000000
   73  C   5 XY   0.000000   0.000000   0.517468   0.101427   0.000000
   74  C   5 XZ   0.029819  -0.081895   0.000000   0.000000   0.104763
   75  C   5 YZ  -0.076160  -0.022161   0.000000   0.000000   0.085398
   76  C   6  S   0.000000   0.000000   0.062178   0.063509   0.000000
   77  C   6  S   0.000000   0.000000   0.076029   0.112135   0.000000
   78  C   6  S   0.000000   0.000000  -1.526602  -0.631508   0.000000
   79  C   6  X   0.000000   0.000000   0.114720  -0.105800   0.000000
   80  C   6  Y   0.000000   0.000000  -0.036207  -0.066175   0.000000
   81  C   6  Z   0.023299  -0.006186   0.000000   0.000000  -0.041330
   82  C   6  X   0.000000   0.000000  -1.188031  -0.198209   0.000000
   83  C   6  Y   0.000000   0.000000  -0.649891  -0.351191   0.000000
   84  C   6  Z  -0.103248  -0.057167   0.000000   0.000000  -0.100105
   85  C   6 XX   0.000000   0.000000  -0.268606   0.068256   0.000000
   86  C   6 YY   0.000000   0.000000   0.073557  -0.123294   0.000000
   87  C   6 ZZ   0.000000   0.000000   0.195049   0.055037   0.000000
   88  C   6 XY   0.000000   0.000000   0.517468  -0.101427   0.000000
   89  C   6 XZ  -0.029819  -0.081895   0.000000   0.000000  -0.104763
   90  C   6 YZ  -0.076160   0.022161   0.000000   0.000000   0.085398
   91  O   7  S   0.000000   0.000000  -0.103693   0.106847   0.000000
   92  O   7  S   0.000000   0.000000  -0.217695   0.213991   0.000000
   93  O   7  S   0.000000   0.000000  -0.076766  -0.631797   0.000000
   94  O   7  S   0.000000   0.000000   0.370008   0.043553   0.000000
   95  O   7  X   0.000000   0.000000   0.000000   0.000000   0.000000
   96  O   7  Y   0.000000   0.000000   0.162533  -0.027989   0.000000
   97  O   7  Z   0.000000   0.017752   0.000000   0.000000   0.026239
   98  O   7  X   0.000000   0.000000   0.000000   0.000000   0.000000
   99  O   7  Y   0.000000   0.000000  -0.116589   0.174653   0.000000
  100  O   7  Z   0.000000  -0.000305   0.000000   0.000000  -0.015085
  101  O   7  X   0.000000   0.000000   0.000000   0.000000   0.000000
  102  O   7  Y   0.000000   0.000000  -0.146895  -0.056040   0.000000
  103  O   7  Z   0.000000  -0.093980   0.000000   0.000000  -0.104008
  104  O   7 XX   0.000000   0.000000  -0.685761  -0.717064   0.000000
  105  O   7 YY   0.000000   0.000000   0.091561   0.002402   0.000000
  106  O   7 ZZ   0.000000   0.000000   0.594200   0.714662   0.000000
  107  O   7 XY   0.000000   0.000000   0.000000   0.000000   0.000000
  108  O   7 XZ   0.827164   0.000000   0.000000   0.000000   0.000000
  109  O   7 YZ   0.000000  -0.848904   0.000000   0.000000  -0.849144
  110  O   7 XX   0.000000   0.000000   0.412414   0.416980   0.000000
  111  O   7 YY   0.000000   0.000000   0.046102   0.005177   0.000000
  112  O   7 ZZ   0.000000   0.000000  -0.458516  -0.422157   0.000000
  113  O   7 XY   0.000000   0.000000   0.000000   0.000000   0.000000
  114  O   7 XZ  -0.424366   0.000000   0.000000   0.000000   0.000000
  115  O   7 YZ   0.000000   0.429888   0.000000   0.000000   0.440682
  116  O   8  S   0.000000   0.000000   0.103693   0.106847   0.000000
  117  O   8  S   0.000000   0.000000   0.217695   0.213991   0.000000
  118  O   8  S   0.000000   0.000000   0.076766  -0.631797   0.000000
  119  O   8  S   0.000000   0.000000  -0.370008   0.043553   0.000000
  120  O   8  X   0.000000   0.000000   0.000000   0.000000   0.000000
  121  O   8  Y   0.000000   0.000000   0.162533   0.027989   0.000000
  122  O   8  Z   0.000000   0.017752   0.000000   0.000000  -0.026239
  123  O   8  X   0.000000   0.000000   0.000000   0.000000   0.000000
  124  O   8  Y   0.000000   0.000000  -0.116589  -0.174653   0.000000
  125  O   8  Z   0.000000  -0.000305   0.000000   0.000000   0.015085
  126  O   8  X   0.000000   0.000000   0.000000   0.000000   0.000000
  127  O   8  Y   0.000000   0.000000  -0.146895   0.056040   0.000000
  128  O   8  Z   0.000000  -0.093980   0.000000   0.000000   0.104008
  129  O   8 XX   0.000000   0.000000   0.685761  -0.717064   0.000000
  130  O   8 YY   0.000000   0.000000  -0.091561   0.002402   0.000000
  131  O   8 ZZ   0.000000   0.000000  -0.594200   0.714662   0.000000
  132  O   8 XY   0.000000   0.000000   0.000000   0.000000   0.000000
  133  O   8 XZ  -0.827164   0.000000   0.000000   0.000000   0.000000
  134  O   8 YZ   0.000000   0.848904   0.000000   0.000000  -0.849144
  135  O   8 XX   0.000000   0.000000  -0.412414   0.416980   0.000000
  136  O   8 YY   0.000000   0.000000  -0.046102   0.005177   0.000000
  137  O   8 ZZ   0.000000   0.000000   0.458516  -0.422157   0.000000
  138  O   8 XY   0.000000   0.000000   0.000000   0.000000   0.000000
  139  O   8 XZ   0.424366   0.000000   0.000000   0.000000   0.000000
  140  O   8 YZ   0.000000  -0.429888   0.000000   0.000000   0.440682
  141  H   9  S   0.000000   0.000000   0.467234  -0.000763   0.000000
  142  H   9  S   0.000000   0.000000  -0.149875  -0.027423   0.000000
  143  H   9  X   0.000000   0.000000  -0.318210   0.027875   0.000000
  144  H   9  Y   0.000000   0.000000  -0.036322   0.098744   0.000000
  145  H   9  Z  -0.024042  -0.024283   0.000000   0.000000  -0.041280
  146  H  10  S   0.000000   0.000000  -0.467234  -0.000763   0.000000
  147  H  10  S   0.000000   0.000000   0.149875  -0.027423   0.000000
  148  H  10  X   0.000000   0.000000   0.318210   0.027875   0.000000
  149  H  10  Y   0.000000   0.000000  -0.036322  -0.098744   0.000000
  150  H  10  Z   0.024042  -0.024283   0.000000   0.000000   0.041280
  151  H  11  S   0.000000   0.000000  -0.467234  -0.000763   0.000000
  152  H  11  S   0.000000   0.000000   0.149875  -0.027423   0.000000
  153  H  11  X   0.000000   0.000000  -0.318210  -0.027875   0.000000
  154  H  11  Y   0.000000   0.000000  -0.036322  -0.098744   0.000000
  155  H  11  Z  -0.024042  -0.024283   0.000000   0.000000   0.041280
  156  H  12  S   0.000000   0.000000   0.467234  -0.000763   0.000000
  157  H  12  S   0.000000   0.000000  -0.149875  -0.027423   0.000000
  158  H  12  X   0.000000   0.000000   0.318210  -0.027875   0.000000
  159  H  12  Y   0.000000   0.000000  -0.036322   0.098744   0.000000
  160  H  12  Z   0.024042  -0.024283   0.000000   0.000000  -0.041280

                    146        147        148        149        150
                    3.8989     3.9192     3.9939     4.0062     4.1410
                     A          A          A          A          A   
    1  C   1  S   0.245259   0.000000   0.000000  -0.120977   0.046046
    2  C   1  S   0.546089   0.000000   0.000000  -0.347876   0.001574
    3  C   1  S   0.662591   0.000000   0.000000  -0.663235  -0.822403
    4  C   1  X   0.000000   0.063867   0.034162   0.000000   0.000000
    5  C   1  Y   0.339899   0.000000   0.000000  -0.532947  -0.419897
    6  C   1  Z   0.000000   0.000000   0.000000   0.000000   0.000000
    7  C   1  X   0.000000   0.140280  -0.250795   0.000000   0.000000
    8  C   1  Y   2.204547   0.000000   0.000000  -1.482318  -0.370724
    9  C   1  Z   0.000000   0.000000   0.000000   0.000000   0.000000
   10  C   1 XX   0.499926   0.000000   0.000000   0.341732   0.963713
   11  C   1 YY  -0.355626   0.000000   0.000000  -0.562503  -1.134614
   12  C   1 ZZ  -0.144299   0.000000   0.000000   0.220771   0.170901
   13  C   1 XY   0.000000  -0.549334  -0.616867   0.000000   0.000000
   14  C   1 XZ   0.000000   0.000000   0.000000   0.000000   0.000000
   15  C   1 YZ   0.000000   0.000000   0.000000   0.000000   0.000000
   16  C   2  S  -0.081797  -0.169711  -0.068040   0.030842  -0.111415
   17  C   2  S  -0.152494  -0.336796  -0.135975   0.063457  -0.193028
   18  C   2  S   1.742873   0.149915  -0.039351  -0.211914   1.036868
   19  C   2  X   0.191502   0.127566   0.114678   0.053039   0.223798
   20  C   2  Y   0.121786  -0.006807  -0.269613  -0.055414   0.111741
   21  C   2  Z   0.000000   0.000000   0.000000   0.000000   0.000000
   22  C   2  X  -0.342890  -0.026791  -0.341186   0.364630   0.082438
   23  C   2  Y  -0.922549   0.108454   0.354499   0.230018  -0.332453
   24  C   2  Z   0.000000   0.000000   0.000000   0.000000   0.000000
   25  C   2 XX   0.405849  -0.199853  -0.371614   0.082589   0.528231
   26  C   2 YY  -0.354869   0.224398   0.370564  -0.070302  -0.398862
   27  C   2 ZZ  -0.050980  -0.024544   0.001050  -0.012288  -0.129369
   28  C   2 XY   0.723872  -0.003064  -0.156611   0.068268   0.900863
   29  C   2 XZ   0.000000   0.000000   0.000000   0.000000   0.000000
   30  C   2 YZ   0.000000   0.000000   0.000000   0.000000   0.000000
   31  C   3  S   0.081797  -0.169711   0.068040   0.030842   0.111415
   32  C   3  S   0.152494  -0.336796   0.135975   0.063457   0.193028
   33  C   3  S  -1.742873   0.149915   0.039351  -0.211914  -1.036868
   34  C   3  X  -0.191502   0.127566  -0.114678   0.053039  -0.223798
   35  C   3  Y   0.121786   0.006807  -0.269613   0.055414   0.111741
   36  C   3  Z   0.000000   0.000000   0.000000   0.000000   0.000000
   37  C   3  X   0.342890  -0.026791   0.341186   0.364630  -0.082438
   38  C   3  Y  -0.922549  -0.108454   0.354499  -0.230018  -0.332453
   39  C   3  Z   0.000000   0.000000   0.000000   0.000000   0.000000
   40  C   3 XX  -0.405849  -0.199853   0.371614   0.082589  -0.528231
   41  C   3 YY   0.354869   0.224398  -0.370564  -0.070302   0.398862
   42  C   3 ZZ   0.050980  -0.024544  -0.001050  -0.012288   0.129369
   43  C   3 XY   0.723872   0.003064  -0.156611  -0.068268   0.900863
   44  C   3 XZ   0.000000   0.000000   0.000000   0.000000   0.000000
   45  C   3 YZ   0.000000   0.000000   0.000000   0.000000   0.000000
   46  C   4  S  -0.245259   0.000000   0.000000  -0.120977  -0.046046
   47  C   4  S  -0.546089   0.000000   0.000000  -0.347876  -0.001574
   48  C   4  S  -0.662591   0.000000   0.000000  -0.663235   0.822403
   49  C   4  X   0.000000   0.063867  -0.034162   0.000000   0.000000
   50  C   4  Y   0.339899   0.000000   0.000000   0.532947  -0.419897
   51  C   4  Z   0.000000   0.000000   0.000000   0.000000   0.000000
   52  C   4  X   0.000000   0.140280   0.250795   0.000000   0.000000
   53  C   4  Y   2.204547   0.000000   0.000000   1.482318  -0.370724
   54  C   4  Z   0.000000   0.000000   0.000000   0.000000   0.000000
   55  C   4 XX  -0.499926   0.000000   0.000000   0.341732  -0.963713
   56  C   4 YY   0.355626   0.000000   0.000000  -0.562503   1.134614
   57  C   4 ZZ   0.144299   0.000000   0.000000   0.220771  -0.170901
   58  C   4 XY   0.000000   0.549334  -0.616867   0.000000   0.000000
   59  C   4 XZ   0.000000   0.000000   0.000000   0.000000   0.000000
   60  C   4 YZ   0.000000   0.000000   0.000000   0.000000   0.000000
   61  C   5  S   0.081797   0.169711  -0.068040   0.030842   0.111415
   62  C   5  S   0.152494   0.336796  -0.135975   0.063457   0.193028
   63  C   5  S  -1.742873  -0.149915  -0.039351  -0.211914  -1.036868
   64  C   5  X   0.191502   0.127566  -0.114678  -0.053039   0.223798
   65  C   5  Y   0.121786  -0.006807   0.269613   0.055414   0.111741
   66  C   5  Z   0.000000   0.000000   0.000000   0.000000   0.000000
   67  C   5  X  -0.342890  -0.026791   0.341186  -0.364630   0.082438
   68  C   5  Y  -0.922549   0.108454  -0.354499  -0.230018  -0.332453
   69  C   5  Z   0.000000   0.000000   0.000000   0.000000   0.000000
   70  C   5 XX  -0.405849   0.199853  -0.371614   0.082589  -0.528231
   71  C   5 YY   0.354869  -0.224398   0.370564  -0.070302   0.398862
   72  C   5 ZZ   0.050980   0.024544   0.001050  -0.012288   0.129369
   73  C   5 XY  -0.723872   0.003064  -0.156611   0.068268  -0.900863
   74  C   5 XZ   0.000000   0.000000   0.000000   0.000000   0.000000
   75  C   5 YZ   0.000000   0.000000   0.000000   0.000000   0.000000
   76  C   6  S  -0.081797   0.169711   0.068040   0.030842  -0.111415
   77  C   6  S  -0.152494   0.336796   0.135975   0.063457  -0.193028
   78  C   6  S   1.742873  -0.149915   0.039351  -0.211914   1.036868
   79  C   6  X  -0.191502   0.127566   0.114678  -0.053039  -0.223798
   80  C   6  Y   0.121786   0.006807   0.269613  -0.055414   0.111741
   81  C   6  Z   0.000000   0.000000   0.000000   0.000000   0.000000
   82  C   6  X   0.342890  -0.026791  -0.341186  -0.364630  -0.082438
   83  C   6  Y  -0.922549  -0.108454  -0.354499   0.230018  -0.332453
   84  C   6  Z   0.000000   0.000000   0.000000   0.000000   0.000000
   85  C   6 XX   0.405849   0.199853   0.371614   0.082589   0.528231
   86  C   6 YY  -0.354869  -0.224398  -0.370564  -0.070302  -0.398862
   87  C   6 ZZ  -0.050980   0.024544  -0.001050  -0.012288  -0.129369
   88  C   6 XY  -0.723872  -0.003064  -0.156611  -0.068268  -0.900863
   89  C   6 XZ   0.000000   0.000000   0.000000   0.000000   0.000000
   90  C   6 YZ   0.000000   0.000000   0.000000   0.000000   0.000000
   91  O   7  S   0.393939   0.000000   0.000000  -0.197727   0.025658
   92  O   7  S   0.775948   0.000000   0.000000  -0.360161   0.088102
   93  O   7  S  -2.147127   0.000000   0.000000   1.901699   1.081339
   94  O   7  S  -0.563472   0.000000   0.000000   0.421188   0.182934
   95  O   7  X   0.000000   0.076756   0.084018   0.000000   0.000000
   96  O   7  Y  -0.117747   0.000000   0.000000  -0.165515  -0.324661
   97  O   7  Z   0.000000   0.000000   0.000000   0.000000   0.000000
   98  O   7  X   0.000000   0.063566   0.131306   0.000000   0.000000
   99  O   7  Y   0.843128   0.000000   0.000000  -0.862592  -0.579953
  100  O   7  Z   0.000000   0.000000   0.000000   0.000000   0.000000
  101  O   7  X   0.000000  -0.159746  -0.161179   0.000000   0.000000
  102  O   7  Y   0.076481   0.000000   0.000000   0.004126   0.044356
  103  O   7  Z   0.000000   0.000000   0.000000   0.000000   0.000000
  104  O   7 XX  -0.037213   0.000000   0.000000  -0.442880  -0.507265
  105  O   7 YY  -0.543686   0.000000   0.000000   0.902039   0.715424
  106  O   7 ZZ   0.580899   0.000000   0.000000  -0.459159  -0.208159
  107  O   7 XY   0.000000  -0.851932  -0.838467   0.000000   0.000000
  108  O   7 XZ   0.000000   0.000000   0.000000   0.000000   0.000000
  109  O   7 YZ   0.000000   0.000000   0.000000   0.000000   0.000000
  110  O   7 XX   0.127973   0.000000   0.000000   0.106130   0.166104
  111  O   7 YY   0.119636   0.000000   0.000000  -0.259886  -0.209434
  112  O   7 ZZ  -0.247609   0.000000   0.000000   0.153756   0.043330
  113  O   7 XY   0.000000   0.388604   0.352987   0.000000   0.000000
  114  O   7 XZ   0.000000   0.000000   0.000000   0.000000   0.000000
  115  O   7 YZ   0.000000   0.000000   0.000000   0.000000   0.000000
  116  O   8  S  -0.393939   0.000000   0.000000  -0.197727  -0.025658
  117  O   8  S  -0.775948   0.000000   0.000000  -0.360161  -0.088102
  118  O   8  S   2.147127   0.000000   0.000000   1.901699  -1.081339
  119  O   8  S   0.563472   0.000000   0.000000   0.421188  -0.182934
  120  O   8  X   0.000000   0.076756  -0.084018   0.000000   0.000000
  121  O   8  Y  -0.117747   0.000000   0.000000   0.165515  -0.324661
  122  O   8  Z   0.000000   0.000000   0.000000   0.000000   0.000000
  123  O   8  X   0.000000   0.063566  -0.131306   0.000000   0.000000
  124  O   8  Y   0.843128   0.000000   0.000000   0.862592  -0.579953
  125  O   8  Z   0.000000   0.000000   0.000000   0.000000   0.000000
  126  O   8  X   0.000000  -0.159746   0.161179   0.000000   0.000000
  127  O   8  Y   0.076481   0.000000   0.000000  -0.004126   0.044356
  128  O   8  Z   0.000000   0.000000   0.000000   0.000000   0.000000
  129  O   8 XX   0.037213   0.000000   0.000000  -0.442880   0.507265
  130  O   8 YY   0.543686   0.000000   0.000000   0.902039  -0.715424
  131  O   8 ZZ  -0.580899   0.000000   0.000000  -0.459159   0.208159
  132  O   8 XY   0.000000   0.851932  -0.838467   0.000000   0.000000
  133  O   8 XZ   0.000000   0.000000   0.000000   0.000000   0.000000
  134  O   8 YZ   0.000000   0.000000   0.000000   0.000000   0.000000
  135  O   8 XX  -0.127973   0.000000   0.000000   0.106130  -0.166104
  136  O   8 YY  -0.119636   0.000000   0.000000  -0.259886   0.209434
  137  O   8 ZZ   0.247609   0.000000   0.000000   0.153756  -0.043330
  138  O   8 XY   0.000000  -0.388604   0.352987   0.000000   0.000000
  139  O   8 XZ   0.000000   0.000000   0.000000   0.000000   0.000000
  140  O   8 YZ   0.000000   0.000000   0.000000   0.000000   0.000000
  141  H   9  S  -0.530207   0.028583   0.216827  -0.113177  -0.706943
  142  H   9  S   0.186993   0.021666   0.112219  -0.191116  -0.068453
  143  H   9  X   0.295494   0.003849  -0.067863   0.015519   0.336292
  144  H   9  Y   0.186376  -0.113040  -0.171193   0.069199   0.241452
  145  H   9  Z   0.000000   0.000000   0.000000   0.000000   0.000000
  146  H  10  S   0.530207   0.028583  -0.216827  -0.113177   0.706943
  147  H  10  S  -0.186993   0.021666  -0.112219  -0.191116   0.068453
  148  H  10  X  -0.295494   0.003849   0.067863   0.015519  -0.336292
  149  H  10  Y   0.186376   0.113040  -0.171193  -0.069199   0.241452
  150  H  10  Z   0.000000   0.000000   0.000000   0.000000   0.000000
  151  H  11  S   0.530207  -0.028583   0.216827  -0.113177   0.706943
  152  H  11  S  -0.186993  -0.021666   0.112219  -0.191116   0.068453
  153  H  11  X   0.295494   0.003849   0.067863  -0.015519   0.336292
  154  H  11  Y   0.186376  -0.113040   0.171193  -0.069199   0.241452
  155  H  11  Z   0.000000   0.000000   0.000000   0.000000   0.000000
  156  H  12  S  -0.530207  -0.028583  -0.216827  -0.113177  -0.706943
  157  H  12  S   0.186993  -0.021666  -0.112219  -0.191116  -0.068453
  158  H  12  X  -0.295494   0.003849  -0.067863  -0.015519  -0.336292
  159  H  12  Y   0.186376   0.113040   0.171193   0.069199   0.241452
  160  H  12  Z   0.000000   0.000000   0.000000   0.000000   0.000000

 WARNING! THIS VERSION OF FIREFLY IS PROBABLY OUTDATED!
 PLEASE CHECK FIREFLY HOMEPAGE FOR INFORMATION ON UPDATES!

 ...... END OF RHF CALCULATION ......

                         TIMING STATISTICS ON RANK 0:
 CPU        TIME:   STEP =     10.92 ,  TOTAL =       11.2 SECONDS (    0.2 MIN)
 WALL CLOCK TIME:   STEP =     10.49 ,  TOTAL =       10.7 SECONDS (    0.2 MIN)
 CPU UTILIZATION:   STEP =    104.14%,  TOTAL =     104.74%


                         ------------------------------
                         properties for the RHF density
                         ------------------------------

          -----------------
          ENERGY COMPONENTS
          -----------------

         WAVEFUNCTION NORMALIZATION =       1.0000000000

                ONE ELECTRON ENERGY =   -1167.7809755364
                TWO ELECTRON ENERGY =     459.5204947396
           NUCLEAR REPULSION ENERGY =     329.0155399456
                                      ------------------
                       TOTAL ENERGY =    -379.2449408512

 ELECTRON-ELECTRON POTENTIAL ENERGY =     459.5204947396
  NUCLEUS-ELECTRON POTENTIAL ENERGY =   -1547.0955161509
   NUCLEUS-NUCLEUS POTENTIAL ENERGY =     329.0155399456
                                      ------------------
             TOTAL POTENTIAL ENERGY =    -758.5594814657
               TOTAL KINETIC ENERGY =     379.3145406145
                 VIRIAL RATIO (V/T) =       1.9998165117

  ...... PI ENERGY ANALYSIS ......

 ENERGY ANALYSIS:
            FOCK ENERGY=    -248.7399822305
          BARE H ENERGY=   -1167.7809755364
     ELECTRONIC ENERGY =    -708.2604788835
         KINETIC ENERGY=     379.3145406145
          N-N REPULSION=     329.0155399456
           TOTAL ENERGY=    -379.2449389379
        SIGMA PART(1+2)=    -645.0610557283
               (K,V1,2)=     368.4001256437   -1413.7177012271     400.2565198551
           PI PART(1+2)=     -63.1994231552
               (K,V1,2)=      10.9144149708    -133.3778149237      59.2639767978
  SIGMA SKELETON, ERROR=    -316.0455157827       0.0000000000
             MIXED PART= 0.00000E+00 0.00000E+00 0.00000E+00 0.00000E+00
 ...... END OF PI ENERGY ANALYSIS ......

          ---------------------------------------
          MULLIKEN AND LOWDIN POPULATION ANALYSES
          ---------------------------------------

     MULLIKEN ATOMIC POPULATION IN EACH MOLECULAR ORBITAL

                      1          2          3          4          5

                  2.000000   2.000000   2.000000   2.000000   2.000000

    1             0.000864   0.000715   1.000753   1.000151   0.000620
    2            -0.000006   0.000006  -0.000057   0.000180   0.499660
    3            -0.000006   0.000006  -0.000057   0.000180   0.499660
    4             0.000864   0.000715   1.000753   1.000151   0.000620
    5            -0.000006   0.000006  -0.000057   0.000180   0.499660
    6            -0.000006   0.000006  -0.000057   0.000180   0.499660
    7             0.999137   0.999262  -0.000611  -0.000510   0.000000
    8             0.999137   0.999262  -0.000611  -0.000510   0.000000
    9             0.000005   0.000005  -0.000014  -0.000001   0.000030
   10             0.000005   0.000005  -0.000014  -0.000001   0.000030
   11             0.000005   0.000005  -0.000014  -0.000001   0.000030
   12             0.000005   0.000005  -0.000014  -0.000001   0.000030

                      6          7          8          9         10

                  2.000000   2.000000   2.000000   2.000000   2.000000

    1             0.000841   0.000748   0.000878   0.291523   0.265461
    2             0.499441   0.499682   0.499573   0.018006   0.011192
    3             0.499441   0.499682   0.499573   0.018006   0.011192
    4             0.000841   0.000748   0.000878   0.291523   0.265461
    5             0.499441   0.499682   0.499573   0.018006   0.011192
    6             0.499441   0.499682   0.499573   0.018006   0.011192
    7             0.000334  -0.000019   0.000164   0.673013   0.712748
    8             0.000334  -0.000019   0.000164   0.673013   0.712748
    9            -0.000029  -0.000046  -0.000094  -0.000273  -0.000296
   10            -0.000029  -0.000046  -0.000094  -0.000273  -0.000296
   11            -0.000029  -0.000046  -0.000094  -0.000273  -0.000296
   12            -0.000029  -0.000046  -0.000094  -0.000273  -0.000296

                     11         12         13         14         15

                  2.000000   2.000000   2.000000   2.000000   2.000000

    1             0.194114   0.118559   0.349536   0.234795   0.180254
    2             0.344638   0.382571   0.233369   0.272347   0.283258
    3             0.344638   0.382571   0.233369   0.272347   0.283258
    4             0.194114   0.118559   0.349536   0.234795   0.180254
    5             0.344638   0.382571   0.233369   0.272347   0.283258
    6             0.344638   0.382571   0.233369   0.272347   0.283258
    7             0.076900   0.011489   0.134038   0.067140   0.105517
    8             0.076900   0.011489   0.134038   0.067140   0.105517
    9             0.019855   0.052406   0.024844   0.076685   0.073856
   10             0.019855   0.052406   0.024844   0.076685   0.073856
   11             0.019855   0.052406   0.024844   0.076685   0.073856
   12             0.019855   0.052406   0.024844   0.076685   0.073856

                     16         17         18         19         20

                  2.000000   2.000000   2.000000   2.000000   2.000000

    1             0.269566   0.117160   0.086760   0.210603   0.034285
    2             0.262014   0.153436   0.140988   0.118254   0.312650
    3             0.262014   0.153436   0.140988   0.118254   0.312650
    4             0.269566   0.117160   0.086760   0.210603   0.034285
    5             0.262014   0.153436   0.140988   0.118254   0.312650
    6             0.262014   0.153436   0.140988   0.118254   0.312650
    7             0.200515   0.448737   0.356461   0.395203   0.003962
    8             0.200515   0.448737   0.356461   0.395203   0.003962
    9             0.002945   0.063615   0.137401   0.078842   0.168226
   10             0.002945   0.063615   0.137401   0.078842   0.168226
   11             0.002945   0.063615   0.137401   0.078842   0.168226
   12             0.002945   0.063615   0.137401   0.078842   0.168226

                     21         22         23         24         25

                  2.000000   2.000000   2.000000   2.000000   2.000000

    1             0.344087   0.111232   0.115133   0.348040   0.054073
    2             0.163665   0.157371   0.245579   0.026105   0.094415
    3             0.163665   0.157371   0.245579   0.026105   0.094415
    4             0.344087   0.111232   0.115133   0.348040   0.054073
    5             0.163665   0.157371   0.245579   0.026105   0.094415
    6             0.163665   0.157371   0.245579   0.026105   0.094415
    7             0.327127   0.282005   0.282067   0.599467   0.752915
    8             0.327127   0.282005   0.282067   0.599467   0.752915
    9             0.000728   0.146010   0.055821   0.000142   0.002091
   10             0.000728   0.146010   0.055821   0.000142   0.002091
   11             0.000728   0.146010   0.055821   0.000142   0.002091
   12             0.000728   0.146010   0.055821   0.000142   0.002091

                     26         27         28

                  2.000000   2.000000   2.000000

    1             0.099057   0.023645   0.014185
    2             0.107409   0.270845   0.490122
    3             0.107409   0.270845   0.490122
    4             0.099057   0.023645   0.014185
    5             0.107409   0.270845   0.490122
    6             0.107409   0.270845   0.490122
    7             0.623792   0.432270  -0.000334
    8             0.623792   0.432270  -0.000334
    9             0.031166   0.001198   0.002952
   10             0.031166   0.001198   0.002952
   11             0.031166   0.001198   0.002952
   12             0.031166   0.001198   0.002952

               ----- POPULATIONS IN EACH AO -----
                             MULLIKEN      LOWDIN
              1  C   1  S     2.00569     1.81269
              2  C   1  S     0.69651     0.48504
              3  C   1  S     0.32793     0.20509
              4  C   1  X     0.78309     0.65325
              5  C   1  Y     0.75961     0.66575
              6  C   1  Z     0.44138     0.37136
              7  C   1  X     0.04734     0.26170
              8  C   1  Y    -0.03543     0.21713
              9  C   1  Z     0.23664     0.27800
             10  C   1 XX     0.02397     0.17830
             11  C   1 YY     0.03106     0.20536
             12  C   1 ZZ     0.00540     0.06667
             13  C   1 XY     0.09251     0.21167
             14  C   1 XZ     0.01419     0.03302
             15  C   1 YZ     0.03775     0.07770
             16  C   2  S     2.00471     1.86757
             17  C   2  S     0.66861     0.48610
             18  C   2  S     0.50016     0.25901
             19  C   2  X     0.74197     0.64743
             20  C   2  Y     0.76114     0.66944
             21  C   2  Z     0.49898     0.44895
             22  C   2  X     0.22182     0.32839
             23  C   2  Y     0.18040     0.28758
             24  C   2  Z     0.43303     0.43459
             25  C   2 XX     0.01231     0.18143
             26  C   2 YY     0.01209     0.18210
             27  C   2 ZZ     0.00279     0.08799
             28  C   2 XY     0.02997     0.07258
             29  C   2 XZ     0.00475     0.00912
             30  C   2 YZ     0.01398     0.02619
             31  C   3  S     2.00471     1.86757
             32  C   3  S     0.66861     0.48610
             33  C   3  S     0.50016     0.25901
             34  C   3  X     0.74197     0.64743
             35  C   3  Y     0.76114     0.66944
             36  C   3  Z     0.49898     0.44895
             37  C   3  X     0.22182     0.32839
             38  C   3  Y     0.18040     0.28758
             39  C   3  Z     0.43303     0.43459
             40  C   3 XX     0.01231     0.18143
             41  C   3 YY     0.01209     0.18210
             42  C   3 ZZ     0.00279     0.08799
             43  C   3 XY     0.02997     0.07258
             44  C   3 XZ     0.00475     0.00912
             45  C   3 YZ     0.01398     0.02619
             46  C   4  S     2.00569     1.81269
             47  C   4  S     0.69651     0.48504
             48  C   4  S     0.32793     0.20509
             49  C   4  X     0.78309     0.65325
             50  C   4  Y     0.75961     0.66575
             51  C   4  Z     0.44138     0.37136
             52  C   4  X     0.04734     0.26170
             53  C   4  Y    -0.03543     0.21713
             54  C   4  Z     0.23664     0.27800
             55  C   4 XX     0.02397     0.17830
             56  C   4 YY     0.03106     0.20536
             57  C   4 ZZ     0.00540     0.06667
             58  C   4 XY     0.09251     0.21167
             59  C   4 XZ     0.01419     0.03302
             60  C   4 YZ     0.03775     0.07770
             61  C   5  S     2.00471     1.86757
             62  C   5  S     0.66861     0.48610
             63  C   5  S     0.50016     0.25901
             64  C   5  X     0.74197     0.64743
             65  C   5  Y     0.76114     0.66944
             66  C   5  Z     0.49898     0.44895
             67  C   5  X     0.22182     0.32839
             68  C   5  Y     0.18040     0.28758
             69  C   5  Z     0.43303     0.43459
             70  C   5 XX     0.01231     0.18143
             71  C   5 YY     0.01209     0.18210
             72  C   5 ZZ     0.00279     0.08799
             73  C   5 XY     0.02997     0.07258
             74  C   5 XZ     0.00475     0.00912
             75  C   5 YZ     0.01398     0.02619
             76  C   6  S     2.00471     1.86757
             77  C   6  S     0.66861     0.48610
             78  C   6  S     0.50016     0.25901
             79  C   6  X     0.74197     0.64743
             80  C   6  Y     0.76114     0.66944
             81  C   6  Z     0.49898     0.44895
             82  C   6  X     0.22182     0.32839
             83  C   6  Y     0.18040     0.28758
             84  C   6  Z     0.43303     0.43459
             85  C   6 XX     0.01231     0.18143
             86  C   6 YY     0.01209     0.18210
             87  C   6 ZZ     0.00279     0.08799
             88  C   6 XY     0.02997     0.07258
             89  C   6 XZ     0.00475     0.00912
             90  C   6 YZ     0.01398     0.02619
             91  O   7  S     2.00332     1.87419
             92  O   7  S     0.84860     0.64162
             93  O   7  S     0.96978     0.41720
             94  O   7  S     0.04757     0.11087
             95  O   7  X     1.14064     1.09276
             96  O   7  Y     0.89744     0.84220
             97  O   7  Z     0.72485     0.67950
             98  O   7  X     0.74342     0.65068
             99  O   7  Y     0.41354     0.52069
            100  O   7  Z     0.58050     0.56419
            101  O   7  X     0.04588     0.09331
            102  O   7  Y    -0.01066     0.07776
            103  O   7  Z     0.03141     0.08541
            104  O   7 XX     0.00175     0.17734
            105  O   7 YY     0.00650     0.19798
            106  O   7 ZZ     0.00151     0.17623
            107  O   7 XY     0.00328     0.00379
            108  O   7 XZ     0.00003     0.00000
            109  O   7 YZ     0.00585     0.00509
            110  O   7 XX     0.00094     0.05515
            111  O   7 YY     0.00183     0.12229
            112  O   7 ZZ     0.00033     0.05043
            113  O   7 XY     0.00858     0.07060
            114  O   7 XZ    -0.00036     0.00096
            115  O   7 YZ     0.01625     0.03500
            116  O   8  S     2.00332     1.87419
            117  O   8  S     0.84860     0.64162
            118  O   8  S     0.96978     0.41720
            119  O   8  S     0.04757     0.11087
            120  O   8  X     1.14064     1.09276
            121  O   8  Y     0.89744     0.84220
            122  O   8  Z     0.72485     0.67950
            123  O   8  X     0.74342     0.65068
            124  O   8  Y     0.41354     0.52069
            125  O   8  Z     0.58050     0.56419
            126  O   8  X     0.04588     0.09331
            127  O   8  Y    -0.01066     0.07776
            128  O   8  Z     0.03141     0.08541
            129  O   8 XX     0.00175     0.17734
            130  O   8 YY     0.00650     0.19798
            131  O   8 ZZ     0.00151     0.17623
            132  O   8 XY     0.00328     0.00379
            133  O   8 XZ     0.00003     0.00000
            134  O   8 YZ     0.00585     0.00509
            135  O   8 XX     0.00094     0.05515
            136  O   8 YY     0.00183     0.12229
            137  O   8 ZZ     0.00033     0.05043
            138  O   8 XY     0.00858     0.07060
            139  O   8 XZ    -0.00036     0.00096
            140  O   8 YZ     0.01625     0.03500
            141  H   9  S     0.74881     0.58312
            142  H   9  S     0.15663     0.22099
            143  H   9  X     0.01898     0.03648
            144  H   9  Y     0.00864     0.02092
            145  H   9  Z     0.00502     0.01604
            146  H  10  S     0.74881     0.58312
            147  H  10  S     0.15663     0.22099
            148  H  10  X     0.01898     0.03648
            149  H  10  Y     0.00864     0.02092
            150  H  10  Z     0.00502     0.01604
            151  H  11  S     0.74881     0.58312
            152  H  11  S     0.15663     0.22099
            153  H  11  X     0.01898     0.03648
            154  H  11  Y     0.00864     0.02092
            155  H  11  Z     0.00502     0.01604
            156  H  12  S     0.74881     0.58312
            157  H  12  S     0.15663     0.22099
            158  H  12  X     0.01898     0.03648
            159  H  12  Y     0.00864     0.02092
            160  H  12  Z     0.00502     0.01604

          ----- MULLIKEN ATOMIC OVERLAP POPULATIONS -----
          (OFF-DIAGONAL ELEMENTS NEED TO BE MULTIPLIED BY 2)

             1           2           3           4           5

    1    4.3336018
    2    0.4148087   4.9188072
    3   -0.0454345   0.5660681   4.9188072
    4   -0.0175474  -0.0454345   0.4148087   4.3336018
    5   -0.0454345  -0.0083851  -0.0967478   0.4148087   4.9188072
    6    0.4148087  -0.0967478  -0.0083851  -0.0454345   0.5660681
    7    0.4257387  -0.0612292   0.0054218  -0.0008628   0.0054218
    8   -0.0008628   0.0054218  -0.0612292   0.4257387  -0.0612292
    9   -0.0111454   0.4231664  -0.0353194   0.0051255  -0.0008685
   10    0.0051255  -0.0353194   0.4231664  -0.0111454   0.0064239
   11    0.0051255  -0.0008685   0.0064239  -0.0111454   0.4231664
   12   -0.0111454   0.0064239  -0.0008685   0.0051255  -0.0353194

             6           7           8           9          10

    6    4.9188072
    7   -0.0612292   8.1861141
    8    0.0054218   0.0003534   8.1861141
    9    0.0064239  -0.0082088  -0.0002596   0.5665138
   10   -0.0008685  -0.0002596  -0.0082088  -0.0072930   0.5665138
   11   -0.0353194  -0.0002596  -0.0082088   0.0000017  -0.0000635
   12    0.4231664  -0.0082088  -0.0002596  -0.0000635   0.0000017

            11          12

   11    0.5665138
   12   -0.0072930   0.5665138

          TOTAL MULLIKEN AND LOWDIN ATOMIC POPULATIONS
       ATOM         MULL.POP.    CHARGE          LOW.POP.     CHARGE
    1 C             5.467639    0.532361         5.722708    0.277292
    2 C             6.086712   -0.086712         5.988465    0.011535
    3 C             6.086712   -0.086712         5.988465    0.011535
    4 C             5.467639    0.532361         5.722708    0.277292
    5 C             6.086712   -0.086712         5.988465    0.011535
    6 C             6.086712   -0.086712         5.988465    0.011535
    7 O             8.482792   -0.482792         8.545253   -0.545253
    8 O             8.482792   -0.482792         8.545253   -0.545253
    9 H             0.938073    0.061927         0.877555    0.122445
   10 H             0.938073    0.061927         0.877555    0.122445
   11 H             0.938073    0.061927         0.877555    0.122445
   12 H             0.938073    0.061927         0.877555    0.122445

          -------------------------------
          BOND ORDER AND VALENCE ANALYSIS     BOND ORDER THRESHOLD=0.050
          -------------------------------

                   BOND                       BOND                       BOND
  ATOM PAIR DIST  ORDER      ATOM PAIR DIST  ORDER      ATOM PAIR DIST  ORDER
    1   2  1.400  1.087        1   6  1.400  1.087        1   7  1.220  1.639
    2   3  1.400  1.815        2   8  3.534  0.051        2   9  1.082  0.978
    3   4  1.400  1.087        3   7  3.534  0.051        3  10  1.082  0.978
    4   5  1.400  1.087        4   8  1.220  1.639        5   6  1.400  1.815
    5   7  3.534  0.051        5  11  1.082  0.978        6   8  3.534  0.051
    6  12  1.082  0.978

                       TOTAL       BONDED        FREE
      ATOM            VALENCE     VALENCE     VALENCE
    1 C                 3.854       3.854       0.000
    2 C                 3.911       3.911       0.000
    3 C                 3.911       3.911       0.000
    4 C                 3.854       3.854       0.000
    5 C                 3.911       3.911       0.000
    6 C                 3.911       3.911       0.000
    7 O                 1.765       1.765       0.000
    8 O                 1.765       1.765       0.000
    9 H                 0.994       0.994       0.000
   10 H                 0.994       0.994       0.000
   11 H                 0.994       0.994       0.000
   12 H                 0.994       0.994       0.000

          ---------------------
          ELECTROSTATIC MOMENTS
          ---------------------

 POINT   1           X           Y           Z (BOHR)    CHARGE
                 0.000000    0.000000    0.000000        0.00 (A.U.)
         DX          DY          DZ         /D/  (DEBYE)
     0.000000    0.000000    0.000000    0.000000
 ...... END OF PROPERTY EVALUATION ......

                         TIMING STATISTICS ON RANK 0:
 CPU        TIME:   STEP =      0.02 ,  TOTAL =       11.2 SECONDS (    0.2 MIN)
 WALL CLOCK TIME:   STEP =      0.03 ,  TOTAL =       10.7 SECONDS (    0.2 MIN)
 CPU UTILIZATION:   STEP =     74.28%,  TOTAL =     104.66%
 ......END OF NBO ANALYSIS......

                         TIMING STATISTICS ON RANK 0:
 CPU        TIME:   STEP =      0.01 ,  TOTAL =       11.2 SECONDS (    0.2 MIN)
 WALL CLOCK TIME:   STEP =      0.01 ,  TOTAL =       10.7 SECONDS (    0.2 MIN)
 CPU UTILIZATION:   STEP =    194.25%,  TOTAL =     104.71%

          ---------------------------------------------
             ATOMIC ORBITAL BASIS CI-SINGLES ENERGY
             PROGRAM WRITTEN BY SIMON P. WEBB
          ---------------------------------------------

 # CORE ORBITALS      =    8
 # OCCUPIED ORBITALS  =   20
 # MOLECULAR ORBITALS =  150
 # BASIS FUNCTIONS    =  160

 NUMBER OF CIS   SPIN-ADAPTED ANTISYMMETRIZED PRODUCTS (SAPS) IS    2440

 APPROXIMATING CIS HAMILTONIAN DIAGONAL ELEMENTS USING ONLY ORBITAL ENERGIES

 -CIS- HAM. DIAGONAL ELEMENTS  TOOK      0.000 SECONDS

 MIN MEMORY REQ. FOR CIS   ENERGY FOCK-LIKE BUILDS =     51205 WORDS
 MEMORY REQ. FOR SINGLE BATCH BUILDS               =    512005 WORDS
 MEMORY AVAILABLE                                  = 199639557 WORDS

 SINGLE BATCH ENERGY CALCULATION WILL BE PERFORMED

 UNIT VECTOR GUESS AT CIS   COEFICIENTS ...

 -------------------------------------------------------------------
 USING DAVIDSON ALGORITHM TO FIND CIS   EIGENVALUES AND EIGENVECTORS
 -------------------------------------------------------------------

 NUMBER OF STATES REQUESTED =     4
 NUMBER OF GUESS VECTORS    =    10
 MAX. NUMB. OF EXPAN. VECS. =    32
 MAX. NUMB. OF ITERATIONS   =    50
 CONVERGENCE CRITERION      =    1.0E-05

 STARTING DAVIDSON ITERATIONS

 STATE      ITERATION      ENERGY         RESIDUE NORM
   1            1     -379.0699983833     0.13404611
   2            1     -379.0543246570     0.12941439
   3            1     -379.0528110567     0.12225283
   4            1     -378.9988114283     0.16966378

   1            2     -379.1034372153     0.03549933
   2            2     -379.0974152198     0.04180719
   3            2     -379.0840112001     0.02303282
   4            2     -379.0238543929     0.04634621

   1            3     -379.1053536154     0.00966432
   2            3     -379.1010368241     0.01698894
   3            3     -379.0855299098     0.00954705
   4            3     -379.0301153300     0.02874255

   1            4     -379.1055319362     0.00303100
   2            4     -379.1015702768     0.00461894
   3            4     -379.0856776085     0.00219431
   4            4     -379.0313201957     0.01137230

   1            5     -379.1055462634     0.00084829
   2            5     -379.1015992364     0.00092053
   3            5     -379.0856837466     0.00033836
   4            5     -379.0314747840     0.00354599

   1            6     -379.1055474558     0.00022855
   2            6     -379.1016002528     0.00015872
   3            6     -379.0856838471     0.00005321
   4            6     -379.0314930562     0.00133252

   1            7     -379.1055475310     0.00003949
   2            7     -379.1016002894     0.00003622
   3            7     -379.0856838495     0.00001040
   4            7     -379.0314955550     0.00055486

   1            8     -379.1055475330     0.00000858
   2            8     -379.1016002909     0.00000616
   3            8     -379.0856838496     0.00000146
   4            8     -379.0314959863     0.00013445

   1            9     -379.1055475330     0.00000858
   2            9     -379.1016002909     0.00000616
   3            9     -379.0856838496     0.00000146
   4            9     -379.0314960000     0.00002814

   1           10     -379.1055475330     0.00000858
   2           10     -379.1016002909     0.00000616
   3           10     -379.0856838496     0.00000146
   4           10     -379.0314960009     0.00000829

 ALL STATES CONVERGED IN   10 ITERATIONS

 CONVERGED STATE    1 ENERGY=     -379.1055475330
 CONVERGED STATE    2 ENERGY=     -379.1016002909
 CONVERGED STATE    3 ENERGY=     -379.0856838496
 CONVERGED STATE    4 ENERGY=     -379.0314960009


        --------------------------------------------------------
        RESULTS FROM SPIN-ADAPTED ANTISYMMETRIZED PRODUCT (SAPS)
        BASED ATOMIC ORBITAL CI-SINGLES ENERGY CALCULATION
        --------------------------------------------------------

 PRINTING CIS   COEFFICIENTS LARGER THAN  0.050000

 RHF REFERENCE ENERGY  =      -379.2449408512


 EXCITED STATE   1  ENERGY=      -379.1055475330  S = 0.0  SPACE SYM = A   

          ----------------------------------------------
          SINGLE EXCITATION               SAP COEFFICENT
          FROM MO     TO MO
          ----------------------------------------------
            16         44                  -0.05147924
            22         31                   0.07492342
            22         39                  -0.09620302
            23         30                  -0.06412198
            25         29                   0.91324397
            25         44                  -0.14067260
            26         31                   0.22749529
            26         39                  -0.24292545
          ----------------------------------------------


 EXCITED STATE   2  ENERGY=      -379.1016002909  S = 0.0  SPACE SYM = A   

          ----------------------------------------------
          SINGLE EXCITATION               SAP COEFFICENT
          FROM MO     TO MO
          ----------------------------------------------
            22         29                  -0.12772958
            22         44                   0.07402761
            25         31                  -0.24233475
            25         39                   0.25928076
            26         29                  -0.90381028
            26         44                   0.13469103
          ----------------------------------------------


 EXCITED STATE   3  ENERGY=      -379.0856838496  S = 0.0  SPACE SYM = A   

          ----------------------------------------------
          SINGLE EXCITATION               SAP COEFFICENT
          FROM MO     TO MO
          ----------------------------------------------
            27         30                   0.12340162
            28         29                  -0.98361649
          ----------------------------------------------


 EXCITED STATE   4  ENERGY=      -379.0314960009  S = 0.0  SPACE SYM = A   

          ----------------------------------------------
          SINGLE EXCITATION               SAP COEFFICENT
          FROM MO     TO MO
          ----------------------------------------------
            23         46                  -0.06491650
            24         31                   0.09253014
            25         37                   0.07768899
            25         49                  -0.07427364
            26         47                  -0.05607525
            27         29                  -0.96290204
            28         30                  -0.11074275
          ----------------------------------------------

 ------------------------------------------------------------------------------
                        CI-SINGLES EXCITATION ENERGIES
 STATE       HARTREE        EV      KCAL/MOL       CM-1   NANOMETERS  OSC. STR.
 ------------------------------------------------------------------------------
  1A      0.1393933182    3.7931     87.4706     30593.30     326.87  0.0000000
  1A      0.1433405603    3.9005     89.9476     31459.62     317.87  0.0000000
  1A      0.1592570016    4.3336     99.9353     34952.87     286.10  0.0000000
  1A      0.2134448503    5.8081    133.9387     46845.73     213.47  1.0309692


              Unrelaxed dipole moments and transition dipoles
               States                  <i|mu|j>     (e*bohr)
               i    j         x            y            z

               0    0    0.0000000    0.0000000    0.0000000
               0    1    0.0000000    0.0000000    0.0000000
               0    2    0.0000000    0.0000000    0.0000000
               0    3    0.0000000    0.0000000    0.0000000
               0    4    0.0000000   -2.6916937    0.0000000

               1    0    0.0000000    0.0000000    0.0000000
               1    1    0.0000000    0.0000000    0.0000000
               1    2    0.0000000    2.4314491    0.0000000
               1    3    0.0000000    0.0000000   -0.0175997
               1    4    0.0000000    0.0000000    0.0000000

               2    0    0.0000000    0.0000000    0.0000000
               2    1    0.0000000    2.4314491    0.0000000
               2    2    0.0000000    0.0000000    0.0000000
               2    3    0.0000000    0.0000000    0.0000000
               2    4    0.0000000    0.0000000    0.0000000

               3    0    0.0000000    0.0000000    0.0000000
               3    1    0.0000000    0.0000000   -0.0175997
               3    2    0.0000000    0.0000000    0.0000000
               3    3    0.0000000    0.0000000    0.0000000
               3    4    1.5497006    0.0000000    0.0000000

               4    0    0.0000000   -2.6916937    0.0000000
               4    1    0.0000000    0.0000000    0.0000000
               4    2    0.0000000    0.0000000    0.0000000
               4    3    1.5497006    0.0000000    0.0000000
               4    4    0.0000000    0.0000000    0.0000000


 -CIS- ENERGY                  TOOK     11.500 SECONDS

 CIS   NATURAL ORBITAL OCCUPATION NUMBERS FOR EXCITED STATE    1 ARE
  2.0000 2.0000 2.0000 2.0000 2.0000 2.0000 2.0000 2.0000 2.0000 2.0000
  2.0000 2.0000 2.0000 2.0000 2.0000 2.0000 2.0000 2.0000 2.0000 2.0000
  1.9999 1.9999 1.9998 1.9995 1.9967 1.9941 1.8688 1.1414 0.8586 0.1312
  0.0059 0.0033 0.0005 0.0002 0.0001 0.0001 0.0000 0.0000 0.0000 0.0000
  0.0000 0.0000 0.0000 0.0000 0.0000 0.0000 0.0000 0.0000 0.0000 0.0000
  0.0000 0.0000 0.0000 0.0000 0.0000 0.0000 0.0000 0.0000 0.0000 0.0000
  0.0000 0.0000 0.0000 0.0000 0.0000 0.0000 0.0000 0.0000 0.0000 0.0000
  0.0000 0.0000 0.0000 0.0000 0.0000 0.0000 0.0000 0.0000 0.0000 0.0000
  0.0000 0.0000 0.0000 0.0000 0.0000 0.0000 0.0000 0.0000 0.0000 0.0000
  0.0000 0.0000 0.0000 0.0000 0.0000 0.0000 0.0000 0.0000 0.0000 0.0000
  0.0000 0.0000 0.0000 0.0000 0.0000 0.0000 0.0000 0.0000 0.0000 0.0000
  0.0000 0.0000 0.0000 0.0000 0.0000 0.0000 0.0000 0.0000 0.0000 0.0000
  0.0000 0.0000 0.0000 0.0000 0.0000 0.0000 0.0000 0.0000 0.0000 0.0000
  0.0000 0.0000 0.0000 0.0000 0.0000 0.0000 0.0000 0.0000 0.0000 0.0000
  0.0000 0.0000 0.0000 0.0000 0.0000 0.0000 0.0000 0.0000 0.0000 0.0000
  0.0000 0.0000 0.0000 0.0000 0.0000 0.0000 0.0000 0.0000 0.0000 0.0000
 THERE ARE    55.0000 ELECTRONS IN PRINCIPAL CIS   NATURAL ORBITALS.
 THERE ARE     1.0000 ELECTRONS IN SECONDARY CIS   NATURAL ORBITALS.
 CIS   NATURAL ORBITALS HAVE BEEN PUNCHED.

 ..... DONE WITH CIS ENERGY .....


                         TIMING STATISTICS ON RANK 0:
 CPU        TIME:   STEP =     11.55 ,  TOTAL =       22.8 SECONDS (    0.4 MIN)
 WALL CLOCK TIME:   STEP =     11.03 ,  TOTAL =       21.8 SECONDS (    0.4 MIN)
 CPU UTILIZATION:   STEP =    104.74%,  TOTAL =     104.73%

     -----------------------------------------------------------
     CIS PROPERTIES...FOR THE WAVEFUNCTION OF EXCITED STATE    1
                (USING THE EXPECTATION VALUE DENSITY)
     -----------------------------------------------------------


                         -----------------------------
                         properties for the CI density
                         -----------------------------

          -----------------
          ENERGY COMPONENTS
          -----------------

         WAVEFUNCTION NORMALIZATION =       1.0000000000

                ONE ELECTRON ENERGY =   -1167.5887532756
                TWO ELECTRON ENERGY =     459.4676657970
           NUCLEAR REPULSION ENERGY =     329.0155399456
                                      ------------------
                       TOTAL ENERGY =    -379.1055475330

 ELECTRON-ELECTRON POTENTIAL ENERGY =     459.4676657970
  NUCLEUS-ELECTRON POTENTIAL ENERGY =   -1546.4395082347
   NUCLEUS-NUCLEUS POTENTIAL ENERGY =     329.0155399456
                                      ------------------
             TOTAL POTENTIAL ENERGY =    -757.9563024922
               TOTAL KINETIC ENERGY =     378.8507549592
                 VIRIAL RATIO (V/T) =       2.0006725408

          ---------------------------------------
          MULLIKEN AND LOWDIN POPULATION ANALYSES
          ---------------------------------------

     MULLIKEN ATOMIC POPULATION IN EACH MOLECULAR ORBITAL

                      1          2          3          4          5

                  2.000000   2.000000   2.000000   2.000000   2.000000

    1             0.000864   0.000715   1.000753   1.000151   0.000620
    2            -0.000006   0.000006  -0.000057   0.000180   0.499660
    3            -0.000006   0.000006  -0.000057   0.000180   0.499660
    4             0.000864   0.000715   1.000753   1.000151   0.000620
    5            -0.000006   0.000006  -0.000057   0.000180   0.499660
    6            -0.000006   0.000006  -0.000057   0.000180   0.499660
    7             0.999137   0.999262  -0.000611  -0.000510   0.000000
    8             0.999137   0.999262  -0.000611  -0.000510   0.000000
    9             0.000005   0.000005  -0.000014  -0.000001   0.000030
   10             0.000005   0.000005  -0.000014  -0.000001   0.000030
   11             0.000005   0.000005  -0.000014  -0.000001   0.000030
   12             0.000005   0.000005  -0.000014  -0.000001   0.000030

                      6          7          8          9         10

                  2.000000   2.000000   2.000000   2.000000   2.000000

    1             0.000841   0.000748   0.000878   0.291523   0.265461
    2             0.499441   0.499682   0.499573   0.018006   0.011192
    3             0.499441   0.499682   0.499573   0.018006   0.011192
    4             0.000841   0.000748   0.000878   0.291523   0.265461
    5             0.499441   0.499682   0.499573   0.018006   0.011192
    6             0.499441   0.499682   0.499573   0.018006   0.011192
    7             0.000334  -0.000019   0.000164   0.673013   0.712748
    8             0.000334  -0.000019   0.000164   0.673013   0.712748
    9            -0.000029  -0.000046  -0.000094  -0.000273  -0.000296
   10            -0.000029  -0.000046  -0.000094  -0.000273  -0.000296
   11            -0.000029  -0.000046  -0.000094  -0.000273  -0.000296
   12            -0.000029  -0.000046  -0.000094  -0.000273  -0.000296

                     11         12         13         14         15

                  2.000000   2.000000   2.000000   2.000000   2.000000

    1             0.194114   0.118559   0.349536   0.234795   0.180254
    2             0.344638   0.382571   0.233369   0.272347   0.283258
    3             0.344638   0.382571   0.233369   0.272347   0.283258
    4             0.194114   0.118559   0.349536   0.234795   0.180254
    5             0.344638   0.382571   0.233369   0.272347   0.283258
    6             0.344638   0.382571   0.233369   0.272347   0.283258
    7             0.076900   0.011489   0.134038   0.067140   0.105517
    8             0.076900   0.011489   0.134038   0.067140   0.105517
    9             0.019855   0.052406   0.024844   0.076685   0.073856
   10             0.019855   0.052406   0.024844   0.076685   0.073856
   11             0.019855   0.052406   0.024844   0.076685   0.073856
   12             0.019855   0.052406   0.024844   0.076685   0.073856

                     16         17         18         19         20

                  2.000000   2.000000   2.000000   2.000000   2.000000

    1             0.269566   0.117160   0.086760   0.210603   0.034285
    2             0.262014   0.153436   0.140988   0.118254   0.312650
    3             0.262014   0.153436   0.140988   0.118254   0.312650
    4             0.269566   0.117160   0.086760   0.210603   0.034285
    5             0.262014   0.153436   0.140988   0.118254   0.312650
    6             0.262014   0.153436   0.140988   0.118254   0.312650
    7             0.200515   0.448737   0.356461   0.395203   0.003962
    8             0.200515   0.448737   0.356461   0.395203   0.003962
    9             0.002945   0.063615   0.137401   0.078842   0.168226
   10             0.002945   0.063615   0.137401   0.078842   0.168226
   11             0.002945   0.063615   0.137401   0.078842   0.168226
   12             0.002945   0.063615   0.137401   0.078842   0.168226

                     21         22         23         24         25

                  2.000000   2.000000   2.000000   2.000000   2.000000

    1             0.344087   0.111232   0.115133   0.348040   0.054073
    2             0.163665   0.157371   0.245579   0.026105   0.094415
    3             0.163665   0.157371   0.245579   0.026105   0.094415
    4             0.344087   0.111232   0.115133   0.348040   0.054073
    5             0.163665   0.157371   0.245579   0.026105   0.094415
    6             0.163665   0.157371   0.245579   0.026105   0.094415
    7             0.327127   0.282005   0.282067   0.599467   0.752915
    8             0.327127   0.282005   0.282067   0.599467   0.752915
    9             0.000728   0.146010   0.055821   0.000142   0.002091
   10             0.000728   0.146010   0.055821   0.000142   0.002091
   11             0.000728   0.146010   0.055821   0.000142   0.002091
   12             0.000728   0.146010   0.055821   0.000142   0.002091

                     26         27         28

                  2.000000   2.000000   2.000000

    1             0.099057   0.023645   0.014185
    2             0.107409   0.270845   0.490122
    3             0.107409   0.270845   0.490122
    4             0.099057   0.023645   0.014185
    5             0.107409   0.270845   0.490122
    6             0.107409   0.270845   0.490122
    7             0.623792   0.432270  -0.000334
    8             0.623792   0.432270  -0.000334
    9             0.031166   0.001198   0.002952
   10             0.031166   0.001198   0.002952
   11             0.031166   0.001198   0.002952
   12             0.031166   0.001198   0.002952

               ----- POPULATIONS IN EACH AO -----
                             MULLIKEN      LOWDIN
              1  C   1  S     2.00569     1.81269
              2  C   1  S     0.69641     0.48497
              3  C   1  S     0.32787     0.20507
              4  C   1  X     0.77241     0.64242
              5  C   1  Y     0.75940     0.66553
              6  C   1  Z     0.54895     0.46460
              7  C   1  X     0.05051     0.26157
              8  C   1  Y    -0.03540     0.21712
              9  C   1  Z     0.31009     0.32615
             10  C   1 XX     0.02394     0.17817
             11  C   1 YY     0.03103     0.20536
             12  C   1 ZZ     0.00541     0.06665
             13  C   1 XY     0.07665     0.17478
             14  C   1 XZ     0.01433     0.03324
             15  C   1 YZ     0.04499     0.09955
             16  C   2  S     2.00471     1.86757
             17  C   2  S     0.66661     0.48440
             18  C   2  S     0.49983     0.25880
             19  C   2  X     0.73316     0.64012
             20  C   2  Y     0.73505     0.64292
             21  C   2  Z     0.53613     0.48467
             22  C   2  X     0.22052     0.32770
             23  C   2  Y     0.17938     0.28650
             24  C   2  Z     0.45938     0.45841
             25  C   2 XX     0.01226     0.18091
             26  C   2 YY     0.01199     0.18194
             27  C   2 ZZ     0.00278     0.08724
             28  C   2 XY     0.02993     0.07229
             29  C   2 XZ     0.00663     0.01320
             30  C   2 YZ     0.01688     0.03300
             31  C   3  S     2.00471     1.86757
             32  C   3  S     0.66661     0.48440
             33  C   3  S     0.49983     0.25880
             34  C   3  X     0.73316     0.64012
             35  C   3  Y     0.73505     0.64292
             36  C   3  Z     0.53613     0.48467
             37  C   3  X     0.22052     0.32770
             38  C   3  Y     0.17938     0.28650
             39  C   3  Z     0.45938     0.45841
             40  C   3 XX     0.01226     0.18091
             41  C   3 YY     0.01199     0.18194
             42  C   3 ZZ     0.00278     0.08724
             43  C   3 XY     0.02993     0.07229
             44  C   3 XZ     0.00663     0.01320
             45  C   3 YZ     0.01688     0.03300
             46  C   4  S     2.00569     1.81269
             47  C   4  S     0.69641     0.48497
             48  C   4  S     0.32787     0.20507
             49  C   4  X     0.77241     0.64242
             50  C   4  Y     0.75940     0.66553
             51  C   4  Z     0.54895     0.46460
             52  C   4  X     0.05051     0.26157
             53  C   4  Y    -0.03540     0.21712
             54  C   4  Z     0.31009     0.32615
             55  C   4 XX     0.02394     0.17817
             56  C   4 YY     0.03103     0.20536
             57  C   4 ZZ     0.00541     0.06665
             58  C   4 XY     0.07665     0.17478
             59  C   4 XZ     0.01433     0.03324
             60  C   4 YZ     0.04499     0.09955
             61  C   5  S     2.00471     1.86757
             62  C   5  S     0.66661     0.48440
             63  C   5  S     0.49983     0.25880
             64  C   5  X     0.73316     0.64012
             65  C   5  Y     0.73505     0.64292
             66  C   5  Z     0.53613     0.48467
             67  C   5  X     0.22052     0.32770
             68  C   5  Y     0.17938     0.28650
             69  C   5  Z     0.45938     0.45841
             70  C   5 XX     0.01226     0.18091
             71  C   5 YY     0.01199     0.18194
             72  C   5 ZZ     0.00278     0.08724
             73  C   5 XY     0.02993     0.07229
             74  C   5 XZ     0.00663     0.01320
             75  C   5 YZ     0.01688     0.03300
             76  C   6  S     2.00471     1.86757
             77  C   6  S     0.66661     0.48440
             78  C   6  S     0.49983     0.25880
             79  C   6  X     0.73316     0.64012
             80  C   6  Y     0.73505     0.64292
             81  C   6  Z     0.53613     0.48467
             82  C   6  X     0.22052     0.32770
             83  C   6  Y     0.17938     0.28650
             84  C   6  Z     0.45938     0.45841
             85  C   6 XX     0.01226     0.18091
             86  C   6 YY     0.01199     0.18194
             87  C   6 ZZ     0.00278     0.08724
             88  C   6 XY     0.02993     0.07229
             89  C   6 XZ     0.00663     0.01320
             90  C   6 YZ     0.01688     0.03300
             91  O   7  S     2.00332     1.87419
             92  O   7  S     0.84857     0.64160
             93  O   7  S     0.96977     0.41719
             94  O   7  S     0.04756     0.11086
             95  O   7  X     0.90142     0.86043
             96  O   7  Y     0.89735     0.84209
             97  O   7  Z     0.85006     0.80626
             98  O   7  X     0.59697     0.52907
             99  O   7  Y     0.41354     0.52068
            100  O   7  Z     0.62762     0.60445
            101  O   7  X     0.03515     0.08313
            102  O   7  Y    -0.01066     0.07776
            103  O   7  Z     0.03010     0.08580
            104  O   7 XX     0.00175     0.17733
            105  O   7 YY     0.00650     0.19797
            106  O   7 ZZ     0.00151     0.17623
            107  O   7 XY     0.00328     0.00378
            108  O   7 XZ     0.00003     0.00000
            109  O   7 YZ     0.00611     0.00589
            110  O   7 XX     0.00094     0.05514
            111  O   7 YY     0.00183     0.12228
            112  O   7 ZZ     0.00033     0.05043
            113  O   7 XY     0.00981     0.06534
            114  O   7 XZ    -0.00037     0.00097
            115  O   7 YZ     0.01898     0.05896
            116  O   8  S     2.00332     1.87419
            117  O   8  S     0.84857     0.64160
            118  O   8  S     0.96977     0.41719
            119  O   8  S     0.04756     0.11086
            120  O   8  X     0.90142     0.86043
            121  O   8  Y     0.89735     0.84209
            122  O   8  Z     0.85006     0.80626
            123  O   8  X     0.59697     0.52907
            124  O   8  Y     0.41354     0.52068
            125  O   8  Z     0.62762     0.60445
            126  O   8  X     0.03515     0.08313
            127  O   8  Y    -0.01066     0.07776
            128  O   8  Z     0.03010     0.08580
            129  O   8 XX     0.00175     0.17733
            130  O   8 YY     0.00650     0.19797
            131  O   8 ZZ     0.00151     0.17623
            132  O   8 XY     0.00328     0.00378
            133  O   8 XZ     0.00003     0.00000
            134  O   8 YZ     0.00611     0.00589
            135  O   8 XX     0.00094     0.05514
            136  O   8 YY     0.00183     0.12228
            137  O   8 ZZ     0.00033     0.05043
            138  O   8 XY     0.00981     0.06534
            139  O   8 XZ    -0.00037     0.00097
            140  O   8 YZ     0.01898     0.05896
            141  H   9  S     0.74797     0.58216
            142  H   9  S     0.15693     0.22091
            143  H   9  X     0.01887     0.03613
            144  H   9  Y     0.00867     0.02060
            145  H   9  Z     0.00544     0.01767
            146  H  10  S     0.74797     0.58216
            147  H  10  S     0.15693     0.22091
            148  H  10  X     0.01887     0.03613
            149  H  10  Y     0.00867     0.02060
            150  H  10  Z     0.00544     0.01767
            151  H  11  S     0.74797     0.58216
            152  H  11  S     0.15693     0.22091
            153  H  11  X     0.01887     0.03613
            154  H  11  Y     0.00867     0.02060
            155  H  11  Z     0.00544     0.01767
            156  H  12  S     0.74797     0.58216
            157  H  12  S     0.15693     0.22091
            158  H  12  X     0.01887     0.03613
            159  H  12  Y     0.00867     0.02060
            160  H  12  Z     0.00544     0.01767

          ----- MULLIKEN ATOMIC OVERLAP POPULATIONS -----
          (OFF-DIAGONAL ELEMENTS NEED TO BE MULTIPLIED BY 2)

             1           2           3           4           5

    1    4.5432543
    2    0.4272269   4.9487623
    3   -0.0539573   0.5496827   4.9487623
    4   -0.0226021  -0.0539573   0.4272269   4.5432543
    5   -0.0539573  -0.0117070  -0.0861676   0.4272269   4.9487623
    6    0.4272269  -0.0861676  -0.0117070  -0.0539573   0.5496827
    7    0.3798600  -0.0579356   0.0050585   0.0001515   0.0050585
    8    0.0001515   0.0050585  -0.0579356   0.3798600  -0.0579356
    9   -0.0123744   0.4229061  -0.0343694   0.0049159  -0.0008384
   10    0.0049159  -0.0343694   0.4229061  -0.0123744   0.0065764
   11    0.0049159  -0.0008384   0.0065764  -0.0123744   0.4229061
   12   -0.0123744   0.0065764  -0.0008384   0.0049159  -0.0343694

             6           7           8           9          10

    6    4.9487623
    7   -0.0579356   7.9996511
    8    0.0050585   0.0000670   7.9996511
    9    0.0065764  -0.0061066  -0.0001433   0.5648331
   10   -0.0008384  -0.0001433  -0.0061066  -0.0074654   0.5648331
   11   -0.0343694  -0.0001433  -0.0061066   0.0000034  -0.0000558
   12    0.4229061  -0.0061066  -0.0001433  -0.0000558   0.0000034

            11          12

   11    0.5648331
   12   -0.0074654   0.5648331

          TOTAL MULLIKEN AND LOWDIN ATOMIC POPULATIONS
       ATOM         MULL.POP.    CHARGE          LOW.POP.     CHARGE
    1 C             5.632286    0.367714         5.837875    0.162125
    2 C             6.115238   -0.115238         6.019681   -0.019681
    3 C             6.115238   -0.115238         6.019681   -0.019681
    4 C             5.632286    0.367714         5.837875    0.162125
    5 C             6.115238   -0.115238         6.019681   -0.019681
    6 C             6.115238   -0.115238         6.019681   -0.019681
    7 O             8.261475   -0.261475         8.367831   -0.367831
    8 O             8.261475   -0.261475         8.367831   -0.367831
    9 H             0.937882    0.062118         0.877466    0.122534
   10 H             0.937882    0.062118         0.877466    0.122534
   11 H             0.937882    0.062118         0.877466    0.122534
   12 H             0.937882    0.062118         0.877466    0.122534

          -------------------------------
          BOND ORDER AND VALENCE ANALYSIS     BOND ORDER THRESHOLD=0.050
          -------------------------------

                   BOND                       BOND                       BOND
  ATOM PAIR DIST  ORDER      ATOM PAIR DIST  ORDER      ATOM PAIR DIST  ORDER
    1   2  1.400  1.120        1   6  1.400  1.120        1   7  1.220  1.410
    2   3  1.400  1.699        2   9  1.082  0.977        3   4  1.400  1.120
    3  10  1.082  0.977        4   5  1.400  1.120        4   8  1.220  1.410
    5   6  1.400  1.699        5  11  1.082  0.977        6  12  1.082  0.977
    7   8  5.240  0.079

                       TOTAL       BONDED        FREE
      ATOM            VALENCE     VALENCE     VALENCE
    1 C                 3.928       3.656       0.272
    2 C                 3.920       3.788       0.132
    3 C                 3.920       3.788       0.132
    4 C                 3.928       3.656       0.272
    5 C                 3.920       3.788       0.132
    6 C                 3.920       3.788       0.132
    7 O                 2.232       1.526       0.706
    8 O                 2.232       1.526       0.706
    9 H                 0.996       0.994       0.001
   10 H                 0.996       0.994       0.001
   11 H                 0.996       0.994       0.001
   12 H                 0.996       0.994       0.001

          ---------------------
          ELECTROSTATIC MOMENTS
          ---------------------

 POINT   1           X           Y           Z (BOHR)    CHARGE
                 0.000000    0.000000    0.000000        0.00 (A.U.)
         DX          DY          DZ         /D/  (DEBYE)
     0.000000    0.000000    0.000000    0.000000
 ...... END OF PROPERTY EVALUATION ......

                         TIMING STATISTICS ON RANK 0:
 CPU        TIME:   STEP =      0.02 ,  TOTAL =       22.8 SECONDS (    0.4 MIN)
 WALL CLOCK TIME:   STEP =      0.03 ,  TOTAL =       21.8 SECONDS (    0.4 MIN)
 CPU UTILIZATION:   STEP =     76.03%,  TOTAL =     104.69%
 ......END OF NBO ANALYSIS......

                         TIMING STATISTICS ON RANK 0:
 CPU        TIME:   STEP =      0.00 ,  TOTAL =       22.8 SECONDS (    0.4 MIN)
 WALL CLOCK TIME:   STEP =      0.00 ,  TOTAL =       21.8 SECONDS (    0.4 MIN)
 CPU UTILIZATION:   STEP =      0.00%,  TOTAL =     104.67%

                         OVERALL  TIMING  STATISTICS:
 GLOBAL CPU TIME ELAPSED      =       131.9 SECONDS (     2.2 MIN)
 RANK 0 WALL CLOCK TIME       =        21.8 SECONDS (     0.4 MIN)
 JOB CPU UTILIZATION:   TOTAL =    605.67%, PER RANK AVERAGE =    100.94%

     1951958 WORDS OF    DYNAMIC MEMORY USED
     5585795 BYTES OF    HEAP MEMORY    USED,      132990 BYTES REMAIN IN USE

 WARNING! THIS VERSION OF FIREFLY IS PROBABLY OUTDATED!
 PLEASE CHECK FIREFLY HOMEPAGE FOR INFORMATION ON UPDATES!

 EXECUTION OF FIREFLY TERMINATED NORMALLY 23:06:42 18-MAY-2026    
