              Grand Master is running on host yaroslavhonor
              rank #     1 is running on host yaroslavhonor
              rank #     2 is running on host yaroslavhonor
              rank #     3 is running on host yaroslavhonor
              rank #     4 is running on host yaroslavhonor
              rank #     5 is running on host yaroslavhonor
              rank #     6 is running on host yaroslavhonor
              rank #     7 is running on host yaroslavhonor

          ******************************************************
          *      Firefly version 8.2.0, build number 10203     *
          *   Compiled on    Monday,    19-09-2016, 15:30:23   *
          *Code development and Intel/AMD specific optimization*
          *  Copyright (c) 1994, 2016 by  Alex A. Granovsky,   *
          *          Firefly Project, Moscow, Russia.          *
          *   Some parts of this program include code due to   *
          * work of Jim Kress, Peter Burger, and Robert Ponec. *
          ******************************************************
          *             Firefly Project homepage:              *
          * http://classic.chem.msu.su/gran/firefly/index.html *
          *                      e-mail:                       *
          *               gran@classic.chem.msu.su             *
          *This program is not a free software and is provided *
          *exclusively to its registered users under the terms *
          *       of Firefly package license agreement         *
          * Unauthorized use of Firefly is strongly prohibited *
          *   This program may not be redistributed without    *
          * the specific, written permission of its developers.*
          ******************************************************

          ******************************************************
          *  PARTIALLY BASED ON  US GAMESS VERSION 6 JUN 1999, *
          *   US GAMESS VERSIONS  6 SEP 2001 AND 12 DEC 2003   *
          *             FROM IOWA STATE UNIVERSITY             *
          * M.W.SCHMIDT, K.K.BALDRIDGE, J.A.BOATZ, S.T.ELBERT, *
          *   M.S.GORDON, J.H.JENSEN, S.KOSEKI, N.MATSUNAGA,   *
          *          K.A.NGUYEN, S.J.SU, T.L.WINDUS,           *
          *       TOGETHER WITH M.DUPUIS, J.A.MONTGOMERY       *
          *         J.COMPUT.CHEM.  14, 1347-1363(1993)        *
          ******************************************************


 Core i7    / Linux  Firefly version running under Linux.
 Running on Intel CPU:  Brand ID  0, Family  6, Model 170, Stepping  4
 CPU Brand String    :  Intel(R) Core(TM) Ultra 5 125H                  
 CPU Features        :  x87 FPU, CMOV, MMX, SSE, SSE2, SSE3, SSSE3, SSE4.1, SSE4.2, AVX, AVX2, FMA3, HTT, MWAIT, EM64T
 Data cache size     :  L1 48 KB, L2 2048 KB, L3 18432 KB
 max    # of   cores/package :  64
 max    # of threads/package : 128
 max     cache sharing level :  64
 actual # of   cores/package :   9
 actual # of threads/package :  18
 actual # of threads/core    :   2
 Operating System successfully passed SSE support test.
 Operating System supports AVX/FMA.


 PARALLEL VERSION (MPICH) RUNNING USING    8 PROCESSES (RANKS)


 WARNING! THIS VERSION OF FIREFLY IS PROBABLY OUTDATED!
 PLEASE CHECK FIREFLY HOMEPAGE FOR INFORMATION ON UPDATES!

 EXECUTION OF FIREFLY BEGUN 23:11:30  4-JUN-2026    

            ECHO OF THE FIRST FEW INPUT CARDS -
 INPUT CARD>! H2 Full CI/ALDET/STO-3G singlet surface                                       
 INPUT CARD>! Firefly 8.2.0, one RUNTYP=SURFACE job                                         
 INPUT CARD>! Grid: R(H-H) = 5.000000 down to 0.400000 Angstrom, 93 points                  
 INPUT CARD>! $DATA starts at R=5.000000 Angstrom; $SURF moves atom 2 by DISP1.             
 INPUT CARD>                                                                                
 INPUT CARD> $CONTRL CITYP=ALDET SCFTYP=RHF RUNTYP=SURFACE MULT=1 ICHARG=0                  
 INPUT CARD>      MAXIT=100 UNITS=ANGS $END                                                 
 INPUT CARD> $SYSTEM TIMLIM=600 MEMORY=1000000 $END                                         
 INPUT CARD> $BASIS GBASIS=STO NGAUSS=3 $END                                                
 INPUT CARD> $GUESS GUESS=HUCKEL $END                                                       
 INPUT CARD> $SCF DAMP=.T. DIIS=.T. DIRSCF=.T. FDIFF=.F. SHIFT=.T.                          
 INPUT CARD>      SOSCF=.F. DENTOL=1.0E-4 $END                                              
 INPUT CARD> $SURF                                                                          
 INPUT CARD>   IVEC1(1)=1,2                                                                 
 INPUT CARD>   IGRP1(1)=2                                                                   
 INPUT CARD>   ORIG1=0.000000                                                               
 INPUT CARD>   DISP1=-0.050000                                                              
 INPUT CARD>   NDISP1=93                                                                    
 INPUT CARD>   NSURF=4                                                                      
 INPUT CARD> $END                                                                           
 INPUT CARD>                                                                                
 INPUT CARD> $CIDET NACT=2 NCORE=0 NELS=2 NSTATE=4 $END                                     
 INPUT CARD> $DATA                                                                          
 INPUT CARD>H2 Full CI/ALDET/STO-3G singlet surface; reverse scan R_start=5.000000 A, R_end=
 INPUT CARD>C1                                                                              
 INPUT CARD>H 1.0 0.000000 0.000000 0.000000                                                
 INPUT CARD>H 1.0 0.000000 0.000000 5.000000                                                
 INPUT CARD> $END                                                                           
    1000000 WORDS OF MEMORY AVAILABLE

 This job is executing on     1 unique host(s)
 Minimum number of processes per host is:    8
 Maximum number of processes per host is:    8

 On master's host, detected   18 CPU core(s) in aggregate

 Using processor-specific dynamic link DGEMM library code.


 Warning: HTT is enabled, bitmask of physically unique cores is 0x000000B4

 SMT aware parts of program will use              2 threads.

 Creating thread pool to serve up to            128 threads.


 Loading P2P interface library... loaded successfully (version 2.4).
 Initializing global P2P interface... topology done.


     BASIS OPTIONS
     -------------
     GBASIS=STO          IGAUSS=       3      POLAR=NONE    
     NDFUNC=       0     NFFUNC=       0     DIFFSP=       F
     NPFUNC=       0      DIFFS=       F


     RUN TITLE
     ---------
 H2 Full CI/ALDET/STO-3G singlet surface; reverse scan R_start=5.000000 A, R_end=

 THE POINT GROUP OF THE MOLECULE IS C1      
 THE ORDER OF THE PRINCIPAL AXIS IS     0

 ATOM      ATOMIC                      COORDINATES (BOHR)
           CHARGE         X                   Y                   Z
 H           1.0     0.0000000000        0.0000000000        0.0000000000
 H           1.0     0.0000000000        0.0000000000        9.4486306273

          INTERNUCLEAR DISTANCES (ANGS.)
          ------------------------------

                    H              H         

  1  H               0.0000000      5.0000000    
  2  H               5.0000000      0.0000000    

  * ... LESS THAN  3.000


     ATOMIC BASIS SET
     ----------------
 THE CONTRACTED PRIMITIVE FUNCTIONS HAVE BEEN UNNORMALIZED
 THE CONTRACTED BASIS FUNCTIONS ARE NOW NORMALIZED TO UNITY

 SHELL TYPE PRIM    EXPONENT          CONTRACTION COEFFICIENTS

 H         

   1   S    1       3.425251    0.276934 (  0.154329) 
   1   S    2       0.623914    0.267839 (  0.535328) 
   1   S    3       0.168855    0.083474 (  0.444635) 

 H         

   2   S    4       3.425251    0.276934 (  0.154329) 
   2   S    5       0.623914    0.267839 (  0.535328) 
   2   S    6       0.168855    0.083474 (  0.444635) 

 TOTAL NUMBER OF SHELLS              =    2
 TOTAL NUMBER OF BASIS FUNCTIONS     =    2
 NUMBER OF ELECTRONS                 =    2
 CHARGE OF MOLECULE                  =    0
 STATE MULTIPLICITY                  =    1
 NUMBER OF OCCUPIED ORBITALS (ALPHA) =    1
 NUMBER OF OCCUPIED ORBITALS (BETA ) =    1
 TOTAL NUMBER OF ATOMS               =    2
 THE NUCLEAR REPULSION ENERGY IS        0.1058354421

 THIS MOLECULE IS RECOGNIZED AS BEING LINEAR.

     $CONTRL OPTIONS
     ---------------
     SCFTYP=RHF          RUNTYP=SURFACE      EXETYP=RUN     
     MPLEVL=       0     LOCAL =NONE         UNITS =ANGS    
     MULT  =       1     ICHARG=       0     MAXIT =     100
     NPRINT=       7     IREST =       0     COORD =UNIQUE  
     ECP   =NONE         NORMF =       0     NORMP =       0
     ITOL  =      20     ICUT  =       9     NZVAR =       0
     NOSYM =       0     INTTYP=POPLE        GEOM  =INPUT   
     PLTORB=       F     MOLPLT=       F     RPAC  =       F
     AIMPAC=       0     FRIEND=             CITYP =ALDET   
     DFTTYP=NONE    

     $SYSTEM OPTIONS
     ---------------
     KDIAG =       0     MEMORY=  1000000     TIMLIM=    36000.0 SEC.
     COREFL=       F     PTIME =        F     XDR   =       F
     BALTYP=NXTVAL       CBASE = EF591000     FBASE = EF0410C0

          ----------------
          PROPERTIES INPUT
          ----------------

     MOMENTS            FIELD           POTENTIAL          DENSITY
 IEMOM =       1   IEFLD =       0   IEPOT =       0   IEDEN =       0
 WHERE =COMASS     WHERE =NUCLEI     WHERE =NUCLEI     WHERE =NUCLEI  
 OUTPUT=BOTH       OUTPUT=BOTH       OUTPUT=BOTH       OUTPUT=BOTH    
 IEMINT=       0   IEFINT=       0                     IEDINT=       0
                                                       MORB  =       0

          EXTRAPOLATION IN EFFECT
          DAMPING IN EFFECT
          LEVEL SHIFTING IN EFFECT
          DIIS IN EFFECT

          ----------------------
          INTEGRAL INPUT OPTIONS
          ----------------------
 NOPK  =       1 NORDER=       0 SCHWRZ=       T

 ATTENTION! AO INTEGRALS WILL BE PACKED.
 THRESHOLD FOR PACKING PKTHR =  0.10000000D-01

     -------------------------------
     INTEGRAL TRANSFORMATION OPTIONS
     -------------------------------
     NWORD  =       0     CUTTRF = 1.0E-09
     MPTRAN =       0     DIRTRF =       T
     AOINTS =DUP          IREST  =       0

     ------------------------------------------
     THE POINT GROUP IS C1 , NAXIS= 0, ORDER= 1
     ------------------------------------------

     DIMENSIONS OF THE SYMMETRY SUBSPACES ARE
 A   =   2

 ..... DONE SETTING UP THE RUN .....

                         TIMING STATISTICS ON RANK 0:
 CPU        TIME:   STEP =      0.15 ,  TOTAL =        0.3 SECONDS (    0.0 MIN)
 WALL CLOCK TIME:   STEP =      0.16 ,  TOTAL =        0.2 SECONDS (    0.0 MIN)
 CPU UTILIZATION:   STEP =     96.33%,  TOTAL =     166.97%

     ---------------------------
     POTENTIAL SURFACE MAP INPUT
     ---------------------------
 COORD 1 LYING ALONG ATOM PAIR    1    2
 HAS ORIGIN= 0.000, DISPLACEMENT=-0.050  AND  93 STEPS.
 GROUP 1 CONTAINS    1 ATOMS:
     2
 ...... END OF ONE-ELECTRON INTEGRALS ......

                         TIMING STATISTICS ON RANK 0:
 CPU        TIME:   STEP =      0.00 ,  TOTAL =        0.3 SECONDS (    0.0 MIN)
 WALL CLOCK TIME:   STEP =      0.00 ,  TOTAL =        0.2 SECONDS (    0.0 MIN)
 CPU UTILIZATION:   STEP =      0.00%,  TOTAL =     163.80%

          -------------
          GUESS OPTIONS
          -------------
          GUESS =HUCKEL            NORB  =       0          NORDER=       0
          MIX   =       F          PRTMO =       F          SYMDEN=       F
          TOLZ  = 0.0E+00          TOLE  = 0.0E+00

 INITIAL GUESS ORBITALS GENERATED BY HUCKEL   ROUTINE.
 HUCKEL GUESS REQUIRES      1320 WORDS.

 LOG10 OF CONDITION NUMBER OF OVERLAP MATRIX IS:  9.36630154E-05

 SYMMETRIES FOR INITIAL GUESS ORBITALS FOLLOW.   BOTH SET(S).
     1 ORBITALS ARE OCCUPIED (    0 CORE ORBITALS).
     1=A        2=A   
 ...... END OF INITIAL ORBITAL SELECTION ......

                         TIMING STATISTICS ON RANK 0:
 CPU        TIME:   STEP =      0.00 ,  TOTAL =        0.3 SECONDS (    0.0 MIN)
 WALL CLOCK TIME:   STEP =      0.00 ,  TOTAL =        0.2 SECONDS (    0.0 MIN)
 CPU UTILIZATION:   STEP =      0.00%,  TOTAL =     160.76%
 ...... END OF TWO-ELECTRON INTEGRALS .....

                         TIMING STATISTICS ON RANK 0:
 CPU        TIME:   STEP =      0.00 ,  TOTAL =        0.3 SECONDS (    0.0 MIN)
 WALL CLOCK TIME:   STEP =      0.00 ,  TOTAL =        0.2 SECONDS (    0.0 MIN)
 CPU UTILIZATION:   STEP =      0.00%,  TOTAL =     158.15%

 DIRECT SCF CALCULATION, SCHWRZ=T   FDIFF=F

                                                                                                              NONZERO    BLOCKS
 ITER EX DEM  TOTAL ENERGY      E CHANGE  DENSITY CHANGE    DIIS ERROR      VIR. SHIFT       DAMPING        INTEGRALS   SKIPPED
          * * *   INITIATING DIIS PROCEDURE   * * *
   1  0  0    -0.599024873    -0.599024873   0.000000000   0.000000000     0.000000000     1.000000000              6         0
   2  1  0    -0.599024873     0.000000000   0.000000000   0.000000000     0.093918121     1.000000000              6         0

          -----------------
          DENSITY CONVERGED
          -----------------
     TIME TO FORM FOCK OPERATORS =       0.01 SECONDS (       0.00 SEC/ITER)
     FOCK TIME ON FIRST ITERATION=       0.01, LAST ITERATION=       0.00
     TIME TO SOLVE SCF EQUATIONS =       0.01 SECONDS (       0.01 SEC/ITER)

 FINAL ENERGY IS       -0.5990248730 AFTER   2 ITERATIONS
 ...... END OF RHF CALCULATION ......

                         TIMING STATISTICS ON RANK 0:
 CPU        TIME:   STEP =      0.02 ,  TOTAL =        0.3 SECONDS (    0.0 MIN)
 WALL CLOCK TIME:   STEP =      0.02 ,  TOTAL =        0.2 SECONDS (    0.0 MIN)
 CPU UTILIZATION:   STEP =    104.00%,  TOTAL =     152.48%
 ...... END OF TWO-ELECTRON INTEGRALS .....

 CPU        TIME:   STEP =      0.00 ,  TOTAL =        0.3 SECONDS (    0.0 MIN)
 WALL CLOCK TIME:   STEP =      0.00 ,  TOTAL =        0.2 SECONDS (    0.0 MIN)
 CPU UTILIZATION:   STEP =      0.00%,  TOTAL =     151.21%

 DETERMINANT CI OPTIONS   NRNFG   NPFLG
 INTEGRAL TRANSFORMATION    1      -5
 DIAGONALIZE HAMILTONIAN    1      -5
 FORM 1E- DENSITY MATRIX    1      -5
 FORM 2E- DENSITY MATRIX    0      -5

 ---- SURFACE MAPPING GEOMETRY ----
 COORD 1=   0.00000  COORD 2=   0.00000
 HAS ENERGY VALUES         -0.9331637636          -0.9331636837          -0.2643931737          -0.2643930719 
 H             0.0000000000          0.0000000000          0.0000000000
 H             0.0000000000          0.0000000000          5.0000000000
 ----------------------------------
 ...... END OF ONE-ELECTRON INTEGRALS ......

                         TIMING STATISTICS ON RANK 0:
 CPU        TIME:   STEP =      0.03 ,  TOTAL =        0.3 SECONDS (    0.0 MIN)
 WALL CLOCK TIME:   STEP =      0.04 ,  TOTAL =        0.2 SECONDS (    0.0 MIN)
 CPU UTILIZATION:   STEP =     85.39%,  TOTAL =     140.71%

 LOG10 OF CONDITION NUMBER OF OVERLAP MATRIX IS:  1.09048825E-04
 ...... END OF TWO-ELECTRON INTEGRALS .....

                         TIMING STATISTICS ON RANK 0:
 CPU        TIME:   STEP =      0.01 ,  TOTAL =        0.3 SECONDS (    0.0 MIN)
 WALL CLOCK TIME:   STEP =      0.01 ,  TOTAL =        0.2 SECONDS (    0.0 MIN)
 CPU UTILIZATION:   STEP =    154.04%,  TOTAL =     141.10%

 DIRECT SCF CALCULATION, SCHWRZ=T   FDIFF=F

                                                                                                              NONZERO    BLOCKS
 ITER EX DEM  TOTAL ENERGY      E CHANGE  DENSITY CHANGE    DIIS ERROR      VIR. SHIFT       DAMPING        INTEGRALS   SKIPPED
          * * *   INITIATING DIIS PROCEDURE   * * *
   1  0  0    -0.599594660    -0.599594660   0.000000000   0.000000000     0.000000000     1.000000000              6         0
   2  1  0    -0.599594660     0.000000000   0.000000000   0.000000000     0.092813806     1.000000000              6         0

          -----------------
          DENSITY CONVERGED
          -----------------
     TIME TO FORM FOCK OPERATORS =       0.00 SECONDS (       0.00 SEC/ITER)
     FOCK TIME ON FIRST ITERATION=       0.00, LAST ITERATION=       0.00
     TIME TO SOLVE SCF EQUATIONS =       0.00 SECONDS (       0.00 SEC/ITER)

 FINAL ENERGY IS       -0.5995946599 AFTER   2 ITERATIONS
 ...... END OF RHF CALCULATION ......

                         TIMING STATISTICS ON RANK 0:
 CPU        TIME:   STEP =      0.00 ,  TOTAL =        0.3 SECONDS (    0.0 MIN)
 WALL CLOCK TIME:   STEP =      0.01 ,  TOTAL =        0.2 SECONDS (    0.0 MIN)
 CPU UTILIZATION:   STEP =      0.00%,  TOTAL =     133.33%
 ...... END OF TWO-ELECTRON INTEGRALS .....

 CPU        TIME:   STEP =      0.00 ,  TOTAL =        0.3 SECONDS (    0.0 MIN)
 WALL CLOCK TIME:   STEP =      0.00 ,  TOTAL =        0.2 SECONDS (    0.0 MIN)
 CPU UTILIZATION:   STEP =      0.00%,  TOTAL =     132.49%

 DETERMINANT CI OPTIONS   NRNFG   NPFLG
 INTEGRAL TRANSFORMATION    1      -5
 DIAGONALIZE HAMILTONIAN    1      -5
 FORM 1E- DENSITY MATRIX    1      -5
 FORM 2E- DENSITY MATRIX    0      -5

 ---- SURFACE MAPPING GEOMETRY ----
 COORD 1=  -0.05000  COORD 2=   0.00000
 HAS ENERGY VALUES         -0.9331637824          -0.9331636783          -0.2654622103          -0.2654620767 
 H             0.0000000000          0.0000000000          0.0000000000
 H             0.0000000000          0.0000000000          4.9500000000
 ----------------------------------
 ...... END OF ONE-ELECTRON INTEGRALS ......

                         TIMING STATISTICS ON RANK 0:
 CPU        TIME:   STEP =      0.02 ,  TOTAL =        0.3 SECONDS (    0.0 MIN)
 WALL CLOCK TIME:   STEP =      0.01 ,  TOTAL =        0.3 SECONDS (    0.0 MIN)
 CPU UTILIZATION:   STEP =    162.23%,  TOTAL =     133.93%

 LOG10 OF CONDITION NUMBER OF OVERLAP MATRIX IS:  1.26791229E-04
 ...... END OF TWO-ELECTRON INTEGRALS .....

                         TIMING STATISTICS ON RANK 0:
 CPU        TIME:   STEP =      0.00 ,  TOTAL =        0.3 SECONDS (    0.0 MIN)
 WALL CLOCK TIME:   STEP =      0.01 ,  TOTAL =        0.3 SECONDS (    0.0 MIN)
 CPU UTILIZATION:   STEP =      0.00%,  TOTAL =     130.36%

 DIRECT SCF CALCULATION, SCHWRZ=T   FDIFF=F

                                                                                                              NONZERO    BLOCKS
 ITER EX DEM  TOTAL ENERGY      E CHANGE  DENSITY CHANGE    DIIS ERROR      VIR. SHIFT       DAMPING        INTEGRALS   SKIPPED
          * * *   INITIATING DIIS PROCEDURE   * * *
   1  0  0    -0.600179984    -0.600179984   0.000000000   0.000000000     0.000000000     1.000000000              6         0
   2  1  0    -0.600179984     0.000000000   0.000000000   0.000000000     0.091683044     1.000000000              6         0

          -----------------
          DENSITY CONVERGED
          -----------------
     TIME TO FORM FOCK OPERATORS =       0.01 SECONDS (       0.01 SEC/ITER)
     FOCK TIME ON FIRST ITERATION=       0.00, LAST ITERATION=       0.01
     TIME TO SOLVE SCF EQUATIONS =       0.00 SECONDS (       0.00 SEC/ITER)

 FINAL ENERGY IS       -0.6001799842 AFTER   2 ITERATIONS
 ...... END OF RHF CALCULATION ......

                         TIMING STATISTICS ON RANK 0:
 CPU        TIME:   STEP =      0.01 ,  TOTAL =        0.3 SECONDS (    0.0 MIN)
 WALL CLOCK TIME:   STEP =      0.01 ,  TOTAL =        0.3 SECONDS (    0.0 MIN)
 CPU UTILIZATION:   STEP =     66.83%,  TOTAL =     126.91%
 ...... END OF TWO-ELECTRON INTEGRALS .....

 CPU        TIME:   STEP =      0.00 ,  TOTAL =        0.3 SECONDS (    0.0 MIN)
 WALL CLOCK TIME:   STEP =      0.00 ,  TOTAL =        0.3 SECONDS (    0.0 MIN)
 CPU UTILIZATION:   STEP =      0.00%,  TOTAL =     126.25%

 DETERMINANT CI OPTIONS   NRNFG   NPFLG
 INTEGRAL TRANSFORMATION    1      -5
 DIAGONALIZE HAMILTONIAN    1      -5
 FORM 1E- DENSITY MATRIX    1      -5
 FORM 2E- DENSITY MATRIX    0      -5

 ---- SURFACE MAPPING GEOMETRY ----
 COORD 1=  -0.10000  COORD 2=   0.00000
 HAS ENERGY VALUES         -0.9331638066          -0.9331636711          -0.2665530615          -0.2665528866 
 H             0.0000000000          0.0000000000          0.0000000000
 H             0.0000000000          0.0000000000          4.9000000000
 ----------------------------------
 ...... END OF ONE-ELECTRON INTEGRALS ......

                         TIMING STATISTICS ON RANK 0:
 CPU        TIME:   STEP =      0.00 ,  TOTAL =        0.3 SECONDS (    0.0 MIN)
 WALL CLOCK TIME:   STEP =      0.01 ,  TOTAL =        0.3 SECONDS (    0.0 MIN)
 CPU UTILIZATION:   STEP =      0.00%,  TOTAL =     121.62%

 LOG10 OF CONDITION NUMBER OF OVERLAP MATRIX IS:  1.47223461E-04
 ...... END OF TWO-ELECTRON INTEGRALS .....

                         TIMING STATISTICS ON RANK 0:
 CPU        TIME:   STEP =      0.01 ,  TOTAL =        0.4 SECONDS (    0.0 MIN)
 WALL CLOCK TIME:   STEP =      0.01 ,  TOTAL =        0.3 SECONDS (    0.0 MIN)
 CPU UTILIZATION:   STEP =    139.49%,  TOTAL =     122.06%

 DIRECT SCF CALCULATION, SCHWRZ=T   FDIFF=F

                                                                                                              NONZERO    BLOCKS
 ITER EX DEM  TOTAL ENERGY      E CHANGE  DENSITY CHANGE    DIIS ERROR      VIR. SHIFT       DAMPING        INTEGRALS   SKIPPED
          * * *   INITIATING DIIS PROCEDURE   * * *
   1  0  0    -0.600781736    -0.600781736   0.000000000   0.000000000     0.000000000     1.000000000              6         0
   2  1  0    -0.600781736     0.000000000   0.000000000   0.000000000     0.090524606     1.000000000              6         0

          -----------------
          DENSITY CONVERGED
          -----------------
     TIME TO FORM FOCK OPERATORS =       0.00 SECONDS (       0.00 SEC/ITER)
     FOCK TIME ON FIRST ITERATION=       0.00, LAST ITERATION=       0.00
     TIME TO SOLVE SCF EQUATIONS =       0.00 SECONDS (       0.00 SEC/ITER)

 FINAL ENERGY IS       -0.6007817355 AFTER   2 ITERATIONS
 ...... END OF RHF CALCULATION ......

                         TIMING STATISTICS ON RANK 0:
 CPU        TIME:   STEP =      0.00 ,  TOTAL =        0.4 SECONDS (    0.0 MIN)
 WALL CLOCK TIME:   STEP =      0.01 ,  TOTAL =        0.3 SECONDS (    0.0 MIN)
 CPU UTILIZATION:   STEP =      0.00%,  TOTAL =     116.64%
 ...... END OF TWO-ELECTRON INTEGRALS .....

 CPU        TIME:   STEP =      0.01 ,  TOTAL =        0.4 SECONDS (    0.0 MIN)
 WALL CLOCK TIME:   STEP =      0.00 ,  TOTAL =        0.3 SECONDS (    0.0 MIN)
 CPU UTILIZATION:   STEP =    756.43%,  TOTAL =     119.36%

 DETERMINANT CI OPTIONS   NRNFG   NPFLG
 INTEGRAL TRANSFORMATION    1      -5
 DIAGONALIZE HAMILTONIAN    1      -5
 FORM 1E- DENSITY MATRIX    1      -5
 FORM 2E- DENSITY MATRIX    0      -5

 ---- SURFACE MAPPING GEOMETRY ----
 COORD 1=  -0.15000  COORD 2=   0.00000
 HAS ENERGY VALUES         -0.9331638375          -0.9331636618          -0.2676664013          -0.2676661728 
 H             0.0000000000          0.0000000000          0.0000000000
 H             0.0000000000          0.0000000000          4.8500000000
 ----------------------------------
 ...... END OF ONE-ELECTRON INTEGRALS ......

                         TIMING STATISTICS ON RANK 0:
 CPU        TIME:   STEP =      0.01 ,  TOTAL =        0.4 SECONDS (    0.0 MIN)
 WALL CLOCK TIME:   STEP =      0.01 ,  TOTAL =        0.3 SECONDS (    0.0 MIN)
 CPU UTILIZATION:   STEP =     88.43%,  TOTAL =     118.28%

 LOG10 OF CONDITION NUMBER OF OVERLAP MATRIX IS:  1.70721721E-04
 ...... END OF TWO-ELECTRON INTEGRALS .....

                         TIMING STATISTICS ON RANK 0:
 CPU        TIME:   STEP =      0.00 ,  TOTAL =        0.4 SECONDS (    0.0 MIN)
 WALL CLOCK TIME:   STEP =      0.01 ,  TOTAL =        0.3 SECONDS (    0.0 MIN)
 CPU UTILIZATION:   STEP =      0.00%,  TOTAL =     115.80%

 DIRECT SCF CALCULATION, SCHWRZ=T   FDIFF=F

                                                                                                              NONZERO    BLOCKS
 ITER EX DEM  TOTAL ENERGY      E CHANGE  DENSITY CHANGE    DIIS ERROR      VIR. SHIFT       DAMPING        INTEGRALS   SKIPPED
          * * *   INITIATING DIIS PROCEDURE   * * *
   1  0  0    -0.601400877    -0.601400877   0.000000000   0.000000000     0.000000000     1.000000000              6         0
   2  1  0    -0.601400877     0.000000000   0.000000000   0.000000000     0.089337178     1.000000000              6         0

          -----------------
          DENSITY CONVERGED
          -----------------
     TIME TO FORM FOCK OPERATORS =       0.00 SECONDS (       0.00 SEC/ITER)
     FOCK TIME ON FIRST ITERATION=       0.00, LAST ITERATION=       0.00
     TIME TO SOLVE SCF EQUATIONS =       0.00 SECONDS (       0.00 SEC/ITER)

 FINAL ENERGY IS       -0.6014008773 AFTER   2 ITERATIONS
 ...... END OF RHF CALCULATION ......

                         TIMING STATISTICS ON RANK 0:
 CPU        TIME:   STEP =      0.01 ,  TOTAL =        0.4 SECONDS (    0.0 MIN)
 WALL CLOCK TIME:   STEP =      0.01 ,  TOTAL =        0.3 SECONDS (    0.0 MIN)
 CPU UTILIZATION:   STEP =     73.35%,  TOTAL =     114.11%
 ...... END OF TWO-ELECTRON INTEGRALS .....

 CPU        TIME:   STEP =      0.00 ,  TOTAL =        0.4 SECONDS (    0.0 MIN)
 WALL CLOCK TIME:   STEP =      0.00 ,  TOTAL =        0.3 SECONDS (    0.0 MIN)
 CPU UTILIZATION:   STEP =      0.00%,  TOTAL =     113.63%

 DETERMINANT CI OPTIONS   NRNFG   NPFLG
 INTEGRAL TRANSFORMATION    1      -5
 DIAGONALIZE HAMILTONIAN    1      -5
 FORM 1E- DENSITY MATRIX    1      -5
 FORM 2E- DENSITY MATRIX    0      -5

 ---- SURFACE MAPPING GEOMETRY ----
 COORD 1=  -0.20000  COORD 2=   0.00000
 HAS ENERGY VALUES         -0.9331638771          -0.9331636496          -0.2688029314          -0.2688026338 
 H             0.0000000000          0.0000000000          0.0000000000
 H             0.0000000000          0.0000000000          4.8000000000
 ----------------------------------
 ...... END OF ONE-ELECTRON INTEGRALS ......

                         TIMING STATISTICS ON RANK 0:
 CPU        TIME:   STEP =      0.01 ,  TOTAL =        0.4 SECONDS (    0.0 MIN)
 WALL CLOCK TIME:   STEP =      0.01 ,  TOTAL =        0.4 SECONDS (    0.0 MIN)
 CPU UTILIZATION:   STEP =     79.96%,  TOTAL =     112.44%

 LOG10 OF CONDITION NUMBER OF OVERLAP MATRIX IS:  1.97710149E-04
 ...... END OF TWO-ELECTRON INTEGRALS .....

                         TIMING STATISTICS ON RANK 0:
 CPU        TIME:   STEP =      0.00 ,  TOTAL =        0.4 SECONDS (    0.0 MIN)
 WALL CLOCK TIME:   STEP =      0.01 ,  TOTAL =        0.4 SECONDS (    0.0 MIN)
 CPU UTILIZATION:   STEP =      0.00%,  TOTAL =     110.29%

 DIRECT SCF CALCULATION, SCHWRZ=T   FDIFF=F

                                                                                                              NONZERO    BLOCKS
 ITER EX DEM  TOTAL ENERGY      E CHANGE  DENSITY CHANGE    DIIS ERROR      VIR. SHIFT       DAMPING        INTEGRALS   SKIPPED
          * * *   INITIATING DIIS PROCEDURE   * * *
   1  0  0    -0.602038453    -0.602038453   0.000000000   0.000000000     0.000000000     1.000000000              6         0
   2  1  0    -0.602038453     0.000000000   0.000000000   0.000000000     0.088119348     1.000000000              6         0

          -----------------
          DENSITY CONVERGED
          -----------------
     TIME TO FORM FOCK OPERATORS =       0.00 SECONDS (       0.00 SEC/ITER)
     FOCK TIME ON FIRST ITERATION=       0.00, LAST ITERATION=       0.00
     TIME TO SOLVE SCF EQUATIONS =       0.00 SECONDS (       0.00 SEC/ITER)

 FINAL ENERGY IS       -0.6020384531 AFTER   2 ITERATIONS
 ...... END OF RHF CALCULATION ......

                         TIMING STATISTICS ON RANK 0:
 CPU        TIME:   STEP =      0.01 ,  TOTAL =        0.4 SECONDS (    0.0 MIN)
 WALL CLOCK TIME:   STEP =      0.01 ,  TOTAL =        0.4 SECONDS (    0.0 MIN)
 CPU UTILIZATION:   STEP =     75.98%,  TOTAL =     109.09%
 ...... END OF TWO-ELECTRON INTEGRALS .....

 CPU        TIME:   STEP =      0.00 ,  TOTAL =        0.4 SECONDS (    0.0 MIN)
 WALL CLOCK TIME:   STEP =      0.00 ,  TOTAL =        0.4 SECONDS (    0.0 MIN)
 CPU UTILIZATION:   STEP =      0.00%,  TOTAL =     108.68%

 DETERMINANT CI OPTIONS   NRNFG   NPFLG
 INTEGRAL TRANSFORMATION    1      -5
 DIAGONALIZE HAMILTONIAN    1      -5
 FORM 1E- DENSITY MATRIX    1      -5
 FORM 2E- DENSITY MATRIX    0      -5

 ---- SURFACE MAPPING GEOMETRY ----
 COORD 1=  -0.25000  COORD 2=   0.00000
 HAS ENERGY VALUES         -0.9331639276          -0.9331636339          -0.2699633831          -0.2699629964 
 H             0.0000000000          0.0000000000          0.0000000000
 H             0.0000000000          0.0000000000          4.7500000000
 ----------------------------------
 ...... END OF ONE-ELECTRON INTEGRALS ......

                         TIMING STATISTICS ON RANK 0:
 CPU        TIME:   STEP =      0.01 ,  TOTAL =        0.4 SECONDS (    0.0 MIN)
 WALL CLOCK TIME:   STEP =      0.01 ,  TOTAL =        0.4 SECONDS (    0.0 MIN)
 CPU UTILIZATION:   STEP =     86.19%,  TOTAL =     108.01%

 LOG10 OF CONDITION NUMBER OF OVERLAP MATRIX IS:  2.28666306E-04
 ...... END OF TWO-ELECTRON INTEGRALS .....

                         TIMING STATISTICS ON RANK 0:
 CPU        TIME:   STEP =      0.00 ,  TOTAL =        0.4 SECONDS (    0.0 MIN)
 WALL CLOCK TIME:   STEP =      0.01 ,  TOTAL =        0.4 SECONDS (    0.0 MIN)
 CPU UTILIZATION:   STEP =      0.00%,  TOTAL =     106.17%

 DIRECT SCF CALCULATION, SCHWRZ=T   FDIFF=F

                                                                                                              NONZERO    BLOCKS
 ITER EX DEM  TOTAL ENERGY      E CHANGE  DENSITY CHANGE    DIIS ERROR      VIR. SHIFT       DAMPING        INTEGRALS   SKIPPED
          * * *   INITIATING DIIS PROCEDURE   * * *
   1  0  0    -0.602695594    -0.602695594   0.000000000   0.000000000     0.000000000     1.000000000              6         0
   2  1  0    -0.602695594     0.000000000   0.000000000   0.000000000     0.086869604     1.000000000              6         0

          -----------------
          DENSITY CONVERGED
          -----------------
     TIME TO FORM FOCK OPERATORS =       0.00 SECONDS (       0.00 SEC/ITER)
     FOCK TIME ON FIRST ITERATION=       0.00, LAST ITERATION=       0.00
     TIME TO SOLVE SCF EQUATIONS =       0.00 SECONDS (       0.00 SEC/ITER)

 FINAL ENERGY IS       -0.6026955941 AFTER   2 ITERATIONS
 ...... END OF RHF CALCULATION ......

                         TIMING STATISTICS ON RANK 0:
 CPU        TIME:   STEP =      0.01 ,  TOTAL =        0.4 SECONDS (    0.0 MIN)
 WALL CLOCK TIME:   STEP =      0.01 ,  TOTAL =        0.4 SECONDS (    0.0 MIN)
 CPU UTILIZATION:   STEP =     70.04%,  TOTAL =     104.91%
 ...... END OF TWO-ELECTRON INTEGRALS .....

 CPU        TIME:   STEP =      0.00 ,  TOTAL =        0.4 SECONDS (    0.0 MIN)
 WALL CLOCK TIME:   STEP =      0.00 ,  TOTAL =        0.4 SECONDS (    0.0 MIN)
 CPU UTILIZATION:   STEP =      0.00%,  TOTAL =     104.52%

 DETERMINANT CI OPTIONS   NRNFG   NPFLG
 INTEGRAL TRANSFORMATION    1      -5
 DIAGONALIZE HAMILTONIAN    1      -5
 FORM 1E- DENSITY MATRIX    1      -5
 FORM 2E- DENSITY MATRIX    0      -5

 ---- SURFACE MAPPING GEOMETRY ----
 COORD 1=  -0.30000  COORD 2=   0.00000
 HAS ENERGY VALUES         -0.9331639918          -0.9331636135          -0.2711485182          -0.2711480169 
 H             0.0000000000          0.0000000000          0.0000000000
 H             0.0000000000          0.0000000000          4.7000000000
 ----------------------------------
 ...... END OF ONE-ELECTRON INTEGRALS ......

                         TIMING STATISTICS ON RANK 0:
 CPU        TIME:   STEP =      0.02 ,  TOTAL =        0.4 SECONDS (    0.0 MIN)
 WALL CLOCK TIME:   STEP =      0.01 ,  TOTAL =        0.4 SECONDS (    0.0 MIN)
 CPU UTILIZATION:   STEP =    142.18%,  TOTAL =     105.77%

 LOG10 OF CONDITION NUMBER OF OVERLAP MATRIX IS:  2.64127201E-04
 ...... END OF TWO-ELECTRON INTEGRALS .....

                         TIMING STATISTICS ON RANK 0:
 CPU        TIME:   STEP =      0.00 ,  TOTAL =        0.4 SECONDS (    0.0 MIN)
 WALL CLOCK TIME:   STEP =      0.01 ,  TOTAL =        0.4 SECONDS (    0.0 MIN)
 CPU UTILIZATION:   STEP =      0.00%,  TOTAL =     104.09%

 DIRECT SCF CALCULATION, SCHWRZ=T   FDIFF=F

                                                                                                              NONZERO    BLOCKS
 ITER EX DEM  TOTAL ENERGY      E CHANGE  DENSITY CHANGE    DIIS ERROR      VIR. SHIFT       DAMPING        INTEGRALS   SKIPPED
          * * *   INITIATING DIIS PROCEDURE   * * *
   1  0  0    -0.603373527    -0.603373527   0.000000000   0.000000000     0.000000000     1.000000000              6         0
   2  1  0    -0.603373527     0.000000000   0.000000000   0.000000000     0.085586318     1.000000000              6         0

          -----------------
          DENSITY CONVERGED
          -----------------
     TIME TO FORM FOCK OPERATORS =       0.00 SECONDS (       0.00 SEC/ITER)
     FOCK TIME ON FIRST ITERATION=       0.00, LAST ITERATION=       0.00
     TIME TO SOLVE SCF EQUATIONS =       0.00 SECONDS (       0.00 SEC/ITER)

 FINAL ENERGY IS       -0.6033735266 AFTER   2 ITERATIONS
 ...... END OF RHF CALCULATION ......

                         TIMING STATISTICS ON RANK 0:
 CPU        TIME:   STEP =      0.01 ,  TOTAL =        0.5 SECONDS (    0.0 MIN)
 WALL CLOCK TIME:   STEP =      0.01 ,  TOTAL =        0.4 SECONDS (    0.0 MIN)
 CPU UTILIZATION:   STEP =     71.36%,  TOTAL =     103.07%
 ...... END OF TWO-ELECTRON INTEGRALS .....

 CPU        TIME:   STEP =      0.00 ,  TOTAL =        0.5 SECONDS (    0.0 MIN)
 WALL CLOCK TIME:   STEP =      0.00 ,  TOTAL =        0.4 SECONDS (    0.0 MIN)
 CPU UTILIZATION:   STEP =      0.00%,  TOTAL =     102.74%

 DETERMINANT CI OPTIONS   NRNFG   NPFLG
 INTEGRAL TRANSFORMATION    1      -5
 DIAGONALIZE HAMILTONIAN    1      -5
 FORM 1E- DENSITY MATRIX    1      -5
 FORM 2E- DENSITY MATRIX    0      -5

 ---- SURFACE MAPPING GEOMETRY ----
 COORD 1=  -0.35000  COORD 2=   0.00000
 HAS ENERGY VALUES         -0.9331640733          -0.9331635872          -0.2723591311          -0.2723584827 
 H             0.0000000000          0.0000000000          0.0000000000
 H             0.0000000000          0.0000000000          4.6500000000
 ----------------------------------
 ...... END OF ONE-ELECTRON INTEGRALS ......

                         TIMING STATISTICS ON RANK 0:
 CPU        TIME:   STEP =      0.01 ,  TOTAL =        0.5 SECONDS (    0.0 MIN)
 WALL CLOCK TIME:   STEP =      0.01 ,  TOTAL =        0.5 SECONDS (    0.0 MIN)
 CPU UTILIZATION:   STEP =     70.60%,  TOTAL =     101.76%

 LOG10 OF CONDITION NUMBER OF OVERLAP MATRIX IS:  3.04695908E-04
 ...... END OF TWO-ELECTRON INTEGRALS .....

                         TIMING STATISTICS ON RANK 0:
 CPU        TIME:   STEP =      0.01 ,  TOTAL =        0.5 SECONDS (    0.0 MIN)
 WALL CLOCK TIME:   STEP =      0.01 ,  TOTAL =        0.5 SECONDS (    0.0 MIN)
 CPU UTILIZATION:   STEP =    136.33%,  TOTAL =     102.30%

 DIRECT SCF CALCULATION, SCHWRZ=T   FDIFF=F

                                                                                                              NONZERO    BLOCKS
 ITER EX DEM  TOTAL ENERGY      E CHANGE  DENSITY CHANGE    DIIS ERROR      VIR. SHIFT       DAMPING        INTEGRALS   SKIPPED
          * * *   INITIATING DIIS PROCEDURE   * * *
   1  0  0    -0.604073580    -0.604073580   0.000000000   0.000000000     0.000000000     1.000000000              6         0
   2  1  0    -0.604073580     0.000000000   0.000000000   0.000000000     0.084267744     1.000000000              6         0

          -----------------
          DENSITY CONVERGED
          -----------------
     TIME TO FORM FOCK OPERATORS =       0.00 SECONDS (       0.00 SEC/ITER)
     FOCK TIME ON FIRST ITERATION=       0.00, LAST ITERATION=       0.00
     TIME TO SOLVE SCF EQUATIONS =       0.00 SECONDS (       0.00 SEC/ITER)

 FINAL ENERGY IS       -0.6040735800 AFTER   2 ITERATIONS
 ...... END OF RHF CALCULATION ......

                         TIMING STATISTICS ON RANK 0:
 CPU        TIME:   STEP =      0.00 ,  TOTAL =        0.5 SECONDS (    0.0 MIN)
 WALL CLOCK TIME:   STEP =      0.01 ,  TOTAL =        0.5 SECONDS (    0.0 MIN)
 CPU UTILIZATION:   STEP =      0.00%,  TOTAL =      99.32%
 ...... END OF TWO-ELECTRON INTEGRALS .....

 CPU        TIME:   STEP =      0.00 ,  TOTAL =        0.5 SECONDS (    0.0 MIN)
 WALL CLOCK TIME:   STEP =      0.00 ,  TOTAL =        0.5 SECONDS (    0.0 MIN)
 CPU UTILIZATION:   STEP =      0.00%,  TOTAL =      99.04%

 DETERMINANT CI OPTIONS   NRNFG   NPFLG
 INTEGRAL TRANSFORMATION    1      -5
 DIAGONALIZE HAMILTONIAN    1      -5
 FORM 1E- DENSITY MATRIX    1      -5
 FORM 2E- DENSITY MATRIX    0      -5

 ---- SURFACE MAPPING GEOMETRY ----
 COORD 1=  -0.40000  COORD 2=   0.00000
 HAS ENERGY VALUES         -0.9331641766          -0.9331635533          -0.2735960500          -0.2735952133 
 H             0.0000000000          0.0000000000          0.0000000000
 H             0.0000000000          0.0000000000          4.6000000000
 ----------------------------------
 ...... END OF ONE-ELECTRON INTEGRALS ......

                         TIMING STATISTICS ON RANK 0:
 CPU        TIME:   STEP =      0.02 ,  TOTAL =        0.5 SECONDS (    0.0 MIN)
 WALL CLOCK TIME:   STEP =      0.01 ,  TOTAL =        0.5 SECONDS (    0.0 MIN)
 CPU UTILIZATION:   STEP =    173.63%,  TOTAL =     100.77%

 LOG10 OF CONDITION NUMBER OF OVERLAP MATRIX IS:  3.51048836E-04
 ...... END OF TWO-ELECTRON INTEGRALS .....

                         TIMING STATISTICS ON RANK 0:
 CPU        TIME:   STEP =      0.00 ,  TOTAL =        0.5 SECONDS (    0.0 MIN)
 WALL CLOCK TIME:   STEP =      0.01 ,  TOTAL =        0.5 SECONDS (    0.0 MIN)
 CPU UTILIZATION:   STEP =      0.00%,  TOTAL =      99.42%

 DIRECT SCF CALCULATION, SCHWRZ=T   FDIFF=F

                                                                                                              NONZERO    BLOCKS
 ITER EX DEM  TOTAL ENERGY      E CHANGE  DENSITY CHANGE    DIIS ERROR      VIR. SHIFT       DAMPING        INTEGRALS   SKIPPED
          * * *   INITIATING DIIS PROCEDURE   * * *
   1  0  0    -0.604797197    -0.604797197   0.000000000   0.000000000     0.000000000     1.000000000              6         0
   2  1  0    -0.604797197     0.000000000   0.000000000   0.000000000     0.082912005     1.000000000              6         0

          -----------------
          DENSITY CONVERGED
          -----------------
     TIME TO FORM FOCK OPERATORS =       0.00 SECONDS (       0.00 SEC/ITER)
     FOCK TIME ON FIRST ITERATION=       0.00, LAST ITERATION=       0.00
     TIME TO SOLVE SCF EQUATIONS =       0.00 SECONDS (       0.00 SEC/ITER)

 FINAL ENERGY IS       -0.6047971968 AFTER   2 ITERATIONS
 ...... END OF RHF CALCULATION ......

                         TIMING STATISTICS ON RANK 0:
 CPU        TIME:   STEP =      0.01 ,  TOTAL =        0.5 SECONDS (    0.0 MIN)
 WALL CLOCK TIME:   STEP =      0.01 ,  TOTAL =        0.5 SECONDS (    0.0 MIN)
 CPU UTILIZATION:   STEP =     72.86%,  TOTAL =      98.72%
 ...... END OF TWO-ELECTRON INTEGRALS .....

 CPU        TIME:   STEP =      0.00 ,  TOTAL =        0.5 SECONDS (    0.0 MIN)
 WALL CLOCK TIME:   STEP =      0.00 ,  TOTAL =        0.5 SECONDS (    0.0 MIN)
 CPU UTILIZATION:   STEP =      0.00%,  TOTAL =      98.45%

 DETERMINANT CI OPTIONS   NRNFG   NPFLG
 INTEGRAL TRANSFORMATION    1      -5
 DIAGONALIZE HAMILTONIAN    1      -5
 FORM 1E- DENSITY MATRIX    1      -5
 FORM 2E- DENSITY MATRIX    0      -5

 ---- SURFACE MAPPING GEOMETRY ----
 COORD 1=  -0.45000  COORD 2=   0.00000
 HAS ENERGY VALUES         -0.9331643071          -0.9331635098          -0.2748601390          -0.2748590617 
 H             0.0000000000          0.0000000000          0.0000000000
 H             0.0000000000          0.0000000000          4.5500000000
 ----------------------------------
 ...... END OF ONE-ELECTRON INTEGRALS ......

                         TIMING STATISTICS ON RANK 0:
 CPU        TIME:   STEP =      0.01 ,  TOTAL =        0.5 SECONDS (    0.0 MIN)
 WALL CLOCK TIME:   STEP =      0.01 ,  TOTAL =        0.5 SECONDS (    0.0 MIN)
 CPU UTILIZATION:   STEP =     92.02%,  TOTAL =      98.32%

 LOG10 OF CONDITION NUMBER OF OVERLAP MATRIX IS:  4.03943680E-04
 ...... END OF TWO-ELECTRON INTEGRALS .....

                         TIMING STATISTICS ON RANK 0:
 CPU        TIME:   STEP =      0.00 ,  TOTAL =        0.5 SECONDS (    0.0 MIN)
 WALL CLOCK TIME:   STEP =      0.01 ,  TOTAL =        0.5 SECONDS (    0.0 MIN)
 CPU UTILIZATION:   STEP =      0.00%,  TOTAL =      97.03%

 DIRECT SCF CALCULATION, SCHWRZ=T   FDIFF=F

                                                                                                              NONZERO    BLOCKS
 ITER EX DEM  TOTAL ENERGY      E CHANGE  DENSITY CHANGE    DIIS ERROR      VIR. SHIFT       DAMPING        INTEGRALS   SKIPPED
          * * *   INITIATING DIIS PROCEDURE   * * *
   1  0  0    -0.605545941    -0.605545941   0.000000000   0.000000000     0.000000000     1.000000000              6         0
   2  1  0    -0.605545941     0.000000000   0.000000000   0.000000000     0.081517079     1.000000000              6         0

          -----------------
          DENSITY CONVERGED
          -----------------
     TIME TO FORM FOCK OPERATORS =       0.00 SECONDS (       0.00 SEC/ITER)
     FOCK TIME ON FIRST ITERATION=       0.00, LAST ITERATION=       0.00
     TIME TO SOLVE SCF EQUATIONS =       0.01 SECONDS (       0.01 SEC/ITER)

 FINAL ENERGY IS       -0.6055459411 AFTER   2 ITERATIONS
 ...... END OF RHF CALCULATION ......

                         TIMING STATISTICS ON RANK 0:
 CPU        TIME:   STEP =      0.01 ,  TOTAL =        0.5 SECONDS (    0.0 MIN)
 WALL CLOCK TIME:   STEP =      0.01 ,  TOTAL =        0.5 SECONDS (    0.0 MIN)
 CPU UTILIZATION:   STEP =     72.80%,  TOTAL =      96.43%
 ...... END OF TWO-ELECTRON INTEGRALS .....

 CPU        TIME:   STEP =      0.00 ,  TOTAL =        0.5 SECONDS (    0.0 MIN)
 WALL CLOCK TIME:   STEP =      0.00 ,  TOTAL =        0.6 SECONDS (    0.0 MIN)
 CPU UTILIZATION:   STEP =      0.00%,  TOTAL =      96.13%

 DETERMINANT CI OPTIONS   NRNFG   NPFLG
 INTEGRAL TRANSFORMATION    1      -5
 DIAGONALIZE HAMILTONIAN    1      -5
 FORM 1E- DENSITY MATRIX    1      -5
 FORM 2E- DENSITY MATRIX    0      -5

 ---- SURFACE MAPPING GEOMETRY ----
 COORD 1=  -0.50000  COORD 2=   0.00000
 HAS ENERGY VALUES         -0.9331644717          -0.9331634539          -0.2761522996          -0.2761509158 
 H             0.0000000000          0.0000000000          0.0000000000
 H             0.0000000000          0.0000000000          4.5000000000
 ----------------------------------
 ...... END OF ONE-ELECTRON INTEGRALS ......

                         TIMING STATISTICS ON RANK 0:
 CPU        TIME:   STEP =      0.01 ,  TOTAL =        0.5 SECONDS (    0.0 MIN)
 WALL CLOCK TIME:   STEP =      0.01 ,  TOTAL =        0.6 SECONDS (    0.0 MIN)
 CPU UTILIZATION:   STEP =     85.54%,  TOTAL =      95.91%

 LOG10 OF CONDITION NUMBER OF OVERLAP MATRIX IS:  4.64228128E-04
 ...... END OF TWO-ELECTRON INTEGRALS .....

                         TIMING STATISTICS ON RANK 0:
 CPU        TIME:   STEP =      0.01 ,  TOTAL =        0.5 SECONDS (    0.0 MIN)
 WALL CLOCK TIME:   STEP =      0.01 ,  TOTAL =        0.6 SECONDS (    0.0 MIN)
 CPU UTILIZATION:   STEP =    147.19%,  TOTAL =      96.53%

 DIRECT SCF CALCULATION, SCHWRZ=T   FDIFF=F

                                                                                                              NONZERO    BLOCKS
 ITER EX DEM  TOTAL ENERGY      E CHANGE  DENSITY CHANGE    DIIS ERROR      VIR. SHIFT       DAMPING        INTEGRALS   SKIPPED
          * * *   INITIATING DIIS PROCEDURE   * * *
   1  0  0    -0.606321510    -0.606321510   0.000000000   0.000000000     0.000000000     1.000000000              6         0
   2  1  0    -0.606321510     0.000000000   0.000000000   0.000000000     0.080080794     1.000000000              6         0

          -----------------
          DENSITY CONVERGED
          -----------------
     TIME TO FORM FOCK OPERATORS =       0.00 SECONDS (       0.00 SEC/ITER)
     FOCK TIME ON FIRST ITERATION=       0.00, LAST ITERATION=       0.00
     TIME TO SOLVE SCF EQUATIONS =       0.00 SECONDS (       0.00 SEC/ITER)

 FINAL ENERGY IS       -0.6063215101 AFTER   2 ITERATIONS
 ...... END OF RHF CALCULATION ......

                         TIMING STATISTICS ON RANK 0:
 CPU        TIME:   STEP =      0.01 ,  TOTAL =        0.6 SECONDS (    0.0 MIN)
 WALL CLOCK TIME:   STEP =      0.01 ,  TOTAL =        0.6 SECONDS (    0.0 MIN)
 CPU UTILIZATION:   STEP =     68.62%,  TOTAL =      95.83%
 ...... END OF TWO-ELECTRON INTEGRALS .....

 CPU        TIME:   STEP =      0.00 ,  TOTAL =        0.6 SECONDS (    0.0 MIN)
 WALL CLOCK TIME:   STEP =      0.00 ,  TOTAL =        0.6 SECONDS (    0.0 MIN)
 CPU UTILIZATION:   STEP =      0.00%,  TOTAL =      95.60%

 DETERMINANT CI OPTIONS   NRNFG   NPFLG
 INTEGRAL TRANSFORMATION    1      -5
 DIAGONALIZE HAMILTONIAN    1      -5
 FORM 1E- DENSITY MATRIX    1      -5
 FORM 2E- DENSITY MATRIX    0      -5

 ---- SURFACE MAPPING GEOMETRY ----
 COORD 1=  -0.55000  COORD 2=   0.00000
 HAS ENERGY VALUES         -0.9331646791          -0.9331633823          -0.2774734731          -0.2774716993 
 H             0.0000000000          0.0000000000          0.0000000000
 H             0.0000000000          0.0000000000          4.4500000000
 ----------------------------------
 ...... END OF ONE-ELECTRON INTEGRALS ......

                         TIMING STATISTICS ON RANK 0:
 CPU        TIME:   STEP =      0.00 ,  TOTAL =        0.6 SECONDS (    0.0 MIN)
 WALL CLOCK TIME:   STEP =      0.01 ,  TOTAL =        0.6 SECONDS (    0.0 MIN)
 CPU UTILIZATION:   STEP =      0.00%,  TOTAL =      93.79%

 LOG10 OF CONDITION NUMBER OF OVERLAP MATRIX IS:  5.32849356E-04
 ...... END OF TWO-ELECTRON INTEGRALS .....

                         TIMING STATISTICS ON RANK 0:
 CPU        TIME:   STEP =      0.01 ,  TOTAL =        0.6 SECONDS (    0.0 MIN)
 WALL CLOCK TIME:   STEP =      0.01 ,  TOTAL =        0.6 SECONDS (    0.0 MIN)
 CPU UTILIZATION:   STEP =    145.77%,  TOTAL =      94.38%

 DIRECT SCF CALCULATION, SCHWRZ=T   FDIFF=F

                                                                                                              NONZERO    BLOCKS
 ITER EX DEM  TOTAL ENERGY      E CHANGE  DENSITY CHANGE    DIIS ERROR      VIR. SHIFT       DAMPING        INTEGRALS   SKIPPED
          * * *   INITIATING DIIS PROCEDURE   * * *
   1  0  0    -0.607125744    -0.607125744   0.000000000   0.000000000     0.000000000     1.000000000              6         0
   2  1  0    -0.607125744     0.000000000   0.000000000   0.000000000     0.078600809     1.000000000              6         0

          -----------------
          DENSITY CONVERGED
          -----------------
     TIME TO FORM FOCK OPERATORS =       0.00 SECONDS (       0.00 SEC/ITER)
     FOCK TIME ON FIRST ITERATION=       0.00, LAST ITERATION=       0.00
     TIME TO SOLVE SCF EQUATIONS =       0.00 SECONDS (       0.00 SEC/ITER)

 FINAL ENERGY IS       -0.6071257444 AFTER   2 ITERATIONS
 ...... END OF RHF CALCULATION ......

                         TIMING STATISTICS ON RANK 0:
 CPU        TIME:   STEP =      0.00 ,  TOTAL =        0.6 SECONDS (    0.0 MIN)
 WALL CLOCK TIME:   STEP =      0.01 ,  TOTAL =        0.6 SECONDS (    0.0 MIN)
 CPU UTILIZATION:   STEP =      0.00%,  TOTAL =      92.25%
 ...... END OF TWO-ELECTRON INTEGRALS .....

 CPU        TIME:   STEP =      0.01 ,  TOTAL =        0.6 SECONDS (    0.0 MIN)
 WALL CLOCK TIME:   STEP =      0.00 ,  TOTAL =        0.6 SECONDS (    0.0 MIN)
 CPU UTILIZATION:   STEP =    735.84%,  TOTAL =      93.66%

 DETERMINANT CI OPTIONS   NRNFG   NPFLG
 INTEGRAL TRANSFORMATION    1      -5
 DIAGONALIZE HAMILTONIAN    1      -5
 FORM 1E- DENSITY MATRIX    1      -5
 FORM 2E- DENSITY MATRIX    0      -5

 ---- SURFACE MAPPING GEOMETRY ----
 COORD 1=  -0.60000  COORD 2=   0.00000
 HAS ENERGY VALUES         -0.9331649396          -0.9331632910          -0.2788246418          -0.2788223732 
 H             0.0000000000          0.0000000000          0.0000000000
 H             0.0000000000          0.0000000000          4.4000000000
 ----------------------------------
 ...... END OF ONE-ELECTRON INTEGRALS ......

                         TIMING STATISTICS ON RANK 0:
 CPU        TIME:   STEP =      0.01 ,  TOTAL =        0.6 SECONDS (    0.0 MIN)
 WALL CLOCK TIME:   STEP =      0.01 ,  TOTAL =        0.6 SECONDS (    0.0 MIN)
 CPU UTILIZATION:   STEP =     88.93%,  TOTAL =      93.58%

 LOG10 OF CONDITION NUMBER OF OVERLAP MATRIX IS:  6.10864389E-04
 ...... END OF TWO-ELECTRON INTEGRALS .....

                         TIMING STATISTICS ON RANK 0:
 CPU        TIME:   STEP =      0.01 ,  TOTAL =        0.6 SECONDS (    0.0 MIN)
 WALL CLOCK TIME:   STEP =      0.01 ,  TOTAL =        0.6 SECONDS (    0.0 MIN)
 CPU UTILIZATION:   STEP =    147.95%,  TOTAL =      94.15%

 DIRECT SCF CALCULATION, SCHWRZ=T   FDIFF=F

                                                                                                              NONZERO    BLOCKS
 ITER EX DEM  TOTAL ENERGY      E CHANGE  DENSITY CHANGE    DIIS ERROR      VIR. SHIFT       DAMPING        INTEGRALS   SKIPPED
          * * *   INITIATING DIIS PROCEDURE   * * *
   1  0  0    -0.607960641    -0.607960641   0.000000000   0.000000000     0.000000000     1.000000000              6         0
   2  1  0    -0.607960641     0.000000000   0.000000000   0.000000000     0.077074605     1.000000000              6         0

          -----------------
          DENSITY CONVERGED
          -----------------
     TIME TO FORM FOCK OPERATORS =       0.00 SECONDS (       0.00 SEC/ITER)
     FOCK TIME ON FIRST ITERATION=       0.00, LAST ITERATION=       0.00
     TIME TO SOLVE SCF EQUATIONS =       0.00 SECONDS (       0.00 SEC/ITER)

 FINAL ENERGY IS       -0.6079606406 AFTER   2 ITERATIONS
 ...... END OF RHF CALCULATION ......

                         TIMING STATISTICS ON RANK 0:
 CPU        TIME:   STEP =      0.00 ,  TOTAL =        0.6 SECONDS (    0.0 MIN)
 WALL CLOCK TIME:   STEP =      0.01 ,  TOTAL =        0.7 SECONDS (    0.0 MIN)
 CPU UTILIZATION:   STEP =      0.00%,  TOTAL =      92.18%
 ...... END OF TWO-ELECTRON INTEGRALS .....

 CPU        TIME:   STEP =      0.00 ,  TOTAL =        0.6 SECONDS (    0.0 MIN)
 WALL CLOCK TIME:   STEP =      0.00 ,  TOTAL =        0.7 SECONDS (    0.0 MIN)
 CPU UTILIZATION:   STEP =      0.00%,  TOTAL =      91.99%

 DETERMINANT CI OPTIONS   NRNFG   NPFLG
 INTEGRAL TRANSFORMATION    1      -5
 DIAGONALIZE HAMILTONIAN    1      -5
 FORM 1E- DENSITY MATRIX    1      -5
 FORM 2E- DENSITY MATRIX    0      -5

 ---- SURFACE MAPPING GEOMETRY ----
 COORD 1=  -0.65000  COORD 2=   0.00000
 HAS ENERGY VALUES         -0.9331652664          -0.9331631745          -0.2802068320          -0.2802039366 
 H             0.0000000000          0.0000000000          0.0000000000
 H             0.0000000000          0.0000000000          4.3500000000
 ----------------------------------
 ...... END OF ONE-ELECTRON INTEGRALS ......

                         TIMING STATISTICS ON RANK 0:
 CPU        TIME:   STEP =      0.01 ,  TOTAL =        0.6 SECONDS (    0.0 MIN)
 WALL CLOCK TIME:   STEP =      0.01 ,  TOTAL =        0.7 SECONDS (    0.0 MIN)
 CPU UTILIZATION:   STEP =     90.54%,  TOTAL =      91.96%

 LOG10 OF CONDITION NUMBER OF OVERLAP MATRIX IS:  6.99451372E-04
 ...... END OF TWO-ELECTRON INTEGRALS .....

                         TIMING STATISTICS ON RANK 0:
 CPU        TIME:   STEP =      0.01 ,  TOTAL =        0.6 SECONDS (    0.0 MIN)
 WALL CLOCK TIME:   STEP =      0.01 ,  TOTAL =        0.7 SECONDS (    0.0 MIN)
 CPU UTILIZATION:   STEP =    150.04%,  TOTAL =      92.54%

 DIRECT SCF CALCULATION, SCHWRZ=T   FDIFF=F

                                                                                                              NONZERO    BLOCKS
 ITER EX DEM  TOTAL ENERGY      E CHANGE  DENSITY CHANGE    DIIS ERROR      VIR. SHIFT       DAMPING        INTEGRALS   SKIPPED
          * * *   INITIATING DIIS PROCEDURE   * * *
   1  0  0    -0.608828363    -0.608828363   0.000000000   0.000000000     0.000000000     1.000000000              6         0
   2  1  0    -0.608828363     0.000000000   0.000000000   0.000000000     0.075499468     1.000000000              6         0

          -----------------
          DENSITY CONVERGED
          -----------------
     TIME TO FORM FOCK OPERATORS =       0.00 SECONDS (       0.00 SEC/ITER)
     FOCK TIME ON FIRST ITERATION=       0.00, LAST ITERATION=       0.00
     TIME TO SOLVE SCF EQUATIONS =       0.00 SECONDS (       0.00 SEC/ITER)

 FINAL ENERGY IS       -0.6088283634 AFTER   2 ITERATIONS
 ...... END OF RHF CALCULATION ......

                         TIMING STATISTICS ON RANK 0:
 CPU        TIME:   STEP =      0.00 ,  TOTAL =        0.6 SECONDS (    0.0 MIN)
 WALL CLOCK TIME:   STEP =      0.01 ,  TOTAL =        0.7 SECONDS (    0.0 MIN)
 CPU UTILIZATION:   STEP =      0.00%,  TOTAL =      90.62%
 ...... END OF TWO-ELECTRON INTEGRALS .....

 CPU        TIME:   STEP =      0.00 ,  TOTAL =        0.6 SECONDS (    0.0 MIN)
 WALL CLOCK TIME:   STEP =      0.00 ,  TOTAL =        0.7 SECONDS (    0.0 MIN)
 CPU UTILIZATION:   STEP =      0.00%,  TOTAL =      90.40%

 DETERMINANT CI OPTIONS   NRNFG   NPFLG
 INTEGRAL TRANSFORMATION    1      -5
 DIAGONALIZE HAMILTONIAN    1      -5
 FORM 1E- DENSITY MATRIX    1      -5
 FORM 2E- DENSITY MATRIX    0      -5

 ---- SURFACE MAPPING GEOMETRY ----
 COORD 1=  -0.70000  COORD 2=   0.00000
 HAS ENERGY VALUES         -0.9331656756          -0.9331630262          -0.2816211155          -0.2816174278 
 H             0.0000000000          0.0000000000          0.0000000000
 H             0.0000000000          0.0000000000          4.3000000000
 ----------------------------------
 ...... END OF ONE-ELECTRON INTEGRALS ......

                         TIMING STATISTICS ON RANK 0:
 CPU        TIME:   STEP =      0.02 ,  TOTAL =        0.6 SECONDS (    0.0 MIN)
 WALL CLOCK TIME:   STEP =      0.02 ,  TOTAL =        0.7 SECONDS (    0.0 MIN)
 CPU UTILIZATION:   STEP =    128.94%,  TOTAL =      91.25%

 LOG10 OF CONDITION NUMBER OF OVERLAP MATRIX IS:  7.99921800E-04
 ...... END OF TWO-ELECTRON INTEGRALS .....

                         TIMING STATISTICS ON RANK 0:
 CPU        TIME:   STEP =      0.01 ,  TOTAL =        0.7 SECONDS (    0.0 MIN)
 WALL CLOCK TIME:   STEP =      0.01 ,  TOTAL =        0.7 SECONDS (    0.0 MIN)
 CPU UTILIZATION:   STEP =     95.75%,  TOTAL =      91.32%

 DIRECT SCF CALCULATION, SCHWRZ=T   FDIFF=F

                                                                                                              NONZERO    BLOCKS
 ITER EX DEM  TOTAL ENERGY      E CHANGE  DENSITY CHANGE    DIIS ERROR      VIR. SHIFT       DAMPING        INTEGRALS   SKIPPED
          * * *   INITIATING DIIS PROCEDURE   * * *
   1  0  0    -0.609731259    -0.609731259   0.000000000   0.000000000     0.000000000     1.000000000              6         0
   2  1  0    -0.609731259     0.000000000   0.000000000   0.000000000     0.073872478     1.000000000              6         0

          -----------------
          DENSITY CONVERGED
          -----------------
     TIME TO FORM FOCK OPERATORS =       0.00 SECONDS (       0.00 SEC/ITER)
     FOCK TIME ON FIRST ITERATION=       0.00, LAST ITERATION=       0.00
     TIME TO SOLVE SCF EQUATIONS =       0.00 SECONDS (       0.00 SEC/ITER)

 FINAL ENERGY IS       -0.6097312590 AFTER   2 ITERATIONS
 ...... END OF RHF CALCULATION ......

                         TIMING STATISTICS ON RANK 0:
 CPU        TIME:   STEP =      0.00 ,  TOTAL =        0.7 SECONDS (    0.0 MIN)
 WALL CLOCK TIME:   STEP =      0.02 ,  TOTAL =        0.7 SECONDS (    0.0 MIN)
 CPU UTILIZATION:   STEP =      0.00%,  TOTAL =      89.40%
 ...... END OF TWO-ELECTRON INTEGRALS .....

 CPU        TIME:   STEP =      0.00 ,  TOTAL =        0.7 SECONDS (    0.0 MIN)
 WALL CLOCK TIME:   STEP =      0.00 ,  TOTAL =        0.7 SECONDS (    0.0 MIN)
 CPU UTILIZATION:   STEP =      0.00%,  TOTAL =      89.21%

 DETERMINANT CI OPTIONS   NRNFG   NPFLG
 INTEGRAL TRANSFORMATION    1      -5
 DIAGONALIZE HAMILTONIAN    1      -5
 FORM 1E- DENSITY MATRIX    1      -5
 FORM 2E- DENSITY MATRIX    0      -5

 ---- SURFACE MAPPING GEOMETRY ----
 COORD 1=  -0.75000  COORD 2=   0.00000
 HAS ENERGY VALUES         -0.9331661871          -0.9331628379          -0.2830686117          -0.2830639249 
 H             0.0000000000          0.0000000000          0.0000000000
 H             0.0000000000          0.0000000000          4.2500000000
 ----------------------------------
 ...... END OF ONE-ELECTRON INTEGRALS ......

                         TIMING STATISTICS ON RANK 0:
 CPU        TIME:   STEP =      0.01 ,  TOTAL =        0.7 SECONDS (    0.0 MIN)
 WALL CLOCK TIME:   STEP =      0.01 ,  TOTAL =        0.7 SECONDS (    0.0 MIN)
 CPU UTILIZATION:   STEP =     89.29%,  TOTAL =      89.21%

 LOG10 OF CONDITION NUMBER OF OVERLAP MATRIX IS:  9.13733790E-04
 ...... END OF TWO-ELECTRON INTEGRALS .....

                         TIMING STATISTICS ON RANK 0:
 CPU        TIME:   STEP =      0.01 ,  TOTAL =        0.7 SECONDS (    0.0 MIN)
 WALL CLOCK TIME:   STEP =      0.01 ,  TOTAL =        0.7 SECONDS (    0.0 MIN)
 CPU UTILIZATION:   STEP =    145.71%,  TOTAL =      89.73%

 DIRECT SCF CALCULATION, SCHWRZ=T   FDIFF=F

                                                                                                              NONZERO    BLOCKS
 ITER EX DEM  TOTAL ENERGY      E CHANGE  DENSITY CHANGE    DIIS ERROR      VIR. SHIFT       DAMPING        INTEGRALS   SKIPPED
          * * *   INITIATING DIIS PROCEDURE   * * *
   1  0  0    -0.610671869    -0.610671869   0.000000000   0.000000000     0.000000000     1.000000000              6         0
   2  1  0    -0.610671869     0.000000000   0.000000000   0.000000000     0.072190486     1.000000000              6         0

          -----------------
          DENSITY CONVERGED
          -----------------
     TIME TO FORM FOCK OPERATORS =       0.00 SECONDS (       0.00 SEC/ITER)
     FOCK TIME ON FIRST ITERATION=       0.00, LAST ITERATION=       0.00
     TIME TO SOLVE SCF EQUATIONS =       0.00 SECONDS (       0.00 SEC/ITER)

 FINAL ENERGY IS       -0.6106718695 AFTER   2 ITERATIONS
 ...... END OF RHF CALCULATION ......

                         TIMING STATISTICS ON RANK 0:
 CPU        TIME:   STEP =      0.01 ,  TOTAL =        0.7 SECONDS (    0.0 MIN)
 WALL CLOCK TIME:   STEP =      0.01 ,  TOTAL =        0.8 SECONDS (    0.0 MIN)
 CPU UTILIZATION:   STEP =     69.94%,  TOTAL =      89.35%
 ...... END OF TWO-ELECTRON INTEGRALS .....

 CPU        TIME:   STEP =      0.00 ,  TOTAL =        0.7 SECONDS (    0.0 MIN)
 WALL CLOCK TIME:   STEP =      0.00 ,  TOTAL =        0.8 SECONDS (    0.0 MIN)
 CPU UTILIZATION:   STEP =      0.00%,  TOTAL =      89.17%

 DETERMINANT CI OPTIONS   NRNFG   NPFLG
 INTEGRAL TRANSFORMATION    1      -5
 DIAGONALIZE HAMILTONIAN    1      -5
 FORM 1E- DENSITY MATRIX    1      -5
 FORM 2E- DENSITY MATRIX    0      -5

 ---- SURFACE MAPPING GEOMETRY ----
 COORD 1=  -0.80000  COORD 2=   0.00000
 HAS ENERGY VALUES         -0.9331668255          -0.9331625992          -0.2845504907          -0.2845445460 
 H             0.0000000000          0.0000000000          0.0000000000
 H             0.0000000000          0.0000000000          4.2000000000
 ----------------------------------
 ...... END OF ONE-ELECTRON INTEGRALS ......

                         TIMING STATISTICS ON RANK 0:
 CPU        TIME:   STEP =      0.00 ,  TOTAL =        0.7 SECONDS (    0.0 MIN)
 WALL CLOCK TIME:   STEP =      0.01 ,  TOTAL =        0.8 SECONDS (    0.0 MIN)
 CPU UTILIZATION:   STEP =      0.00%,  TOTAL =      87.85%

 LOG10 OF CONDITION NUMBER OF OVERLAP MATRIX IS:  1.04250641E-03
 ...... END OF TWO-ELECTRON INTEGRALS .....

                         TIMING STATISTICS ON RANK 0:
 CPU        TIME:   STEP =      0.01 ,  TOTAL =        0.7 SECONDS (    0.0 MIN)
 WALL CLOCK TIME:   STEP =      0.01 ,  TOTAL =        0.8 SECONDS (    0.0 MIN)
 CPU UTILIZATION:   STEP =    151.61%,  TOTAL =      88.39%

 DIRECT SCF CALCULATION, SCHWRZ=T   FDIFF=F

                                                                                                              NONZERO    BLOCKS
 ITER EX DEM  TOTAL ENERGY      E CHANGE  DENSITY CHANGE    DIIS ERROR      VIR. SHIFT       DAMPING        INTEGRALS   SKIPPED
          * * *   INITIATING DIIS PROCEDURE   * * *
   1  0  0    -0.611652947    -0.611652947   0.000000000   0.000000000     0.000000000     1.000000000              6         0
   2  1  0    -0.611652947     0.000000000   0.000000000   0.000000000     0.070450106     1.000000000              6         0

          -----------------
          DENSITY CONVERGED
          -----------------
     TIME TO FORM FOCK OPERATORS =       0.00 SECONDS (       0.00 SEC/ITER)
     FOCK TIME ON FIRST ITERATION=       0.00, LAST ITERATION=       0.00
     TIME TO SOLVE SCF EQUATIONS =       0.00 SECONDS (       0.00 SEC/ITER)

 FINAL ENERGY IS       -0.6116529468 AFTER   2 ITERATIONS
 ...... END OF RHF CALCULATION ......

                         TIMING STATISTICS ON RANK 0:
 CPU        TIME:   STEP =      0.00 ,  TOTAL =        0.7 SECONDS (    0.0 MIN)
 WALL CLOCK TIME:   STEP =      0.01 ,  TOTAL =        0.8 SECONDS (    0.0 MIN)
 CPU UTILIZATION:   STEP =      0.00%,  TOTAL =      86.88%
 ...... END OF TWO-ELECTRON INTEGRALS .....

 CPU        TIME:   STEP =      0.01 ,  TOTAL =        0.7 SECONDS (    0.0 MIN)
 WALL CLOCK TIME:   STEP =      0.00 ,  TOTAL =        0.8 SECONDS (    0.0 MIN)
 CPU UTILIZATION:   STEP =    706.21%,  TOTAL =      87.98%

 DETERMINANT CI OPTIONS   NRNFG   NPFLG
 INTEGRAL TRANSFORMATION    1      -5
 DIAGONALIZE HAMILTONIAN    1      -5
 FORM 1E- DENSITY MATRIX    1      -5
 FORM 2E- DENSITY MATRIX    0      -5

 ---- SURFACE MAPPING GEOMETRY ----
 COORD 1=  -0.85000  COORD 2=   0.00000
 HAS ENERGY VALUES         -0.9331676209          -0.9331622971          -0.2860679745          -0.2860604497 
 H             0.0000000000          0.0000000000          0.0000000000
 H             0.0000000000          0.0000000000          4.1500000000
 ----------------------------------
 ...... END OF ONE-ELECTRON INTEGRALS ......

                         TIMING STATISTICS ON RANK 0:
 CPU        TIME:   STEP =      0.01 ,  TOTAL =        0.7 SECONDS (    0.0 MIN)
 WALL CLOCK TIME:   STEP =      0.01 ,  TOTAL =        0.8 SECONDS (    0.0 MIN)
 CPU UTILIZATION:   STEP =     92.36%,  TOTAL =      88.04%

 LOG10 OF CONDITION NUMBER OF OVERLAP MATRIX IS:  1.18803516E-03
 ...... END OF TWO-ELECTRON INTEGRALS .....

                         TIMING STATISTICS ON RANK 0:
 CPU        TIME:   STEP =      0.00 ,  TOTAL =        0.7 SECONDS (    0.0 MIN)
 WALL CLOCK TIME:   STEP =      0.01 ,  TOTAL =        0.8 SECONDS (    0.0 MIN)
 CPU UTILIZATION:   STEP =      0.00%,  TOTAL =      87.31%

 DIRECT SCF CALCULATION, SCHWRZ=T   FDIFF=F

                                                                                                              NONZERO    BLOCKS
 ITER EX DEM  TOTAL ENERGY      E CHANGE  DENSITY CHANGE    DIIS ERROR      VIR. SHIFT       DAMPING        INTEGRALS   SKIPPED
          * * *   INITIATING DIIS PROCEDURE   * * *
   1  0  0    -0.612677469    -0.612677469   0.000000000   0.000000000     0.000000000     1.000000000              6         0
   2  1  0    -0.612677469     0.000000000   0.000000000   0.000000000     0.068647689     1.000000000              6         0

          -----------------
          DENSITY CONVERGED
          -----------------
     TIME TO FORM FOCK OPERATORS =       0.00 SECONDS (       0.00 SEC/ITER)
     FOCK TIME ON FIRST ITERATION=       0.00, LAST ITERATION=       0.00
     TIME TO SOLVE SCF EQUATIONS =       0.00 SECONDS (       0.00 SEC/ITER)

 FINAL ENERGY IS       -0.6126774685 AFTER   2 ITERATIONS
 ...... END OF RHF CALCULATION ......

                         TIMING STATISTICS ON RANK 0:
 CPU        TIME:   STEP =      0.01 ,  TOTAL =        0.7 SECONDS (    0.0 MIN)
 WALL CLOCK TIME:   STEP =      0.01 ,  TOTAL =        0.8 SECONDS (    0.0 MIN)
 CPU UTILIZATION:   STEP =     70.42%,  TOTAL =      87.02%
 ...... END OF TWO-ELECTRON INTEGRALS .....

 CPU        TIME:   STEP =      0.00 ,  TOTAL =        0.7 SECONDS (    0.0 MIN)
 WALL CLOCK TIME:   STEP =      0.00 ,  TOTAL =        0.8 SECONDS (    0.0 MIN)
 CPU UTILIZATION:   STEP =      0.00%,  TOTAL =      86.86%

 DETERMINANT CI OPTIONS   NRNFG   NPFLG
 INTEGRAL TRANSFORMATION    1      -5
 DIAGONALIZE HAMILTONIAN    1      -5
 FORM 1E- DENSITY MATRIX    1      -5
 FORM 2E- DENSITY MATRIX    0      -5

 ---- SURFACE MAPPING GEOMETRY ----
 COORD 1=  -0.90000  COORD 2=   0.00000
 HAS ENERGY VALUES         -0.9331686103          -0.9331619155          -0.2876223401          -0.2876128341 
 H             0.0000000000          0.0000000000          0.0000000000
 H             0.0000000000          0.0000000000          4.1000000000
 ----------------------------------
 ...... END OF ONE-ELECTRON INTEGRALS ......

                         TIMING STATISTICS ON RANK 0:
 CPU        TIME:   STEP =      0.01 ,  TOTAL =        0.7 SECONDS (    0.0 MIN)
 WALL CLOCK TIME:   STEP =      0.01 ,  TOTAL =        0.8 SECONDS (    0.0 MIN)
 CPU UTILIZATION:   STEP =     82.73%,  TOTAL =      86.80%

 LOG10 OF CONDITION NUMBER OF OVERLAP MATRIX IS:  1.35230861E-03
 ...... END OF TWO-ELECTRON INTEGRALS .....

                         TIMING STATISTICS ON RANK 0:
 CPU        TIME:   STEP =      0.01 ,  TOTAL =        0.7 SECONDS (    0.0 MIN)
 WALL CLOCK TIME:   STEP =      0.01 ,  TOTAL =        0.9 SECONDS (    0.0 MIN)
 CPU UTILIZATION:   STEP =    110.51%,  TOTAL =      87.05%

 DIRECT SCF CALCULATION, SCHWRZ=T   FDIFF=F

                                                                                                              NONZERO    BLOCKS
 ITER EX DEM  TOTAL ENERGY      E CHANGE  DENSITY CHANGE    DIIS ERROR      VIR. SHIFT       DAMPING        INTEGRALS   SKIPPED
          * * *   INITIATING DIIS PROCEDURE   * * *
   1  0  0    -0.613748653    -0.613748653   0.000000000   0.000000000     0.000000000     1.000000000              6         0
   2  1  0    -0.613748653     0.000000000   0.000000000   0.000000000     0.066779313     1.000000000              6         0

          -----------------
          DENSITY CONVERGED
          -----------------
     TIME TO FORM FOCK OPERATORS =       0.00 SECONDS (       0.00 SEC/ITER)
     FOCK TIME ON FIRST ITERATION=       0.00, LAST ITERATION=       0.00
     TIME TO SOLVE SCF EQUATIONS =       0.01 SECONDS (       0.01 SEC/ITER)

 FINAL ENERGY IS       -0.6137486530 AFTER   2 ITERATIONS
 ...... END OF RHF CALCULATION ......

                         TIMING STATISTICS ON RANK 0:
 CPU        TIME:   STEP =      0.01 ,  TOTAL =        0.8 SECONDS (    0.0 MIN)
 WALL CLOCK TIME:   STEP =      0.02 ,  TOTAL =        0.9 SECONDS (    0.0 MIN)
 CPU UTILIZATION:   STEP =     43.45%,  TOTAL =      85.90%
 ...... END OF TWO-ELECTRON INTEGRALS .....

 CPU        TIME:   STEP =      0.00 ,  TOTAL =        0.8 SECONDS (    0.0 MIN)
 WALL CLOCK TIME:   STEP =      0.00 ,  TOTAL =        0.9 SECONDS (    0.0 MIN)
 CPU UTILIZATION:   STEP =      0.00%,  TOTAL =      85.73%

 DETERMINANT CI OPTIONS   NRNFG   NPFLG
 INTEGRAL TRANSFORMATION    1      -5
 DIAGONALIZE HAMILTONIAN    1      -5
 FORM 1E- DENSITY MATRIX    1      -5
 FORM 2E- DENSITY MATRIX    0      -5

 ---- SURFACE MAPPING GEOMETRY ----
 COORD 1=  -0.95000  COORD 2=   0.00000
 HAS ENERGY VALUES         -0.9331698393          -0.9331614343          -0.2892149216          -0.2892029365 
 H             0.0000000000          0.0000000000          0.0000000000
 H             0.0000000000          0.0000000000          4.0500000000
 ----------------------------------
 ...... END OF ONE-ELECTRON INTEGRALS ......

                         TIMING STATISTICS ON RANK 0:
 CPU        TIME:   STEP =      0.01 ,  TOTAL =        0.8 SECONDS (    0.0 MIN)
 WALL CLOCK TIME:   STEP =      0.02 ,  TOTAL =        0.9 SECONDS (    0.0 MIN)
 CPU UTILIZATION:   STEP =     57.18%,  TOTAL =      85.17%

 LOG10 OF CONDITION NUMBER OF OVERLAP MATRIX IS:  1.53752624E-03
 ...... END OF TWO-ELECTRON INTEGRALS .....

                         TIMING STATISTICS ON RANK 0:
 CPU        TIME:   STEP =      0.01 ,  TOTAL =        0.8 SECONDS (    0.0 MIN)
 WALL CLOCK TIME:   STEP =      0.01 ,  TOTAL =        0.9 SECONDS (    0.0 MIN)
 CPU UTILIZATION:   STEP =     89.02%,  TOTAL =      85.22%

 DIRECT SCF CALCULATION, SCHWRZ=T   FDIFF=F

                                                                                                              NONZERO    BLOCKS
 ITER EX DEM  TOTAL ENERGY      E CHANGE  DENSITY CHANGE    DIIS ERROR      VIR. SHIFT       DAMPING        INTEGRALS   SKIPPED
          * * *   INITIATING DIIS PROCEDURE   * * *
   1  0  0    -0.614869975    -0.614869975   0.000000000   0.000000000     0.000000000     1.000000000              6         0
   2  1  0    -0.614869975     0.000000000   0.000000000   0.000000000     0.064840757     1.000000000              6         0

          -----------------
          DENSITY CONVERGED
          -----------------
     TIME TO FORM FOCK OPERATORS =       0.01 SECONDS (       0.00 SEC/ITER)
     FOCK TIME ON FIRST ITERATION=       0.00, LAST ITERATION=       0.01
     TIME TO SOLVE SCF EQUATIONS =       0.00 SECONDS (       0.00 SEC/ITER)

 FINAL ENERGY IS       -0.6148699753 AFTER   2 ITERATIONS
 ...... END OF RHF CALCULATION ......

                         TIMING STATISTICS ON RANK 0:
 CPU        TIME:   STEP =      0.01 ,  TOTAL =        0.8 SECONDS (    0.0 MIN)
 WALL CLOCK TIME:   STEP =      0.02 ,  TOTAL =        0.9 SECONDS (    0.0 MIN)
 CPU UTILIZATION:   STEP =     49.07%,  TOTAL =      84.42%
 ...... END OF TWO-ELECTRON INTEGRALS .....

 CPU        TIME:   STEP =      0.00 ,  TOTAL =        0.8 SECONDS (    0.0 MIN)
 WALL CLOCK TIME:   STEP =      0.00 ,  TOTAL =        0.9 SECONDS (    0.0 MIN)
 CPU UTILIZATION:   STEP =      0.00%,  TOTAL =      84.28%

 DETERMINANT CI OPTIONS   NRNFG   NPFLG
 INTEGRAL TRANSFORMATION    1      -5
 DIAGONALIZE HAMILTONIAN    1      -5
 FORM 1E- DENSITY MATRIX    1      -5
 FORM 2E- DENSITY MATRIX    0      -5

 ---- SURFACE MAPPING GEOMETRY ----
 COORD 1=  -1.00000  COORD 2=   0.00000
 HAS ENERGY VALUES         -0.9331713635          -0.9331608284          -0.2908471122          -0.2908320310 
 H             0.0000000000          0.0000000000          0.0000000000
 H             0.0000000000          0.0000000000          4.0000000000
 ----------------------------------
 ...... END OF ONE-ELECTRON INTEGRALS ......

                         TIMING STATISTICS ON RANK 0:
 CPU        TIME:   STEP =      0.01 ,  TOTAL =        0.8 SECONDS (    0.0 MIN)
 WALL CLOCK TIME:   STEP =      0.01 ,  TOTAL =        0.9 SECONDS (    0.0 MIN)
 CPU UTILIZATION:   STEP =     75.80%,  TOTAL =      84.16%

 LOG10 OF CONDITION NUMBER OF OVERLAP MATRIX IS:  1.74611758E-03
 ...... END OF TWO-ELECTRON INTEGRALS .....

                         TIMING STATISTICS ON RANK 0:
 CPU        TIME:   STEP =      0.01 ,  TOTAL =        0.8 SECONDS (    0.0 MIN)
 WALL CLOCK TIME:   STEP =      0.01 ,  TOTAL =        0.9 SECONDS (    0.0 MIN)
 CPU UTILIZATION:   STEP =     92.16%,  TOTAL =      84.25%

 DIRECT SCF CALCULATION, SCHWRZ=T   FDIFF=F

                                                                                                              NONZERO    BLOCKS
 ITER EX DEM  TOTAL ENERGY      E CHANGE  DENSITY CHANGE    DIIS ERROR      VIR. SHIFT       DAMPING        INTEGRALS   SKIPPED
          * * *   INITIATING DIIS PROCEDURE   * * *
   1  0  0    -0.616045184    -0.616045184   0.000000000   0.000000000     0.000000000     1.000000000              6         0
   2  1  0    -0.616045184     0.000000000   0.000000000   0.000000000     0.062827485     1.000000000              6         0

          -----------------
          DENSITY CONVERGED
          -----------------
     TIME TO FORM FOCK OPERATORS =       0.00 SECONDS (       0.00 SEC/ITER)
     FOCK TIME ON FIRST ITERATION=       0.00, LAST ITERATION=       0.00
     TIME TO SOLVE SCF EQUATIONS =       0.00 SECONDS (       0.00 SEC/ITER)

 FINAL ENERGY IS       -0.6160451836 AFTER   2 ITERATIONS
 ...... END OF RHF CALCULATION ......

                         TIMING STATISTICS ON RANK 0:
 CPU        TIME:   STEP =      0.01 ,  TOTAL =        0.8 SECONDS (    0.0 MIN)
 WALL CLOCK TIME:   STEP =      0.02 ,  TOTAL =        1.0 SECONDS (    0.0 MIN)
 CPU UTILIZATION:   STEP =     48.68%,  TOTAL =      83.50%
 ...... END OF TWO-ELECTRON INTEGRALS .....

 CPU        TIME:   STEP =      0.00 ,  TOTAL =        0.8 SECONDS (    0.0 MIN)
 WALL CLOCK TIME:   STEP =      0.00 ,  TOTAL =        1.0 SECONDS (    0.0 MIN)
 CPU UTILIZATION:   STEP =      0.00%,  TOTAL =      83.38%

 DETERMINANT CI OPTIONS   NRNFG   NPFLG
 INTEGRAL TRANSFORMATION    1      -5
 DIAGONALIZE HAMILTONIAN    1      -5
 FORM 1E- DENSITY MATRIX    1      -5
 FORM 2E- DENSITY MATRIX    0      -5

 ---- SURFACE MAPPING GEOMETRY ----
 COORD 1=  -1.05000  COORD 2=   0.00000
 HAS ENERGY VALUES         -0.9331732509          -0.9331600670          -0.2925203665          -0.2925014263 
 H             0.0000000000          0.0000000000          0.0000000000
 H             0.0000000000          0.0000000000          3.9500000000
 ----------------------------------
 ...... END OF ONE-ELECTRON INTEGRALS ......

                         TIMING STATISTICS ON RANK 0:
 CPU        TIME:   STEP =      0.02 ,  TOTAL =        0.8 SECONDS (    0.0 MIN)
 WALL CLOCK TIME:   STEP =      0.01 ,  TOTAL =        1.0 SECONDS (    0.0 MIN)
 CPU UTILIZATION:   STEP =    169.35%,  TOTAL =      84.41%

 LOG10 OF CONDITION NUMBER OF OVERLAP MATRIX IS:  1.98076253E-03
 ...... END OF TWO-ELECTRON INTEGRALS .....

                         TIMING STATISTICS ON RANK 0:
 CPU        TIME:   STEP =      0.00 ,  TOTAL =        0.8 SECONDS (    0.0 MIN)
 WALL CLOCK TIME:   STEP =      0.01 ,  TOTAL =        1.0 SECONDS (    0.0 MIN)
 CPU UTILIZATION:   STEP =      0.00%,  TOTAL =      83.77%

 DIRECT SCF CALCULATION, SCHWRZ=T   FDIFF=F

                                                                                                              NONZERO    BLOCKS
 ITER EX DEM  TOTAL ENERGY      E CHANGE  DENSITY CHANGE    DIIS ERROR      VIR. SHIFT       DAMPING        INTEGRALS   SKIPPED
          * * *   INITIATING DIIS PROCEDURE   * * *
   1  0  0    -0.617278315    -0.617278315   0.000000000   0.000000000     0.000000000     1.000000000              6         0
   2  1  0    -0.617278315     0.000000000   0.000000000   0.000000000     0.060734628     1.000000000              6         0

          -----------------
          DENSITY CONVERGED
          -----------------
     TIME TO FORM FOCK OPERATORS =       0.00 SECONDS (       0.00 SEC/ITER)
     FOCK TIME ON FIRST ITERATION=       0.00, LAST ITERATION=       0.00
     TIME TO SOLVE SCF EQUATIONS =       0.00 SECONDS (       0.00 SEC/ITER)

 FINAL ENERGY IS       -0.6172783145 AFTER   2 ITERATIONS
 ...... END OF RHF CALCULATION ......

                         TIMING STATISTICS ON RANK 0:
 CPU        TIME:   STEP =      0.01 ,  TOTAL =        0.8 SECONDS (    0.0 MIN)
 WALL CLOCK TIME:   STEP =      0.02 ,  TOTAL =        1.0 SECONDS (    0.0 MIN)
 CPU UTILIZATION:   STEP =     41.70%,  TOTAL =      82.78%
 ...... END OF TWO-ELECTRON INTEGRALS .....

 CPU        TIME:   STEP =      0.00 ,  TOTAL =        0.8 SECONDS (    0.0 MIN)
 WALL CLOCK TIME:   STEP =      0.00 ,  TOTAL =        1.0 SECONDS (    0.0 MIN)
 CPU UTILIZATION:   STEP =      0.00%,  TOTAL =      82.62%

 DETERMINANT CI OPTIONS   NRNFG   NPFLG
 INTEGRAL TRANSFORMATION    1      -5
 DIAGONALIZE HAMILTONIAN    1      -5
 FORM 1E- DENSITY MATRIX    1      -5
 FORM 2E- DENSITY MATRIX    0      -5

 ---- SURFACE MAPPING GEOMETRY ----
 COORD 1=  -1.10000  COORD 2=   0.00000
 HAS ENERGY VALUES         -0.9331755847          -0.9331591118          -0.2942362027          -0.2942124619 
 H             0.0000000000          0.0000000000          0.0000000000
 H             0.0000000000          0.0000000000          3.9000000000
 ----------------------------------
 ...... END OF ONE-ELECTRON INTEGRALS ......

                         TIMING STATISTICS ON RANK 0:
 CPU        TIME:   STEP =      0.01 ,  TOTAL =        0.8 SECONDS (    0.0 MIN)
 WALL CLOCK TIME:   STEP =      0.02 ,  TOTAL =        1.0 SECONDS (    0.0 MIN)
 CPU UTILIZATION:   STEP =     63.33%,  TOTAL =      82.33%

 LOG10 OF CONDITION NUMBER OF OVERLAP MATRIX IS:  2.24441301E-03
 ...... END OF TWO-ELECTRON INTEGRALS .....

                         TIMING STATISTICS ON RANK 0:
 CPU        TIME:   STEP =      0.00 ,  TOTAL =        0.8 SECONDS (    0.0 MIN)
 WALL CLOCK TIME:   STEP =      0.01 ,  TOTAL =        1.0 SECONDS (    0.0 MIN)
 CPU UTILIZATION:   STEP =      0.00%,  TOTAL =      81.64%

 DIRECT SCF CALCULATION, SCHWRZ=T   FDIFF=F

                                                                                                              NONZERO    BLOCKS
 ITER EX DEM  TOTAL ENERGY      E CHANGE  DENSITY CHANGE    DIIS ERROR      VIR. SHIFT       DAMPING        INTEGRALS   SKIPPED
          * * *   INITIATING DIIS PROCEDURE   * * *
   1  0  0    -0.618573709    -0.618573709   0.000000000   0.000000000     0.000000000     1.000000000              6         0
   2  1  0    -0.618573709     0.000000000   0.000000000   0.000000000     0.058556959     1.000000000              6         0

          -----------------
          DENSITY CONVERGED
          -----------------
     TIME TO FORM FOCK OPERATORS =       0.00 SECONDS (       0.00 SEC/ITER)
     FOCK TIME ON FIRST ITERATION=       0.00, LAST ITERATION=       0.00
     TIME TO SOLVE SCF EQUATIONS =       0.01 SECONDS (       0.01 SEC/ITER)

 FINAL ENERGY IS       -0.6185737095 AFTER   2 ITERATIONS
 ...... END OF RHF CALCULATION ......

                         TIMING STATISTICS ON RANK 0:
 CPU        TIME:   STEP =      0.02 ,  TOTAL =        0.9 SECONDS (    0.0 MIN)
 WALL CLOCK TIME:   STEP =      0.02 ,  TOTAL =        1.1 SECONDS (    0.0 MIN)
 CPU UTILIZATION:   STEP =    105.12%,  TOTAL =      82.06%
 ...... END OF TWO-ELECTRON INTEGRALS .....

 CPU        TIME:   STEP =      0.00 ,  TOTAL =        0.9 SECONDS (    0.0 MIN)
 WALL CLOCK TIME:   STEP =      0.00 ,  TOTAL =        1.1 SECONDS (    0.0 MIN)
 CPU UTILIZATION:   STEP =      0.00%,  TOTAL =      81.84%

 DETERMINANT CI OPTIONS   NRNFG   NPFLG
 INTEGRAL TRANSFORMATION    1      -5
 DIAGONALIZE HAMILTONIAN    1      -5
 FORM 1E- DENSITY MATRIX    1      -5
 FORM 2E- DENSITY MATRIX    0      -5

 ---- SURFACE MAPPING GEOMETRY ----
 COORD 1=  -1.15000  COORD 2=   0.00000
 HAS ENERGY VALUES         -0.9331784661          -0.9331579153          -0.2959962039          -0.2959665032 
 H             0.0000000000          0.0000000000          0.0000000000
 H             0.0000000000          0.0000000000          3.8500000000
 ----------------------------------
 ...... END OF ONE-ELECTRON INTEGRALS ......

                         TIMING STATISTICS ON RANK 0:
 CPU        TIME:   STEP =      0.01 ,  TOTAL =        0.9 SECONDS (    0.0 MIN)
 WALL CLOCK TIME:   STEP =      0.01 ,  TOTAL =        1.1 SECONDS (    0.0 MIN)
 CPU UTILIZATION:   STEP =     78.38%,  TOTAL =      81.80%

 LOG10 OF CONDITION NUMBER OF OVERLAP MATRIX IS:  2.54031589E-03
 ...... END OF TWO-ELECTRON INTEGRALS .....

                         TIMING STATISTICS ON RANK 0:
 CPU        TIME:   STEP =      0.00 ,  TOTAL =        0.9 SECONDS (    0.0 MIN)
 WALL CLOCK TIME:   STEP =      0.01 ,  TOTAL =        1.1 SECONDS (    0.0 MIN)
 CPU UTILIZATION:   STEP =      0.00%,  TOTAL =      81.13%

 DIRECT SCF CALCULATION, SCHWRZ=T   FDIFF=F

                                                                                                              NONZERO    BLOCKS
 ITER EX DEM  TOTAL ENERGY      E CHANGE  DENSITY CHANGE    DIIS ERROR      VIR. SHIFT       DAMPING        INTEGRALS   SKIPPED
          * * *   INITIATING DIIS PROCEDURE   * * *
   1  0  0    -0.619936030    -0.619936030   0.000000000   0.000000000     0.000000000     1.000000000              6         0
   2  1  0    -0.619936030     0.000000000   0.000000000   0.000000000     0.056288880     1.000000000              6         0

          -----------------
          DENSITY CONVERGED
          -----------------
     TIME TO FORM FOCK OPERATORS =       0.01 SECONDS (       0.01 SEC/ITER)
     FOCK TIME ON FIRST ITERATION=       0.01, LAST ITERATION=       0.00
     TIME TO SOLVE SCF EQUATIONS =       0.00 SECONDS (       0.00 SEC/ITER)

 FINAL ENERGY IS       -0.6199360296 AFTER   2 ITERATIONS
 ...... END OF RHF CALCULATION ......

                         TIMING STATISTICS ON RANK 0:
 CPU        TIME:   STEP =      0.01 ,  TOTAL =        0.9 SECONDS (    0.0 MIN)
 WALL CLOCK TIME:   STEP =      0.02 ,  TOTAL =        1.1 SECONDS (    0.0 MIN)
 CPU UTILIZATION:   STEP =     54.73%,  TOTAL =      80.69%
 ...... END OF TWO-ELECTRON INTEGRALS .....

 CPU        TIME:   STEP =      0.00 ,  TOTAL =        0.9 SECONDS (    0.0 MIN)
 WALL CLOCK TIME:   STEP =      0.00 ,  TOTAL =        1.1 SECONDS (    0.0 MIN)
 CPU UTILIZATION:   STEP =      0.00%,  TOTAL =      80.58%

 DETERMINANT CI OPTIONS   NRNFG   NPFLG
 INTEGRAL TRANSFORMATION    1      -5
 DIAGONALIZE HAMILTONIAN    1      -5
 FORM 1E- DENSITY MATRIX    1      -5
 FORM 2E- DENSITY MATRIX    0      -5

 ---- SURFACE MAPPING GEOMETRY ----
 COORD 1=  -1.20000  COORD 2=   0.00000
 HAS ENERGY VALUES         -0.9331820184          -0.9331564194          -0.2978020201          -0.2977649347 
 H             0.0000000000          0.0000000000          0.0000000000
 H             0.0000000000          0.0000000000          3.8000000000
 ----------------------------------
 ...... END OF ONE-ELECTRON INTEGRALS ......

                         TIMING STATISTICS ON RANK 0:
 CPU        TIME:   STEP =      0.01 ,  TOTAL =        0.9 SECONDS (    0.0 MIN)
 WALL CLOCK TIME:   STEP =      0.02 ,  TOTAL =        1.1 SECONDS (    0.0 MIN)
 CPU UTILIZATION:   STEP =     66.37%,  TOTAL =      80.39%

 LOG10 OF CONDITION NUMBER OF OVERLAP MATRIX IS:  2.87203704E-03
 ...... END OF TWO-ELECTRON INTEGRALS .....

                         TIMING STATISTICS ON RANK 0:
 CPU        TIME:   STEP =      0.00 ,  TOTAL =        0.9 SECONDS (    0.0 MIN)
 WALL CLOCK TIME:   STEP =      0.01 ,  TOTAL =        1.1 SECONDS (    0.0 MIN)
 CPU UTILIZATION:   STEP =      0.00%,  TOTAL =      79.87%

 DIRECT SCF CALCULATION, SCHWRZ=T   FDIFF=F

                                                                                                              NONZERO    BLOCKS
 ITER EX DEM  TOTAL ENERGY      E CHANGE  DENSITY CHANGE    DIIS ERROR      VIR. SHIFT       DAMPING        INTEGRALS   SKIPPED
          * * *   INITIATING DIIS PROCEDURE   * * *
   1  0  0    -0.621370270    -0.621370270   0.000000000   0.000000000     0.000000000     1.000000000              6         0
   2  1  0    -0.621370270     0.000000000   0.000000000   0.000000000     0.053924394     1.000000000              6         0

          -----------------
          DENSITY CONVERGED
          -----------------
     TIME TO FORM FOCK OPERATORS =       0.01 SECONDS (       0.01 SEC/ITER)
     FOCK TIME ON FIRST ITERATION=       0.01, LAST ITERATION=       0.00
     TIME TO SOLVE SCF EQUATIONS =       0.01 SECONDS (       0.01 SEC/ITER)

 FINAL ENERGY IS       -0.6213702703 AFTER   2 ITERATIONS
 ...... END OF RHF CALCULATION ......

                         TIMING STATISTICS ON RANK 0:
 CPU        TIME:   STEP =      0.02 ,  TOTAL =        0.9 SECONDS (    0.0 MIN)
 WALL CLOCK TIME:   STEP =      0.02 ,  TOTAL =        1.1 SECONDS (    0.0 MIN)
 CPU UTILIZATION:   STEP =    112.20%,  TOTAL =      80.37%
 ...... END OF TWO-ELECTRON INTEGRALS .....

 CPU        TIME:   STEP =      0.00 ,  TOTAL =        0.9 SECONDS (    0.0 MIN)
 WALL CLOCK TIME:   STEP =      0.00 ,  TOTAL =        1.1 SECONDS (    0.0 MIN)
 CPU UTILIZATION:   STEP =      0.00%,  TOTAL =      80.25%

 DETERMINANT CI OPTIONS   NRNFG   NPFLG
 INTEGRAL TRANSFORMATION    1      -5
 DIAGONALIZE HAMILTONIAN    1      -5
 FORM 1E- DENSITY MATRIX    1      -5
 FORM 2E- DENSITY MATRIX    0      -5

 ---- SURFACE MAPPING GEOMETRY ----
 COORD 1=  -1.25000  COORD 2=   0.00000
 HAS ENERGY VALUES         -0.9331863912          -0.9331545521          -0.2996553688          -0.2996091517 
 H             0.0000000000          0.0000000000          0.0000000000
 H             0.0000000000          0.0000000000          3.7500000000
 ----------------------------------
 ...... END OF ONE-ELECTRON INTEGRALS ......

                         TIMING STATISTICS ON RANK 0:
 CPU        TIME:   STEP =      0.01 ,  TOTAL =        0.9 SECONDS (    0.0 MIN)
 WALL CLOCK TIME:   STEP =      0.01 ,  TOTAL =        1.2 SECONDS (    0.0 MIN)
 CPU UTILIZATION:   STEP =     72.87%,  TOTAL =      80.16%

 LOG10 OF CONDITION NUMBER OF OVERLAP MATRIX IS:  3.24348672E-03
 ...... END OF TWO-ELECTRON INTEGRALS .....

                         TIMING STATISTICS ON RANK 0:
 CPU        TIME:   STEP =      0.00 ,  TOTAL =        0.9 SECONDS (    0.0 MIN)
 WALL CLOCK TIME:   STEP =      0.01 ,  TOTAL =        1.2 SECONDS (    0.0 MIN)
 CPU UTILIZATION:   STEP =      0.00%,  TOTAL =      79.47%

 DIRECT SCF CALCULATION, SCHWRZ=T   FDIFF=F

                                                                                                              NONZERO    BLOCKS
 ITER EX DEM  TOTAL ENERGY      E CHANGE  DENSITY CHANGE    DIIS ERROR      VIR. SHIFT       DAMPING        INTEGRALS   SKIPPED
          * * *   INITIATING DIIS PROCEDURE   * * *
   1  0  0    -0.622881775    -0.622881775   0.000000000   0.000000000     0.000000000     1.000000000              6         0
   2  1  0    -0.622881775     0.000000000   0.000000000   0.000000000     0.051457094     1.000000000              6         0

          -----------------
          DENSITY CONVERGED
          -----------------
     TIME TO FORM FOCK OPERATORS =       0.00 SECONDS (       0.00 SEC/ITER)
     FOCK TIME ON FIRST ITERATION=       0.00, LAST ITERATION=       0.00
     TIME TO SOLVE SCF EQUATIONS =       0.00 SECONDS (       0.00 SEC/ITER)

 FINAL ENERGY IS       -0.6228817748 AFTER   2 ITERATIONS
 ...... END OF RHF CALCULATION ......

                         TIMING STATISTICS ON RANK 0:
 CPU        TIME:   STEP =      0.01 ,  TOTAL =        0.9 SECONDS (    0.0 MIN)
 WALL CLOCK TIME:   STEP =      0.01 ,  TOTAL =        1.2 SECONDS (    0.0 MIN)
 CPU UTILIZATION:   STEP =     70.79%,  TOTAL =      79.37%
 ...... END OF TWO-ELECTRON INTEGRALS .....

 CPU        TIME:   STEP =      0.00 ,  TOTAL =        0.9 SECONDS (    0.0 MIN)
 WALL CLOCK TIME:   STEP =      0.00 ,  TOTAL =        1.2 SECONDS (    0.0 MIN)
 CPU UTILIZATION:   STEP =      0.00%,  TOTAL =      79.25%

 DETERMINANT CI OPTIONS   NRNFG   NPFLG
 INTEGRAL TRANSFORMATION    1      -5
 DIAGONALIZE HAMILTONIAN    1      -5
 FORM 1E- DENSITY MATRIX    1      -5
 FORM 2E- DENSITY MATRIX    0      -5

 ---- SURFACE MAPPING GEOMETRY ----
 COORD 1=  -1.30000  COORD 2=   0.00000
 HAS ENERGY VALUES         -0.9331917658          -0.9331522256          -0.3015580359          -0.3015005495 
 H             0.0000000000          0.0000000000          0.0000000000
 H             0.0000000000          0.0000000000          3.7000000000
 ----------------------------------
 ...... END OF ONE-ELECTRON INTEGRALS ......

                         TIMING STATISTICS ON RANK 0:
 CPU        TIME:   STEP =      0.01 ,  TOTAL =        0.9 SECONDS (    0.0 MIN)
 WALL CLOCK TIME:   STEP =      0.01 ,  TOTAL =        1.2 SECONDS (    0.0 MIN)
 CPU UTILIZATION:   STEP =     72.07%,  TOTAL =      79.17%

 LOG10 OF CONDITION NUMBER OF OVERLAP MATRIX IS:  3.65894594E-03
 ...... END OF TWO-ELECTRON INTEGRALS .....

                         TIMING STATISTICS ON RANK 0:
 CPU        TIME:   STEP =      0.00 ,  TOTAL =        0.9 SECONDS (    0.0 MIN)
 WALL CLOCK TIME:   STEP =      0.01 ,  TOTAL =        1.2 SECONDS (    0.0 MIN)
 CPU UTILIZATION:   STEP =      0.00%,  TOTAL =      78.71%

 DIRECT SCF CALCULATION, SCHWRZ=T   FDIFF=F

                                                                                                              NONZERO    BLOCKS
 ITER EX DEM  TOTAL ENERGY      E CHANGE  DENSITY CHANGE    DIIS ERROR      VIR. SHIFT       DAMPING        INTEGRALS   SKIPPED
          * * *   INITIATING DIIS PROCEDURE   * * *
   1  0  0    -0.624476246    -0.624476246   0.000000000   0.000000000     0.000000000     1.000000000              6         0
   2  1  0    -0.624476246     0.000000000   0.000000000   0.000000000     0.048880136     1.000000000              6         0

          -----------------
          DENSITY CONVERGED
          -----------------
     TIME TO FORM FOCK OPERATORS =       0.01 SECONDS (       0.01 SEC/ITER)
     FOCK TIME ON FIRST ITERATION=       0.01, LAST ITERATION=       0.00
     TIME TO SOLVE SCF EQUATIONS =       0.00 SECONDS (       0.00 SEC/ITER)

 FINAL ENERGY IS       -0.6244762463 AFTER   2 ITERATIONS
 ...... END OF RHF CALCULATION ......

                         TIMING STATISTICS ON RANK 0:
 CPU        TIME:   STEP =      0.02 ,  TOTAL =        1.0 SECONDS (    0.0 MIN)
 WALL CLOCK TIME:   STEP =      0.01 ,  TOTAL =        1.2 SECONDS (    0.0 MIN)
 CPU UTILIZATION:   STEP =    142.95%,  TOTAL =      79.45%
 ...... END OF TWO-ELECTRON INTEGRALS .....

 CPU        TIME:   STEP =      0.00 ,  TOTAL =        1.0 SECONDS (    0.0 MIN)
 WALL CLOCK TIME:   STEP =      0.00 ,  TOTAL =        1.2 SECONDS (    0.0 MIN)
 CPU UTILIZATION:   STEP =      0.00%,  TOTAL =      79.36%

 DETERMINANT CI OPTIONS   NRNFG   NPFLG
 INTEGRAL TRANSFORMATION    1      -5
 DIAGONALIZE HAMILTONIAN    1      -5
 FORM 1E- DENSITY MATRIX    1      -5
 FORM 2E- DENSITY MATRIX    0      -5

 ---- SURFACE MAPPING GEOMETRY ----
 COORD 1=  -1.35000  COORD 2=   0.00000
 HAS ENERGY VALUES         -0.9331983616          -0.9331493317          -0.3035118754          -0.3034405101 
 H             0.0000000000          0.0000000000          0.0000000000
 H             0.0000000000          0.0000000000          3.6500000000
 ----------------------------------
 ...... END OF ONE-ELECTRON INTEGRALS ......

                         TIMING STATISTICS ON RANK 0:
 CPU        TIME:   STEP =      0.00 ,  TOTAL =        1.0 SECONDS (    0.0 MIN)
 WALL CLOCK TIME:   STEP =      0.01 ,  TOTAL =        1.2 SECONDS (    0.0 MIN)
 CPU UTILIZATION:   STEP =      0.00%,  TOTAL =      78.65%

 LOG10 OF CONDITION NUMBER OF OVERLAP MATRIX IS:  4.12309392E-03
 ...... END OF TWO-ELECTRON INTEGRALS .....

                         TIMING STATISTICS ON RANK 0:
 CPU        TIME:   STEP =      0.01 ,  TOTAL =        1.0 SECONDS (    0.0 MIN)
 WALL CLOCK TIME:   STEP =      0.01 ,  TOTAL =        1.2 SECONDS (    0.0 MIN)
 CPU UTILIZATION:   STEP =    140.33%,  TOTAL =      79.01%

 DIRECT SCF CALCULATION, SCHWRZ=T   FDIFF=F

                                                                                                              NONZERO    BLOCKS
 ITER EX DEM  TOTAL ENERGY      E CHANGE  DENSITY CHANGE    DIIS ERROR      VIR. SHIFT       DAMPING        INTEGRALS   SKIPPED
          * * *   INITIATING DIIS PROCEDURE   * * *
   1  0  0    -0.626159759    -0.626159759   0.000000000   0.000000000     0.000000000     1.000000000              6         0
   2  1  0    -0.626159759     0.000000000   0.000000000   0.000000000     0.046186225     1.000000000              6         0

          -----------------
          DENSITY CONVERGED
          -----------------
     TIME TO FORM FOCK OPERATORS =       0.00 SECONDS (       0.00 SEC/ITER)
     FOCK TIME ON FIRST ITERATION=       0.00, LAST ITERATION=       0.00
     TIME TO SOLVE SCF EQUATIONS =       0.00 SECONDS (       0.00 SEC/ITER)

 FINAL ENERGY IS       -0.6261597591 AFTER   2 ITERATIONS
 ...... END OF RHF CALCULATION ......

                         TIMING STATISTICS ON RANK 0:
 CPU        TIME:   STEP =      0.00 ,  TOTAL =        1.0 SECONDS (    0.0 MIN)
 WALL CLOCK TIME:   STEP =      0.01 ,  TOTAL =        1.3 SECONDS (    0.0 MIN)
 CPU UTILIZATION:   STEP =      0.00%,  TOTAL =      78.15%
 ...... END OF TWO-ELECTRON INTEGRALS .....

 CPU        TIME:   STEP =      0.00 ,  TOTAL =        1.0 SECONDS (    0.0 MIN)
 WALL CLOCK TIME:   STEP =      0.00 ,  TOTAL =        1.3 SECONDS (    0.0 MIN)
 CPU UTILIZATION:   STEP =      0.00%,  TOTAL =      78.07%

 DETERMINANT CI OPTIONS   NRNFG   NPFLG
 INTEGRAL TRANSFORMATION    1      -5
 DIAGONALIZE HAMILTONIAN    1      -5
 FORM 1E- DENSITY MATRIX    1      -5
 FORM 2E- DENSITY MATRIX    0      -5

 ---- SURFACE MAPPING GEOMETRY ----
 COORD 1=  -1.40000  COORD 2=   0.00000
 HAS ENERGY VALUES         -0.9332064436          -0.9331457388          -0.3055188088          -0.3054303854 
 H             0.0000000000          0.0000000000          0.0000000000
 H             0.0000000000          0.0000000000          3.6000000000
 ----------------------------------
 ...... END OF ONE-ELECTRON INTEGRALS ......

                         TIMING STATISTICS ON RANK 0:
 CPU        TIME:   STEP =      0.02 ,  TOTAL =        1.0 SECONDS (    0.0 MIN)
 WALL CLOCK TIME:   STEP =      0.01 ,  TOTAL =        1.3 SECONDS (    0.0 MIN)
 CPU UTILIZATION:   STEP =    157.00%,  TOTAL =      78.86%

 LOG10 OF CONDITION NUMBER OF OVERLAP MATRIX IS:  4.64103640E-03
 ...... END OF TWO-ELECTRON INTEGRALS .....

                         TIMING STATISTICS ON RANK 0:
 CPU        TIME:   STEP =      0.00 ,  TOTAL =        1.0 SECONDS (    0.0 MIN)
 WALL CLOCK TIME:   STEP =      0.01 ,  TOTAL =        1.3 SECONDS (    0.0 MIN)
 CPU UTILIZATION:   STEP =      0.00%,  TOTAL =      78.40%

 DIRECT SCF CALCULATION, SCHWRZ=T   FDIFF=F

                                                                                                              NONZERO    BLOCKS
 ITER EX DEM  TOTAL ENERGY      E CHANGE  DENSITY CHANGE    DIIS ERROR      VIR. SHIFT       DAMPING        INTEGRALS   SKIPPED
          * * *   INITIATING DIIS PROCEDURE   * * *
   1  0  0    -0.627938767    -0.627938767   0.000000000   0.000000000     0.000000000     1.000000000              6         0
   2  1  0    -0.627938767     0.000000000   0.000000000   0.000000000     0.043367597     1.000000000              6         0

          -----------------
          DENSITY CONVERGED
          -----------------
     TIME TO FORM FOCK OPERATORS =       0.00 SECONDS (       0.00 SEC/ITER)
     FOCK TIME ON FIRST ITERATION=       0.00, LAST ITERATION=       0.00
     TIME TO SOLVE SCF EQUATIONS =       0.01 SECONDS (       0.01 SEC/ITER)

 FINAL ENERGY IS       -0.6279387671 AFTER   2 ITERATIONS
 ...... END OF RHF CALCULATION ......

                         TIMING STATISTICS ON RANK 0:
 CPU        TIME:   STEP =      0.01 ,  TOTAL =        1.0 SECONDS (    0.0 MIN)
 WALL CLOCK TIME:   STEP =      0.01 ,  TOTAL =        1.3 SECONDS (    0.0 MIN)
 CPU UTILIZATION:   STEP =     71.68%,  TOTAL =      78.33%
 ...... END OF TWO-ELECTRON INTEGRALS .....

 CPU        TIME:   STEP =      0.00 ,  TOTAL =        1.0 SECONDS (    0.0 MIN)
 WALL CLOCK TIME:   STEP =      0.00 ,  TOTAL =        1.3 SECONDS (    0.0 MIN)
 CPU UTILIZATION:   STEP =      0.00%,  TOTAL =      78.25%

 DETERMINANT CI OPTIONS   NRNFG   NPFLG
 INTEGRAL TRANSFORMATION    1      -5
 DIAGONALIZE HAMILTONIAN    1      -5
 FORM 1E- DENSITY MATRIX    1      -5
 FORM 2E- DENSITY MATRIX    0      -5

 ---- SURFACE MAPPING GEOMETRY ----
 COORD 1=  -1.45000  COORD 2=   0.00000
 HAS ENERGY VALUES         -0.9332163309          -0.9331412860          -0.3075808227          -0.3074714779 
 H             0.0000000000          0.0000000000          0.0000000000
 H             0.0000000000          0.0000000000          3.5500000000
 ----------------------------------
 ...... END OF ONE-ELECTRON INTEGRALS ......

                         TIMING STATISTICS ON RANK 0:
 CPU        TIME:   STEP =      0.00 ,  TOTAL =        1.0 SECONDS (    0.0 MIN)
 WALL CLOCK TIME:   STEP =      0.01 ,  TOTAL =        1.3 SECONDS (    0.0 MIN)
 CPU UTILIZATION:   STEP =      0.00%,  TOTAL =      77.59%

 LOG10 OF CONDITION NUMBER OF OVERLAP MATRIX IS:  5.21833470E-03
 ...... END OF TWO-ELECTRON INTEGRALS .....

                         TIMING STATISTICS ON RANK 0:
 CPU        TIME:   STEP =      0.01 ,  TOTAL =        1.0 SECONDS (    0.0 MIN)
 WALL CLOCK TIME:   STEP =      0.01 ,  TOTAL =        1.3 SECONDS (    0.0 MIN)
 CPU UTILIZATION:   STEP =    146.13%,  TOTAL =      77.95%

 DIRECT SCF CALCULATION, SCHWRZ=T   FDIFF=F

                                                                                                              NONZERO    BLOCKS
 ITER EX DEM  TOTAL ENERGY      E CHANGE  DENSITY CHANGE    DIIS ERROR      VIR. SHIFT       DAMPING        INTEGRALS   SKIPPED
          * * *   INITIATING DIIS PROCEDURE   * * *
   1  0  0    -0.629820111    -0.629820111   0.000000000   0.000000000     0.000000000     1.000000000              6         0
   2  1  0    -0.629820111     0.000000000   0.000000000   0.000000000     0.040416000     1.000000000              6         0

          -----------------
          DENSITY CONVERGED
          -----------------
     TIME TO FORM FOCK OPERATORS =       0.01 SECONDS (       0.01 SEC/ITER)
     FOCK TIME ON FIRST ITERATION=       0.00, LAST ITERATION=       0.01
     TIME TO SOLVE SCF EQUATIONS =       0.00 SECONDS (       0.00 SEC/ITER)

 FINAL ENERGY IS       -0.6298201111 AFTER   2 ITERATIONS
 ...... END OF RHF CALCULATION ......

                         TIMING STATISTICS ON RANK 0:
 CPU        TIME:   STEP =      0.01 ,  TOTAL =        1.0 SECONDS (    0.0 MIN)
 WALL CLOCK TIME:   STEP =      0.02 ,  TOTAL =        1.3 SECONDS (    0.0 MIN)
 CPU UTILIZATION:   STEP =     42.20%,  TOTAL =      77.31%
 ...... END OF TWO-ELECTRON INTEGRALS .....

 CPU        TIME:   STEP =      0.00 ,  TOTAL =        1.0 SECONDS (    0.0 MIN)
 WALL CLOCK TIME:   STEP =      0.00 ,  TOTAL =        1.3 SECONDS (    0.0 MIN)
 CPU UTILIZATION:   STEP =      0.00%,  TOTAL =      77.22%

 DETERMINANT CI OPTIONS   NRNFG   NPFLG
 INTEGRAL TRANSFORMATION    1      -5
 DIAGONALIZE HAMILTONIAN    1      -5
 FORM 1E- DENSITY MATRIX    1      -5
 FORM 2E- DENSITY MATRIX    0      -5

 ---- SURFACE MAPPING GEOMETRY ----
 COORD 1=  -1.50000  COORD 2=   0.00000
 HAS ENERGY VALUES         -0.9332284072          -0.9331357780          -0.3096999662          -0.3095650155 
 H             0.0000000000          0.0000000000          0.0000000000
 H             0.0000000000          0.0000000000          3.5000000000
 ----------------------------------
 ...... END OF ONE-ELECTRON INTEGRALS ......

                         TIMING STATISTICS ON RANK 0:
 CPU        TIME:   STEP =      0.02 ,  TOTAL =        1.1 SECONDS (    0.0 MIN)
 WALL CLOCK TIME:   STEP =      0.02 ,  TOTAL =        1.4 SECONDS (    0.0 MIN)
 CPU UTILIZATION:   STEP =    117.55%,  TOTAL =      77.72%

 LOG10 OF CONDITION NUMBER OF OVERLAP MATRIX IS:  5.86103530E-03
 ...... END OF TWO-ELECTRON INTEGRALS .....

                         TIMING STATISTICS ON RANK 0:
 CPU        TIME:   STEP =      0.00 ,  TOTAL =        1.1 SECONDS (    0.0 MIN)
 WALL CLOCK TIME:   STEP =      0.01 ,  TOTAL =        1.4 SECONDS (    0.0 MIN)
 CPU UTILIZATION:   STEP =      0.00%,  TOTAL =      77.22%

 DIRECT SCF CALCULATION, SCHWRZ=T   FDIFF=F

                                                                                                              NONZERO    BLOCKS
 ITER EX DEM  TOTAL ENERGY      E CHANGE  DENSITY CHANGE    DIIS ERROR      VIR. SHIFT       DAMPING        INTEGRALS   SKIPPED
          * * *   INITIATING DIIS PROCEDURE   * * *
   1  0  0    -0.631811024    -0.631811024   0.000000000   0.000000000     0.000000000     1.000000000              6         0
   2  1  0    -0.631811024     0.000000000   0.000000000   0.000000000     0.037322677     1.000000000              6         0

          -----------------
          DENSITY CONVERGED
          -----------------
     TIME TO FORM FOCK OPERATORS =       0.00 SECONDS (       0.00 SEC/ITER)
     FOCK TIME ON FIRST ITERATION=       0.00, LAST ITERATION=       0.00
     TIME TO SOLVE SCF EQUATIONS =       0.00 SECONDS (       0.00 SEC/ITER)

 FINAL ENERGY IS       -0.6318110241 AFTER   2 ITERATIONS
 ...... END OF RHF CALCULATION ......

                         TIMING STATISTICS ON RANK 0:
 CPU        TIME:   STEP =      0.01 ,  TOTAL =        1.1 SECONDS (    0.0 MIN)
 WALL CLOCK TIME:   STEP =      0.01 ,  TOTAL =        1.4 SECONDS (    0.0 MIN)
 CPU UTILIZATION:   STEP =     69.86%,  TOTAL =      77.14%
 ...... END OF TWO-ELECTRON INTEGRALS .....

 CPU        TIME:   STEP =      0.00 ,  TOTAL =        1.1 SECONDS (    0.0 MIN)
 WALL CLOCK TIME:   STEP =      0.00 ,  TOTAL =        1.4 SECONDS (    0.0 MIN)
 CPU UTILIZATION:   STEP =      0.00%,  TOTAL =      77.06%

 DETERMINANT CI OPTIONS   NRNFG   NPFLG
 INTEGRAL TRANSFORMATION    1      -5
 DIAGONALIZE HAMILTONIAN    1      -5
 FORM 1E- DENSITY MATRIX    1      -5
 FORM 2E- DENSITY MATRIX    0      -5

 ---- SURFACE MAPPING GEOMETRY ----
 COORD 1=  -1.55000  COORD 2=   0.00000
 HAS ENERGY VALUES         -0.9332431329          -0.9331289776          -0.3118783461          -0.3117121229 
 H             0.0000000000          0.0000000000          0.0000000000
 H             0.0000000000          0.0000000000          3.4500000000
 ----------------------------------
 ...... END OF ONE-ELECTRON INTEGRALS ......

                         TIMING STATISTICS ON RANK 0:
 CPU        TIME:   STEP =      0.01 ,  TOTAL =        1.1 SECONDS (    0.0 MIN)
 WALL CLOCK TIME:   STEP =      0.01 ,  TOTAL =        1.4 SECONDS (    0.0 MIN)
 CPU UTILIZATION:   STEP =     91.83%,  TOTAL =      77.18%

 LOG10 OF CONDITION NUMBER OF OVERLAP MATRIX IS:  6.57569974E-03
 ...... END OF TWO-ELECTRON INTEGRALS .....

                         TIMING STATISTICS ON RANK 0:
 CPU        TIME:   STEP =      0.00 ,  TOTAL =        1.1 SECONDS (    0.0 MIN)
 WALL CLOCK TIME:   STEP =      0.01 ,  TOTAL =        1.4 SECONDS (    0.0 MIN)
 CPU UTILIZATION:   STEP =      0.00%,  TOTAL =      76.80%

 DIRECT SCF CALCULATION, SCHWRZ=T   FDIFF=F

                                                                                                              NONZERO    BLOCKS
 ITER EX DEM  TOTAL ENERGY      E CHANGE  DENSITY CHANGE    DIIS ERROR      VIR. SHIFT       DAMPING        INTEGRALS   SKIPPED
          * * *   INITIATING DIIS PROCEDURE   * * *
   1  0  0    -0.633919134    -0.633919134   0.000000000   0.000000000     0.000000000     1.000000000              6         0
   2  1  0    -0.633919134     0.000000000   0.000000000   0.000000000     0.034078354     1.000000000              6         0

          -----------------
          DENSITY CONVERGED
          -----------------
     TIME TO FORM FOCK OPERATORS =       0.01 SECONDS (       0.01 SEC/ITER)
     FOCK TIME ON FIRST ITERATION=       0.00, LAST ITERATION=       0.01
     TIME TO SOLVE SCF EQUATIONS =       0.00 SECONDS (       0.00 SEC/ITER)

 FINAL ENERGY IS       -0.6339191339 AFTER   2 ITERATIONS
 ...... END OF RHF CALCULATION ......

                         TIMING STATISTICS ON RANK 0:
 CPU        TIME:   STEP =      0.02 ,  TOTAL =        1.1 SECONDS (    0.0 MIN)
 WALL CLOCK TIME:   STEP =      0.01 ,  TOTAL =        1.4 SECONDS (    0.0 MIN)
 CPU UTILIZATION:   STEP =    140.38%,  TOTAL =      77.44%
 ...... END OF TWO-ELECTRON INTEGRALS .....

 CPU        TIME:   STEP =      0.00 ,  TOTAL =        1.1 SECONDS (    0.0 MIN)
 WALL CLOCK TIME:   STEP =      0.00 ,  TOTAL =        1.4 SECONDS (    0.0 MIN)
 CPU UTILIZATION:   STEP =      0.00%,  TOTAL =      77.37%

 DETERMINANT CI OPTIONS   NRNFG   NPFLG
 INTEGRAL TRANSFORMATION    1      -5
 DIAGONALIZE HAMILTONIAN    1      -5
 FORM 1E- DENSITY MATRIX    1      -5
 FORM 2E- DENSITY MATRIX    0      -5

 ---- SURFACE MAPPING GEOMETRY ----
 COORD 1=  -1.60000  COORD 2=   0.00000
 HAS ENERGY VALUES         -0.9332610591          -0.9331205979          -0.3141181207          -0.3139137867 
 H             0.0000000000          0.0000000000          0.0000000000
 H             0.0000000000          0.0000000000          3.4000000000
 ----------------------------------
 ...... END OF ONE-ELECTRON INTEGRALS ......

                         TIMING STATISTICS ON RANK 0:
 CPU        TIME:   STEP =      0.01 ,  TOTAL =        1.1 SECONDS (    0.0 MIN)
 WALL CLOCK TIME:   STEP =      0.01 ,  TOTAL =        1.4 SECONDS (    0.0 MIN)
 CPU UTILIZATION:   STEP =     92.64%,  TOTAL =      77.48%

 LOG10 OF CONDITION NUMBER OF OVERLAP MATRIX IS:  7.36943470E-03
 ...... END OF TWO-ELECTRON INTEGRALS .....

                         TIMING STATISTICS ON RANK 0:
 CPU        TIME:   STEP =      0.00 ,  TOTAL =        1.1 SECONDS (    0.0 MIN)
 WALL CLOCK TIME:   STEP =      0.01 ,  TOTAL =        1.4 SECONDS (    0.0 MIN)
 CPU UTILIZATION:   STEP =      0.00%,  TOTAL =      77.11%

 DIRECT SCF CALCULATION, SCHWRZ=T   FDIFF=F

                                                                                                              NONZERO    BLOCKS
 ITER EX DEM  TOTAL ENERGY      E CHANGE  DENSITY CHANGE    DIIS ERROR      VIR. SHIFT       DAMPING        INTEGRALS   SKIPPED
          * * *   INITIATING DIIS PROCEDURE   * * *
   1  0  0    -0.636152464    -0.636152464   0.000000000   0.000000000     0.000000000     1.000000000              6         0
   2  1  0    -0.636152464     0.000000000   0.000000000   0.000000000     0.030673217     1.000000000              6         0

          -----------------
          DENSITY CONVERGED
          -----------------
     TIME TO FORM FOCK OPERATORS =       0.00 SECONDS (       0.00 SEC/ITER)
     FOCK TIME ON FIRST ITERATION=       0.00, LAST ITERATION=       0.00
     TIME TO SOLVE SCF EQUATIONS =       0.00 SECONDS (       0.00 SEC/ITER)

 FINAL ENERGY IS       -0.6361524643 AFTER   2 ITERATIONS
 ...... END OF RHF CALCULATION ......

                         TIMING STATISTICS ON RANK 0:
 CPU        TIME:   STEP =      0.01 ,  TOTAL =        1.1 SECONDS (    0.0 MIN)
 WALL CLOCK TIME:   STEP =      0.01 ,  TOTAL =        1.4 SECONDS (    0.0 MIN)
 CPU UTILIZATION:   STEP =     71.54%,  TOTAL =      77.06%
 ...... END OF TWO-ELECTRON INTEGRALS .....

 CPU        TIME:   STEP =      0.00 ,  TOTAL =        1.1 SECONDS (    0.0 MIN)
 WALL CLOCK TIME:   STEP =      0.00 ,  TOTAL =        1.4 SECONDS (    0.0 MIN)
 CPU UTILIZATION:   STEP =      0.00%,  TOTAL =      76.98%

 DETERMINANT CI OPTIONS   NRNFG   NPFLG
 INTEGRAL TRANSFORMATION    1      -5
 DIAGONALIZE HAMILTONIAN    1      -5
 FORM 1E- DENSITY MATRIX    1      -5
 FORM 2E- DENSITY MATRIX    0      -5

 ---- SURFACE MAPPING GEOMETRY ----
 COORD 1=  -1.65000  COORD 2=   0.00000
 HAS ENERGY VALUES         -0.9332828445          -0.9331102925          -0.3164214915          -0.3161708142 
 H             0.0000000000          0.0000000000          0.0000000000
 H             0.0000000000          0.0000000000          3.3500000000
 ----------------------------------
 ...... END OF ONE-ELECTRON INTEGRALS ......

                         TIMING STATISTICS ON RANK 0:
 CPU        TIME:   STEP =      0.00 ,  TOTAL =        1.1 SECONDS (    0.0 MIN)
 WALL CLOCK TIME:   STEP =      0.01 ,  TOTAL =        1.5 SECONDS (    0.0 MIN)
 CPU UTILIZATION:   STEP =      0.00%,  TOTAL =      76.38%

 LOG10 OF CONDITION NUMBER OF OVERLAP MATRIX IS:  8.24992184E-03
 ...... END OF TWO-ELECTRON INTEGRALS .....

                         TIMING STATISTICS ON RANK 0:
 CPU        TIME:   STEP =      0.01 ,  TOTAL =        1.1 SECONDS (    0.0 MIN)
 WALL CLOCK TIME:   STEP =      0.01 ,  TOTAL =        1.5 SECONDS (    0.0 MIN)
 CPU UTILIZATION:   STEP =    110.94%,  TOTAL =      76.59%

 DIRECT SCF CALCULATION, SCHWRZ=T   FDIFF=F

                                                                                                              NONZERO    BLOCKS
 ITER EX DEM  TOTAL ENERGY      E CHANGE  DENSITY CHANGE    DIIS ERROR      VIR. SHIFT       DAMPING        INTEGRALS   SKIPPED
          * * *   INITIATING DIIS PROCEDURE   * * *
   1  0  0    -0.638519435    -0.638519435   0.000000000   0.000000000     0.000000000     1.000000000              6         0
   2  1  0    -0.638519435     0.000000000   0.000000000   0.000000000     0.027096902     1.000000000              6         0

          -----------------
          DENSITY CONVERGED
          -----------------
     TIME TO FORM FOCK OPERATORS =       0.02 SECONDS (       0.01 SEC/ITER)
     FOCK TIME ON FIRST ITERATION=       0.01, LAST ITERATION=       0.01
     TIME TO SOLVE SCF EQUATIONS =       0.00 SECONDS (       0.00 SEC/ITER)

 FINAL ENERGY IS       -0.6385194345 AFTER   2 ITERATIONS
 ...... END OF RHF CALCULATION ......

                         TIMING STATISTICS ON RANK 0:
 CPU        TIME:   STEP =      0.02 ,  TOTAL =        1.1 SECONDS (    0.0 MIN)
 WALL CLOCK TIME:   STEP =      0.02 ,  TOTAL =        1.5 SECONDS (    0.0 MIN)
 CPU UTILIZATION:   STEP =    102.97%,  TOTAL =      76.94%
 ...... END OF TWO-ELECTRON INTEGRALS .....

 CPU        TIME:   STEP =      0.00 ,  TOTAL =        1.1 SECONDS (    0.0 MIN)
 WALL CLOCK TIME:   STEP =      0.00 ,  TOTAL =        1.5 SECONDS (    0.0 MIN)
 CPU UTILIZATION:   STEP =      0.00%,  TOTAL =      76.86%

 DETERMINANT CI OPTIONS   NRNFG   NPFLG
 INTEGRAL TRANSFORMATION    1      -5
 DIAGONALIZE HAMILTONIAN    1      -5
 FORM 1E- DENSITY MATRIX    1      -5
 FORM 2E- DENSITY MATRIX    0      -5

 ---- SURFACE MAPPING GEOMETRY ----
 COORD 1=  -1.70000  COORD 2=   0.00000
 HAS ENERGY VALUES         -0.9333092741          -0.9330976444          -0.3187906925          -0.3184837849 
 H             0.0000000000          0.0000000000          0.0000000000
 H             0.0000000000          0.0000000000          3.3000000000
 ----------------------------------
 ...... END OF ONE-ELECTRON INTEGRALS ......

                         TIMING STATISTICS ON RANK 0:
 CPU        TIME:   STEP =      0.01 ,  TOTAL =        1.1 SECONDS (    0.0 MIN)
 WALL CLOCK TIME:   STEP =      0.01 ,  TOTAL =        1.5 SECONDS (    0.0 MIN)
 CPU UTILIZATION:   STEP =     80.17%,  TOTAL =      76.89%

 LOG10 OF CONDITION NUMBER OF OVERLAP MATRIX IS:  9.22544719E-03
 ...... END OF TWO-ELECTRON INTEGRALS .....

                         TIMING STATISTICS ON RANK 0:
 CPU        TIME:   STEP =      0.00 ,  TOTAL =        1.1 SECONDS (    0.0 MIN)
 WALL CLOCK TIME:   STEP =      0.01 ,  TOTAL =        1.5 SECONDS (    0.0 MIN)
 CPU UTILIZATION:   STEP =      0.00%,  TOTAL =      76.54%

 DIRECT SCF CALCULATION, SCHWRZ=T   FDIFF=F

                                                                                                              NONZERO    BLOCKS
 ITER EX DEM  TOTAL ENERGY      E CHANGE  DENSITY CHANGE    DIIS ERROR      VIR. SHIFT       DAMPING        INTEGRALS   SKIPPED
          * * *   INITIATING DIIS PROCEDURE   * * *
   1  0  0    -0.641028856    -0.641028856   0.000000000   0.000000000     0.000000000     1.000000000              6         0
   2  1  0    -0.641028856     0.000000000   0.000000000   0.000000000     0.023338475     1.000000000              6         0

          -----------------
          DENSITY CONVERGED
          -----------------
     TIME TO FORM FOCK OPERATORS =       0.00 SECONDS (       0.00 SEC/ITER)
     FOCK TIME ON FIRST ITERATION=       0.00, LAST ITERATION=       0.00
     TIME TO SOLVE SCF EQUATIONS =       0.01 SECONDS (       0.01 SEC/ITER)

 FINAL ENERGY IS       -0.6410288564 AFTER   2 ITERATIONS
 ...... END OF RHF CALCULATION ......

                         TIMING STATISTICS ON RANK 0:
 CPU        TIME:   STEP =      0.01 ,  TOTAL =        1.2 SECONDS (    0.0 MIN)
 WALL CLOCK TIME:   STEP =      0.01 ,  TOTAL =        1.5 SECONDS (    0.0 MIN)
 CPU UTILIZATION:   STEP =     70.90%,  TOTAL =      76.49%
 ...... END OF TWO-ELECTRON INTEGRALS .....

 CPU        TIME:   STEP =      0.00 ,  TOTAL =        1.2 SECONDS (    0.0 MIN)
 WALL CLOCK TIME:   STEP =      0.00 ,  TOTAL =        1.5 SECONDS (    0.0 MIN)
 CPU UTILIZATION:   STEP =      0.00%,  TOTAL =      76.41%

 DETERMINANT CI OPTIONS   NRNFG   NPFLG
 INTEGRAL TRANSFORMATION    1      -5
 DIAGONALIZE HAMILTONIAN    1      -5
 FORM 1E- DENSITY MATRIX    1      -5
 FORM 2E- DENSITY MATRIX    0      -5

 ---- SURFACE MAPPING GEOMETRY ----
 COORD 1=  -1.75000  COORD 2=   0.00000
 HAS ENERGY VALUES         -0.9333412824          -0.9330821529          -0.3212279768          -0.3208529935 
 H             0.0000000000          0.0000000000          0.0000000000
 H             0.0000000000          0.0000000000          3.2500000000
 ----------------------------------
 ...... END OF ONE-ELECTRON INTEGRALS ......

                         TIMING STATISTICS ON RANK 0:
 CPU        TIME:   STEP =      0.01 ,  TOTAL =        1.2 SECONDS (    0.0 MIN)
 WALL CLOCK TIME:   STEP =      0.01 ,  TOTAL =        1.5 SECONDS (    0.0 MIN)
 CPU UTILIZATION:   STEP =     89.06%,  TOTAL =      76.50%

 LOG10 OF CONDITION NUMBER OF OVERLAP MATRIX IS:  1.03049299E-02
 ...... END OF TWO-ELECTRON INTEGRALS .....

                         TIMING STATISTICS ON RANK 0:
 CPU        TIME:   STEP =      0.01 ,  TOTAL =        1.2 SECONDS (    0.0 MIN)
 WALL CLOCK TIME:   STEP =      0.01 ,  TOTAL =        1.5 SECONDS (    0.0 MIN)
 CPU UTILIZATION:   STEP =    148.61%,  TOTAL =      76.81%

 DIRECT SCF CALCULATION, SCHWRZ=T   FDIFF=F

                                                                                                              NONZERO    BLOCKS
 ITER EX DEM  TOTAL ENERGY      E CHANGE  DENSITY CHANGE    DIIS ERROR      VIR. SHIFT       DAMPING        INTEGRALS   SKIPPED
          * * *   INITIATING DIIS PROCEDURE   * * *
   1  0  0    -0.643689932    -0.643689932   0.000000000   0.000000000     0.000000000     1.000000000              6         0
   2  1  0    -0.643689932     0.000000000   0.000000000   0.000000000     0.019386413     1.000000000              6         0

          -----------------
          DENSITY CONVERGED
          -----------------
     TIME TO FORM FOCK OPERATORS =       0.00 SECONDS (       0.00 SEC/ITER)
     FOCK TIME ON FIRST ITERATION=       0.00, LAST ITERATION=       0.00
     TIME TO SOLVE SCF EQUATIONS =       0.00 SECONDS (       0.00 SEC/ITER)

 FINAL ENERGY IS       -0.6436899318 AFTER   2 ITERATIONS
 ...... END OF RHF CALCULATION ......

                         TIMING STATISTICS ON RANK 0:
 CPU        TIME:   STEP =      0.00 ,  TOTAL =        1.2 SECONDS (    0.0 MIN)
 WALL CLOCK TIME:   STEP =      0.01 ,  TOTAL =        1.6 SECONDS (    0.0 MIN)
 CPU UTILIZATION:   STEP =      0.00%,  TOTAL =      76.12%
 ...... END OF TWO-ELECTRON INTEGRALS .....

 CPU        TIME:   STEP =      0.00 ,  TOTAL =        1.2 SECONDS (    0.0 MIN)
 WALL CLOCK TIME:   STEP =      0.00 ,  TOTAL =        1.6 SECONDS (    0.0 MIN)
 CPU UTILIZATION:   STEP =      0.00%,  TOTAL =      76.04%

 DETERMINANT CI OPTIONS   NRNFG   NPFLG
 INTEGRAL TRANSFORMATION    1      -5
 DIAGONALIZE HAMILTONIAN    1      -5
 FORM 1E- DENSITY MATRIX    1      -5
 FORM 2E- DENSITY MATRIX    0      -5

 ---- SURFACE MAPPING GEOMETRY ----
 COORD 1=  -1.80000  COORD 2=   0.00000
 HAS ENERGY VALUES         -0.9333799790          -0.9330632181          -0.3237356000          -0.3232783835 
 H             0.0000000000          0.0000000000          0.0000000000
 H             0.0000000000          0.0000000000          3.2000000000
 ----------------------------------
 ...... END OF ONE-ELECTRON INTEGRALS ......

                         TIMING STATISTICS ON RANK 0:
 CPU        TIME:   STEP =      0.01 ,  TOTAL =        1.2 SECONDS (    0.0 MIN)
 WALL CLOCK TIME:   STEP =      0.01 ,  TOTAL =        1.6 SECONDS (    0.0 MIN)
 CPU UTILIZATION:   STEP =     93.11%,  TOTAL =      76.16%

 LOG10 OF CONDITION NUMBER OF OVERLAP MATRIX IS:  1.14979501E-02
 ...... END OF TWO-ELECTRON INTEGRALS .....

                         TIMING STATISTICS ON RANK 0:
 CPU        TIME:   STEP =      0.00 ,  TOTAL =        1.2 SECONDS (    0.0 MIN)
 WALL CLOCK TIME:   STEP =      0.01 ,  TOTAL =        1.6 SECONDS (    0.0 MIN)
 CPU UTILIZATION:   STEP =      0.00%,  TOTAL =      75.71%

 DIRECT SCF CALCULATION, SCHWRZ=T   FDIFF=F

                                                                                                              NONZERO    BLOCKS
 ITER EX DEM  TOTAL ENERGY      E CHANGE  DENSITY CHANGE    DIIS ERROR      VIR. SHIFT       DAMPING        INTEGRALS   SKIPPED
          * * *   INITIATING DIIS PROCEDURE   * * *
   1  0  0    -0.646512248    -0.646512248   0.000000000   0.000000000     0.000000000     1.000000000              6         0
   2  1  0    -0.646512248     0.000000000   0.000000000   0.000000000     0.015228584     1.000000000              6         0

          -----------------
          DENSITY CONVERGED
          -----------------
     TIME TO FORM FOCK OPERATORS =       0.01 SECONDS (       0.01 SEC/ITER)
     FOCK TIME ON FIRST ITERATION=       0.01, LAST ITERATION=       0.00
     TIME TO SOLVE SCF EQUATIONS =       0.00 SECONDS (       0.00 SEC/ITER)

 FINAL ENERGY IS       -0.6465122484 AFTER   2 ITERATIONS
 ...... END OF RHF CALCULATION ......

                         TIMING STATISTICS ON RANK 0:
 CPU        TIME:   STEP =      0.02 ,  TOTAL =        1.2 SECONDS (    0.0 MIN)
 WALL CLOCK TIME:   STEP =      0.02 ,  TOTAL =        1.6 SECONDS (    0.0 MIN)
 CPU UTILIZATION:   STEP =    101.32%,  TOTAL =      76.02%
 ...... END OF TWO-ELECTRON INTEGRALS .....

 CPU        TIME:   STEP =      0.00 ,  TOTAL =        1.2 SECONDS (    0.0 MIN)
 WALL CLOCK TIME:   STEP =      0.00 ,  TOTAL =        1.6 SECONDS (    0.0 MIN)
 CPU UTILIZATION:   STEP =      0.00%,  TOTAL =      75.95%

 DETERMINANT CI OPTIONS   NRNFG   NPFLG
 INTEGRAL TRANSFORMATION    1      -5
 DIAGONALIZE HAMILTONIAN    1      -5
 FORM 1E- DENSITY MATRIX    1      -5
 FORM 2E- DENSITY MATRIX    0      -5

 ---- SURFACE MAPPING GEOMETRY ----
 COORD 1=  -1.85000  COORD 2=   0.00000
 HAS ENERGY VALUES         -0.9334266797          -0.9330401232          -0.3263157995          -0.3257594693 
 H             0.0000000000          0.0000000000          0.0000000000
 H             0.0000000000          0.0000000000          3.1500000000
 ----------------------------------
 ...... END OF ONE-ELECTRON INTEGRALS ......

                         TIMING STATISTICS ON RANK 0:
 CPU        TIME:   STEP =      0.01 ,  TOTAL =        1.2 SECONDS (    0.0 MIN)
 WALL CLOCK TIME:   STEP =      0.02 ,  TOTAL =        1.6 SECONDS (    0.0 MIN)
 CPU UTILIZATION:   STEP =     64.00%,  TOTAL =      75.83%

 LOG10 OF CONDITION NUMBER OF OVERLAP MATRIX IS:  1.28147750E-02
 ...... END OF TWO-ELECTRON INTEGRALS .....

                         TIMING STATISTICS ON RANK 0:
 CPU        TIME:   STEP =      0.01 ,  TOTAL =        1.2 SECONDS (    0.0 MIN)
 WALL CLOCK TIME:   STEP =      0.01 ,  TOTAL =        1.6 SECONDS (    0.0 MIN)
 CPU UTILIZATION:   STEP =    124.84%,  TOTAL =      76.08%

 DIRECT SCF CALCULATION, SCHWRZ=T   FDIFF=F

                                                                                                              NONZERO    BLOCKS
 ITER EX DEM  TOTAL ENERGY      E CHANGE  DENSITY CHANGE    DIIS ERROR      VIR. SHIFT       DAMPING        INTEGRALS   SKIPPED
          * * *   INITIATING DIIS PROCEDURE   * * *
   1  0  0    -0.649505777    -0.649505777   0.000000000   0.000000000     0.000000000     1.000000000              6         0
   2  1  0    -0.649505777     0.000000000   0.000000000   0.000000000     0.010852219     1.000000000              6         0

          -----------------
          DENSITY CONVERGED
          -----------------
     TIME TO FORM FOCK OPERATORS =       0.00 SECONDS (       0.00 SEC/ITER)
     FOCK TIME ON FIRST ITERATION=       0.00, LAST ITERATION=       0.00
     TIME TO SOLVE SCF EQUATIONS =       0.00 SECONDS (       0.00 SEC/ITER)

 FINAL ENERGY IS       -0.6495057766 AFTER   2 ITERATIONS
 ...... END OF RHF CALCULATION ......

                         TIMING STATISTICS ON RANK 0:
 CPU        TIME:   STEP =      0.00 ,  TOTAL =        1.2 SECONDS (    0.0 MIN)
 WALL CLOCK TIME:   STEP =      0.01 ,  TOTAL =        1.6 SECONDS (    0.0 MIN)
 CPU UTILIZATION:   STEP =      0.00%,  TOTAL =      75.46%
 ...... END OF TWO-ELECTRON INTEGRALS .....

 CPU        TIME:   STEP =      0.00 ,  TOTAL =        1.2 SECONDS (    0.0 MIN)
 WALL CLOCK TIME:   STEP =      0.00 ,  TOTAL =        1.6 SECONDS (    0.0 MIN)
 CPU UTILIZATION:   STEP =      0.00%,  TOTAL =      75.39%

 DETERMINANT CI OPTIONS   NRNFG   NPFLG
 INTEGRAL TRANSFORMATION    1      -5
 DIAGONALIZE HAMILTONIAN    1      -5
 FORM 1E- DENSITY MATRIX    1      -5
 FORM 2E- DENSITY MATRIX    0      -5

 ---- SURFACE MAPPING GEOMETRY ----
 COORD 1=  -1.90000  COORD 2=   0.00000
 HAS ENERGY VALUES         -0.9334829420          -0.9330120136          -0.3289707702          -0.3282952462 
 H             0.0000000000          0.0000000000          0.0000000000
 H             0.0000000000          0.0000000000          3.1000000000
 ----------------------------------
 ...... END OF ONE-ELECTRON INTEGRALS ......

                         TIMING STATISTICS ON RANK 0:
 CPU        TIME:   STEP =      0.02 ,  TOTAL =        1.3 SECONDS (    0.0 MIN)
 WALL CLOCK TIME:   STEP =      0.01 ,  TOTAL =        1.6 SECONDS (    0.0 MIN)
 CPU UTILIZATION:   STEP =    177.09%,  TOTAL =      76.09%

 LOG10 OF CONDITION NUMBER OF OVERLAP MATRIX IS:  1.42663844E-02
 ...... END OF TWO-ELECTRON INTEGRALS .....

                         TIMING STATISTICS ON RANK 0:
 CPU        TIME:   STEP =      0.00 ,  TOTAL =        1.3 SECONDS (    0.0 MIN)
 WALL CLOCK TIME:   STEP =      0.01 ,  TOTAL =        1.6 SECONDS (    0.0 MIN)
 CPU UTILIZATION:   STEP =      0.00%,  TOTAL =      75.77%

 DIRECT SCF CALCULATION, SCHWRZ=T   FDIFF=F

                                                                                                              NONZERO    BLOCKS
 ITER EX DEM  TOTAL ENERGY      E CHANGE  DENSITY CHANGE    DIIS ERROR      VIR. SHIFT       DAMPING        INTEGRALS   SKIPPED
          * * *   INITIATING DIIS PROCEDURE   * * *
   1  0  0    -0.652680867    -0.652680867   0.000000000   0.000000000     0.000000000     1.000000000              6         0
          * * *    REDUCING  DIIS SUBSPACE    * * *
   2  1  0    -0.652680867     0.000000000   0.000000000   0.000000000     0.006243887     1.000000000              6         0

          -----------------
          DENSITY CONVERGED
          -----------------
     TIME TO FORM FOCK OPERATORS =       0.01 SECONDS (       0.01 SEC/ITER)
     FOCK TIME ON FIRST ITERATION=       0.00, LAST ITERATION=       0.01
     TIME TO SOLVE SCF EQUATIONS =       0.00 SECONDS (       0.00 SEC/ITER)

 FINAL ENERGY IS       -0.6526808674 AFTER   2 ITERATIONS
 ...... END OF RHF CALCULATION ......

                         TIMING STATISTICS ON RANK 0:
 CPU        TIME:   STEP =      0.01 ,  TOTAL =        1.3 SECONDS (    0.0 MIN)
 WALL CLOCK TIME:   STEP =      0.01 ,  TOTAL =        1.7 SECONDS (    0.0 MIN)
 CPU UTILIZATION:   STEP =     74.07%,  TOTAL =      75.76%
 ...... END OF TWO-ELECTRON INTEGRALS .....

 CPU        TIME:   STEP =      0.00 ,  TOTAL =        1.3 SECONDS (    0.0 MIN)
 WALL CLOCK TIME:   STEP =      0.00 ,  TOTAL =        1.7 SECONDS (    0.0 MIN)
 CPU UTILIZATION:   STEP =      0.00%,  TOTAL =      75.70%

 DETERMINANT CI OPTIONS   NRNFG   NPFLG
 INTEGRAL TRANSFORMATION    1      -5
 DIAGONALIZE HAMILTONIAN    1      -5
 FORM 1E- DENSITY MATRIX    1      -5
 FORM 2E- DENSITY MATRIX    0      -5

 ---- SURFACE MAPPING GEOMETRY ----
 COORD 1=  -1.95000  COORD 2=   0.00000
 HAS ENERGY VALUES         -0.9335506066          -0.9329778729          -0.3317026346          -0.3308840860 
 H             0.0000000000          0.0000000000          0.0000000000
 H             0.0000000000          0.0000000000          3.0500000000
 ----------------------------------
 ...... END OF ONE-ELECTRON INTEGRALS ......

                         TIMING STATISTICS ON RANK 0:
 CPU        TIME:   STEP =      0.01 ,  TOTAL =        1.3 SECONDS (    0.0 MIN)
 WALL CLOCK TIME:   STEP =      0.01 ,  TOTAL =        1.7 SECONDS (    0.0 MIN)
 CPU UTILIZATION:   STEP =     93.28%,  TOTAL =      75.81%

 LOG10 OF CONDITION NUMBER OF OVERLAP MATRIX IS:  1.58644941E-02
 ...... END OF TWO-ELECTRON INTEGRALS .....

                         TIMING STATISTICS ON RANK 0:
 CPU        TIME:   STEP =      0.00 ,  TOTAL =        1.3 SECONDS (    0.0 MIN)
 WALL CLOCK TIME:   STEP =      0.01 ,  TOTAL =        1.7 SECONDS (    0.0 MIN)
 CPU UTILIZATION:   STEP =      0.00%,  TOTAL =      75.51%

 DIRECT SCF CALCULATION, SCHWRZ=T   FDIFF=F

                                                                                                              NONZERO    BLOCKS
 ITER EX DEM  TOTAL ENERGY      E CHANGE  DENSITY CHANGE    DIIS ERROR      VIR. SHIFT       DAMPING        INTEGRALS   SKIPPED
          * * *   INITIATING DIIS PROCEDURE   * * *
   1  0  0    -0.656048252    -0.656048252   0.000000000   0.000000000     0.000000000     1.000000000              6         0
   2  1  0    -0.656048252     0.000000000   0.000000000   0.000000000     0.001389452     1.000000000              6         0

          -----------------
          DENSITY CONVERGED
          -----------------
     TIME TO FORM FOCK OPERATORS =       0.00 SECONDS (       0.00 SEC/ITER)
     FOCK TIME ON FIRST ITERATION=       0.00, LAST ITERATION=       0.00
     TIME TO SOLVE SCF EQUATIONS =       0.00 SECONDS (       0.00 SEC/ITER)

 FINAL ENERGY IS       -0.6560482518 AFTER   2 ITERATIONS
 ...... END OF RHF CALCULATION ......

                         TIMING STATISTICS ON RANK 0:
 CPU        TIME:   STEP =      0.00 ,  TOTAL =        1.3 SECONDS (    0.0 MIN)
 WALL CLOCK TIME:   STEP =      0.01 ,  TOTAL =        1.7 SECONDS (    0.0 MIN)
 CPU UTILIZATION:   STEP =      0.00%,  TOTAL =      74.92%
 ...... END OF TWO-ELECTRON INTEGRALS .....

 CPU        TIME:   STEP =      0.01 ,  TOTAL =        1.3 SECONDS (    0.0 MIN)
 WALL CLOCK TIME:   STEP =      0.00 ,  TOTAL =        1.7 SECONDS (    0.0 MIN)
 CPU UTILIZATION:   STEP =    724.64%,  TOTAL =      75.44%

 DETERMINANT CI OPTIONS   NRNFG   NPFLG
 INTEGRAL TRANSFORMATION    1      -5
 DIAGONALIZE HAMILTONIAN    1      -5
 FORM 1E- DENSITY MATRIX    1      -5
 FORM 2E- DENSITY MATRIX    0      -5

 ---- SURFACE MAPPING GEOMETRY ----
 COORD 1=  -2.00000  COORD 2=   0.00000
 HAS ENERGY VALUES         -0.9336318462          -0.9329364950          -0.3345134081          -0.3335236159 
 H             0.0000000000          0.0000000000          0.0000000000
 H             0.0000000000          0.0000000000          3.0000000000
 ----------------------------------
 ...... END OF ONE-ELECTRON INTEGRALS ......

                         TIMING STATISTICS ON RANK 0:
 CPU        TIME:   STEP =      0.01 ,  TOTAL =        1.3 SECONDS (    0.0 MIN)
 WALL CLOCK TIME:   STEP =      0.01 ,  TOTAL =        1.7 SECONDS (    0.0 MIN)
 CPU UTILIZATION:   STEP =     93.48%,  TOTAL =      75.56%

 LOG10 OF CONDITION NUMBER OF OVERLAP MATRIX IS:  1.76215773E-02
 ...... END OF TWO-ELECTRON INTEGRALS .....

                         TIMING STATISTICS ON RANK 0:
 CPU        TIME:   STEP =      0.01 ,  TOTAL =        1.3 SECONDS (    0.0 MIN)
 WALL CLOCK TIME:   STEP =      0.01 ,  TOTAL =        1.7 SECONDS (    0.0 MIN)
 CPU UTILIZATION:   STEP =    145.43%,  TOTAL =      75.84%

 DIRECT SCF CALCULATION, SCHWRZ=T   FDIFF=F

                                                                                                              NONZERO    BLOCKS
 ITER EX DEM  TOTAL ENERGY      E CHANGE  DENSITY CHANGE    DIIS ERROR      VIR. SHIFT       DAMPING        INTEGRALS   SKIPPED
          * * *   INITIATING DIIS PROCEDURE   * * *
   1  0  0    -0.659619043    -0.659619043   0.000000000   0.000000000     0.000000000     1.000000000              6         0
   2  1  0    -0.659619043     0.000000000   0.000000000   0.000000000     0.000000000     1.000000000              6         0

          -----------------
          DENSITY CONVERGED
          -----------------
     TIME TO FORM FOCK OPERATORS =       0.00 SECONDS (       0.00 SEC/ITER)
     FOCK TIME ON FIRST ITERATION=       0.00, LAST ITERATION=       0.00
     TIME TO SOLVE SCF EQUATIONS =       0.00 SECONDS (       0.00 SEC/ITER)

 FINAL ENERGY IS       -0.6596190431 AFTER   2 ITERATIONS
 ...... END OF RHF CALCULATION ......

                         TIMING STATISTICS ON RANK 0:
 CPU        TIME:   STEP =      0.00 ,  TOTAL =        1.3 SECONDS (    0.0 MIN)
 WALL CLOCK TIME:   STEP =      0.01 ,  TOTAL =        1.7 SECONDS (    0.0 MIN)
 CPU UTILIZATION:   STEP =      0.00%,  TOTAL =      75.20%
 ...... END OF TWO-ELECTRON INTEGRALS .....

 CPU        TIME:   STEP =      0.00 ,  TOTAL =        1.3 SECONDS (    0.0 MIN)
 WALL CLOCK TIME:   STEP =      0.00 ,  TOTAL =        1.7 SECONDS (    0.0 MIN)
 CPU UTILIZATION:   STEP =      0.00%,  TOTAL =      75.14%

 DETERMINANT CI OPTIONS   NRNFG   NPFLG
 INTEGRAL TRANSFORMATION    1      -5
 DIAGONALIZE HAMILTONIAN    1      -5
 FORM 1E- DENSITY MATRIX    1      -5
 FORM 2E- DENSITY MATRIX    0      -5

 ---- SURFACE MAPPING GEOMETRY ----
 COORD 1=  -2.05000  COORD 2=   0.00000
 HAS ENERGY VALUES         -0.9337292225          -0.9328864510          -0.3374049570          -0.3362105779 
 H             0.0000000000          0.0000000000          0.0000000000
 H             0.0000000000          0.0000000000          2.9500000000
 ----------------------------------
 ...... END OF ONE-ELECTRON INTEGRALS ......

                         TIMING STATISTICS ON RANK 0:
 CPU        TIME:   STEP =      0.01 ,  TOTAL =        1.3 SECONDS (    0.0 MIN)
 WALL CLOCK TIME:   STEP =      0.01 ,  TOTAL =        1.7 SECONDS (    0.0 MIN)
 CPU UTILIZATION:   STEP =     74.74%,  TOTAL =      75.14%

 LOG10 OF CONDITION NUMBER OF OVERLAP MATRIX IS:  1.95508850E-02
 ...... END OF TWO-ELECTRON INTEGRALS .....

                         TIMING STATISTICS ON RANK 0:
 CPU        TIME:   STEP =      0.01 ,  TOTAL =        1.3 SECONDS (    0.0 MIN)
 WALL CLOCK TIME:   STEP =      0.01 ,  TOTAL =        1.8 SECONDS (    0.0 MIN)
 CPU UTILIZATION:   STEP =     97.31%,  TOTAL =      75.27%

 DIRECT SCF CALCULATION, SCHWRZ=T   FDIFF=F

                                                                                                              NONZERO    BLOCKS
 ITER EX DEM  TOTAL ENERGY      E CHANGE  DENSITY CHANGE    DIIS ERROR      VIR. SHIFT       DAMPING        INTEGRALS   SKIPPED
          * * *   INITIATING DIIS PROCEDURE   * * *
   1  0  0    -0.663404742    -0.663404742   0.000000000   0.000000000     0.000000000     1.000000000              6         0
   2  1  0    -0.663404742     0.000000000   0.000000000   0.000000000     0.000000000     1.000000000              6         0

          -----------------
          DENSITY CONVERGED
          -----------------
     TIME TO FORM FOCK OPERATORS =       0.01 SECONDS (       0.01 SEC/ITER)
     FOCK TIME ON FIRST ITERATION=       0.00, LAST ITERATION=       0.01
     TIME TO SOLVE SCF EQUATIONS =       0.00 SECONDS (       0.00 SEC/ITER)

 FINAL ENERGY IS       -0.6634047422 AFTER   2 ITERATIONS
 ...... END OF RHF CALCULATION ......

                         TIMING STATISTICS ON RANK 0:
 CPU        TIME:   STEP =      0.02 ,  TOTAL =        1.3 SECONDS (    0.0 MIN)
 WALL CLOCK TIME:   STEP =      0.02 ,  TOTAL =        1.8 SECONDS (    0.0 MIN)
 CPU UTILIZATION:   STEP =     91.42%,  TOTAL =      75.47%
 ...... END OF TWO-ELECTRON INTEGRALS .....

 CPU        TIME:   STEP =      0.00 ,  TOTAL =        1.3 SECONDS (    0.0 MIN)
 WALL CLOCK TIME:   STEP =      0.00 ,  TOTAL =        1.8 SECONDS (    0.0 MIN)
 CPU UTILIZATION:   STEP =      0.00%,  TOTAL =      75.39%

 DETERMINANT CI OPTIONS   NRNFG   NPFLG
 INTEGRAL TRANSFORMATION    1      -5
 DIAGONALIZE HAMILTONIAN    1      -5
 FORM 1E- DENSITY MATRIX    1      -5
 FORM 2E- DENSITY MATRIX    0      -5

 ---- SURFACE MAPPING GEOMETRY ----
 COORD 1=  -2.10000  COORD 2=   0.00000
 HAS ENERGY VALUES         -0.9338457524          -0.9328260520          -0.3403789500          -0.3389406674 
 H             0.0000000000          0.0000000000          0.0000000000
 H             0.0000000000          0.0000000000          2.9000000000
 ----------------------------------
 ...... END OF ONE-ELECTRON INTEGRALS ......

                         TIMING STATISTICS ON RANK 0:
 CPU        TIME:   STEP =      0.01 ,  TOTAL =        1.3 SECONDS (    0.0 MIN)
 WALL CLOCK TIME:   STEP =      0.02 ,  TOTAL =        1.8 SECONDS (    0.0 MIN)
 CPU UTILIZATION:   STEP =     63.47%,  TOTAL =      75.29%

 LOG10 OF CONDITION NUMBER OF OVERLAP MATRIX IS:  2.16664649E-02
 ...... END OF TWO-ELECTRON INTEGRALS .....

                         TIMING STATISTICS ON RANK 0:
 CPU        TIME:   STEP =      0.00 ,  TOTAL =        1.3 SECONDS (    0.0 MIN)
 WALL CLOCK TIME:   STEP =      0.01 ,  TOTAL =        1.8 SECONDS (    0.0 MIN)
 CPU UTILIZATION:   STEP =      0.00%,  TOTAL =      74.84%

 DIRECT SCF CALCULATION, SCHWRZ=T   FDIFF=F

                                                                                                              NONZERO    BLOCKS
 ITER EX DEM  TOTAL ENERGY      E CHANGE  DENSITY CHANGE    DIIS ERROR      VIR. SHIFT       DAMPING        INTEGRALS   SKIPPED
          * * *   INITIATING DIIS PROCEDURE   * * *
   1  0  0    -0.667417246    -0.667417246   0.000000000   0.000000000     0.000000000     1.000000000              6         0
   2  1  0    -0.667417246     0.000000000   0.000000000   0.000000000     0.000000000     1.000000000              6         0

          -----------------
          DENSITY CONVERGED
          -----------------
     TIME TO FORM FOCK OPERATORS =       0.00 SECONDS (       0.00 SEC/ITER)
     FOCK TIME ON FIRST ITERATION=       0.00, LAST ITERATION=       0.00
     TIME TO SOLVE SCF EQUATIONS =       0.00 SECONDS (       0.00 SEC/ITER)

 FINAL ENERGY IS       -0.6674172462 AFTER   2 ITERATIONS
 ...... END OF RHF CALCULATION ......

                         TIMING STATISTICS ON RANK 0:
 CPU        TIME:   STEP =      0.01 ,  TOTAL =        1.4 SECONDS (    0.0 MIN)
 WALL CLOCK TIME:   STEP =      0.02 ,  TOTAL =        1.8 SECONDS (    0.0 MIN)
 CPU UTILIZATION:   STEP =     53.72%,  TOTAL =      74.63%
 ...... END OF TWO-ELECTRON INTEGRALS .....

 CPU        TIME:   STEP =      0.00 ,  TOTAL =        1.4 SECONDS (    0.0 MIN)
 WALL CLOCK TIME:   STEP =      0.00 ,  TOTAL =        1.8 SECONDS (    0.0 MIN)
 CPU UTILIZATION:   STEP =      0.00%,  TOTAL =      74.57%

 DETERMINANT CI OPTIONS   NRNFG   NPFLG
 INTEGRAL TRANSFORMATION    1      -5
 DIAGONALIZE HAMILTONIAN    1      -5
 FORM 1E- DENSITY MATRIX    1      -5
 FORM 2E- DENSITY MATRIX    0      -5

 ---- SURFACE MAPPING GEOMETRY ----
 COORD 1=  -2.15000  COORD 2=   0.00000
 HAS ENERGY VALUES         -0.9339849860          -0.9327533048          -0.3434368011          -0.3417083460 
 H             0.0000000000          0.0000000000          0.0000000000
 H             0.0000000000          0.0000000000          2.8500000000
 ----------------------------------
 ...... END OF ONE-ELECTRON INTEGRALS ......

                         TIMING STATISTICS ON RANK 0:
 CPU        TIME:   STEP =      0.02 ,  TOTAL =        1.4 SECONDS (    0.0 MIN)
 WALL CLOCK TIME:   STEP =      0.01 ,  TOTAL =        1.8 SECONDS (    0.0 MIN)
 CPU UTILIZATION:   STEP =    134.36%,  TOTAL =      75.05%

 LOG10 OF CONDITION NUMBER OF OVERLAP MATRIX IS:  2.39831784E-02
 ...... END OF TWO-ELECTRON INTEGRALS .....

                         TIMING STATISTICS ON RANK 0:
 CPU        TIME:   STEP =      0.01 ,  TOTAL =        1.4 SECONDS (    0.0 MIN)
 WALL CLOCK TIME:   STEP =      0.01 ,  TOTAL =        1.8 SECONDS (    0.0 MIN)
 CPU UTILIZATION:   STEP =    148.04%,  TOTAL =      75.32%

 DIRECT SCF CALCULATION, SCHWRZ=T   FDIFF=F

                                                                                                              NONZERO    BLOCKS
 ITER EX DEM  TOTAL ENERGY      E CHANGE  DENSITY CHANGE    DIIS ERROR      VIR. SHIFT       DAMPING        INTEGRALS   SKIPPED
          * * *   INITIATING DIIS PROCEDURE   * * *
   1  0  0    -0.671668860    -0.671668860   0.000000000   0.000000000     0.000000000     1.000000000              6         0
   2  1  0    -0.671668860     0.000000000   0.000000000   0.000000000     0.000000000     1.000000000              6         0

          -----------------
          DENSITY CONVERGED
          -----------------
     TIME TO FORM FOCK OPERATORS =       0.00 SECONDS (       0.00 SEC/ITER)
     FOCK TIME ON FIRST ITERATION=       0.00, LAST ITERATION=       0.00
     TIME TO SOLVE SCF EQUATIONS =       0.00 SECONDS (       0.00 SEC/ITER)

 FINAL ENERGY IS       -0.6716688602 AFTER   2 ITERATIONS
 ...... END OF RHF CALCULATION ......

                         TIMING STATISTICS ON RANK 0:
 CPU        TIME:   STEP =      0.00 ,  TOTAL =        1.4 SECONDS (    0.0 MIN)
 WALL CLOCK TIME:   STEP =      0.01 ,  TOTAL =        1.9 SECONDS (    0.0 MIN)
 CPU UTILIZATION:   STEP =      0.00%,  TOTAL =      74.78%
 ...... END OF TWO-ELECTRON INTEGRALS .....

 CPU        TIME:   STEP =      0.01 ,  TOTAL =        1.4 SECONDS (    0.0 MIN)
 WALL CLOCK TIME:   STEP =      0.00 ,  TOTAL =        1.9 SECONDS (    0.0 MIN)
 CPU UTILIZATION:   STEP =    738.01%,  TOTAL =      75.26%

 DETERMINANT CI OPTIONS   NRNFG   NPFLG
 INTEGRAL TRANSFORMATION    1      -5
 DIAGONALIZE HAMILTONIAN    1      -5
 FORM 1E- DENSITY MATRIX    1      -5
 FORM 2E- DENSITY MATRIX    0      -5

 ---- SURFACE MAPPING GEOMETRY ----
 COORD 1=  -2.20000  COORD 2=   0.00000
 HAS ENERGY VALUES         -0.9341510973          -0.9326658609          -0.3465796033          -0.3445066251 
 H             0.0000000000          0.0000000000          0.0000000000
 H             0.0000000000          0.0000000000          2.8000000000
 ----------------------------------
 ...... END OF ONE-ELECTRON INTEGRALS ......

                         TIMING STATISTICS ON RANK 0:
 CPU        TIME:   STEP =      0.00 ,  TOTAL =        1.4 SECONDS (    0.0 MIN)
 WALL CLOCK TIME:   STEP =      0.01 ,  TOTAL =        1.9 SECONDS (    0.0 MIN)
 CPU UTILIZATION:   STEP =      0.00%,  TOTAL =      74.83%

 LOG10 OF CONDITION NUMBER OF OVERLAP MATRIX IS:  2.65167178E-02
 ...... END OF TWO-ELECTRON INTEGRALS .....

                         TIMING STATISTICS ON RANK 0:
 CPU        TIME:   STEP =      0.00 ,  TOTAL =        1.4 SECONDS (    0.0 MIN)
 WALL CLOCK TIME:   STEP =      0.01 ,  TOTAL =        1.9 SECONDS (    0.0 MIN)
 CPU UTILIZATION:   STEP =      0.00%,  TOTAL =      74.55%

 DIRECT SCF CALCULATION, SCHWRZ=T   FDIFF=F

                                                                                                              NONZERO    BLOCKS
 ITER EX DEM  TOTAL ENERGY      E CHANGE  DENSITY CHANGE    DIIS ERROR      VIR. SHIFT       DAMPING        INTEGRALS   SKIPPED
          * * *   INITIATING DIIS PROCEDURE   * * *
   1  0  0    -0.676172311    -0.676172311   0.000000000   0.000000000     0.000000000     1.000000000              6         0
   2  1  0    -0.676172311     0.000000000   0.000000000   0.000000000     0.000000000     1.000000000              6         0

          -----------------
          DENSITY CONVERGED
          -----------------
     TIME TO FORM FOCK OPERATORS =       0.00 SECONDS (       0.00 SEC/ITER)
     FOCK TIME ON FIRST ITERATION=       0.00, LAST ITERATION=       0.00
     TIME TO SOLVE SCF EQUATIONS =       0.00 SECONDS (       0.00 SEC/ITER)

 FINAL ENERGY IS       -0.6761723109 AFTER   2 ITERATIONS
 ...... END OF RHF CALCULATION ......

                         TIMING STATISTICS ON RANK 0:
 CPU        TIME:   STEP =      0.01 ,  TOTAL =        1.4 SECONDS (    0.0 MIN)
 WALL CLOCK TIME:   STEP =      0.01 ,  TOTAL =        1.9 SECONDS (    0.0 MIN)
 CPU UTILIZATION:   STEP =     74.33%,  TOTAL =      74.55%
 ...... END OF TWO-ELECTRON INTEGRALS .....

 CPU        TIME:   STEP =      0.00 ,  TOTAL =        1.4 SECONDS (    0.0 MIN)
 WALL CLOCK TIME:   STEP =      0.00 ,  TOTAL =        1.9 SECONDS (    0.0 MIN)
 CPU UTILIZATION:   STEP =      0.00%,  TOTAL =      74.50%

 DETERMINANT CI OPTIONS   NRNFG   NPFLG
 INTEGRAL TRANSFORMATION    1      -5
 DIAGONALIZE HAMILTONIAN    1      -5
 FORM 1E- DENSITY MATRIX    1      -5
 FORM 2E- DENSITY MATRIX    0      -5

 ---- SURFACE MAPPING GEOMETRY ----
 COORD 1=  -2.25000  COORD 2=   0.00000
 HAS ENERGY VALUES         -0.9343489893          -0.9325609570          -0.3498080512          -0.3473268171 
 H             0.0000000000          0.0000000000          0.0000000000
 H             0.0000000000          0.0000000000          2.7500000000
 ----------------------------------
 ...... END OF ONE-ELECTRON INTEGRALS ......

                         TIMING STATISTICS ON RANK 0:
 CPU        TIME:   STEP =      0.01 ,  TOTAL =        1.4 SECONDS (    0.0 MIN)
 WALL CLOCK TIME:   STEP =      0.01 ,  TOTAL =        1.9 SECONDS (    0.0 MIN)
 CPU UTILIZATION:   STEP =     88.96%,  TOTAL =      74.58%

 LOG10 OF CONDITION NUMBER OF OVERLAP MATRIX IS:  2.92836230E-02
 ...... END OF TWO-ELECTRON INTEGRALS .....

                         TIMING STATISTICS ON RANK 0:
 CPU        TIME:   STEP =      0.00 ,  TOTAL =        1.4 SECONDS (    0.0 MIN)
 WALL CLOCK TIME:   STEP =      0.01 ,  TOTAL =        1.9 SECONDS (    0.0 MIN)
 CPU UTILIZATION:   STEP =      0.00%,  TOTAL =      74.32%

 DIRECT SCF CALCULATION, SCHWRZ=T   FDIFF=F

                                                                                                              NONZERO    BLOCKS
 ITER EX DEM  TOTAL ENERGY      E CHANGE  DENSITY CHANGE    DIIS ERROR      VIR. SHIFT       DAMPING        INTEGRALS   SKIPPED
          * * *   INITIATING DIIS PROCEDURE   * * *
   1  0  0    -0.680940761    -0.680940761   0.000000000   0.000000000     0.000000000     1.000000000              6         0
   2  1  0    -0.680940761     0.000000000   0.000000000   0.000000000     0.000000000     1.000000000              6         0

          -----------------
          DENSITY CONVERGED
          -----------------
     TIME TO FORM FOCK OPERATORS =       0.01 SECONDS (       0.01 SEC/ITER)
     FOCK TIME ON FIRST ITERATION=       0.01, LAST ITERATION=       0.00
     TIME TO SOLVE SCF EQUATIONS =       0.00 SECONDS (       0.00 SEC/ITER)

 FINAL ENERGY IS       -0.6809407611 AFTER   2 ITERATIONS
 ...... END OF RHF CALCULATION ......

                         TIMING STATISTICS ON RANK 0:
 CPU        TIME:   STEP =      0.01 ,  TOTAL =        1.4 SECONDS (    0.0 MIN)
 WALL CLOCK TIME:   STEP =      0.01 ,  TOTAL =        1.9 SECONDS (    0.0 MIN)
 CPU UTILIZATION:   STEP =     76.24%,  TOTAL =      74.34%
 ...... END OF TWO-ELECTRON INTEGRALS .....

 CPU        TIME:   STEP =      0.00 ,  TOTAL =        1.4 SECONDS (    0.0 MIN)
 WALL CLOCK TIME:   STEP =      0.00 ,  TOTAL =        1.9 SECONDS (    0.0 MIN)
 CPU UTILIZATION:   STEP =      0.00%,  TOTAL =      74.29%

 DETERMINANT CI OPTIONS   NRNFG   NPFLG
 INTEGRAL TRANSFORMATION    1      -5
 DIAGONALIZE HAMILTONIAN    1      -5
 FORM 1E- DENSITY MATRIX    1      -5
 FORM 2E- DENSITY MATRIX    0      -5

 ---- SURFACE MAPPING GEOMETRY ----
 COORD 1=  -2.30000  COORD 2=   0.00000
 HAS ENERGY VALUES         -0.9345844175          -0.9324353461          -0.3531223524          -0.3501582478 
 H             0.0000000000          0.0000000000          0.0000000000
 H             0.0000000000          0.0000000000          2.7000000000
 ----------------------------------
 ...... END OF ONE-ELECTRON INTEGRALS ......

                         TIMING STATISTICS ON RANK 0:
 CPU        TIME:   STEP =      0.02 ,  TOTAL =        1.4 SECONDS (    0.0 MIN)
 WALL CLOCK TIME:   STEP =      0.01 ,  TOTAL =        1.9 SECONDS (    0.0 MIN)
 CPU UTILIZATION:   STEP =    148.50%,  TOTAL =      74.80%

 LOG10 OF CONDITION NUMBER OF OVERLAP MATRIX IS:  3.23012993E-02
 ...... END OF TWO-ELECTRON INTEGRALS .....

                         TIMING STATISTICS ON RANK 0:
 CPU        TIME:   STEP =      0.00 ,  TOTAL =        1.4 SECONDS (    0.0 MIN)
 WALL CLOCK TIME:   STEP =      0.01 ,  TOTAL =        1.9 SECONDS (    0.0 MIN)
 CPU UTILIZATION:   STEP =      0.00%,  TOTAL =      74.54%

 DIRECT SCF CALCULATION, SCHWRZ=T   FDIFF=F

                                                                                                              NONZERO    BLOCKS
 ITER EX DEM  TOTAL ENERGY      E CHANGE  DENSITY CHANGE    DIIS ERROR      VIR. SHIFT       DAMPING        INTEGRALS   SKIPPED
          * * *   INITIATING DIIS PROCEDURE   * * *
   1  0  0    -0.685987822    -0.685987822   0.000000000   0.000000000     0.000000000     1.000000000              6         0
   2  1  0    -0.685987822     0.000000000   0.000000000   0.000000000     0.000000000     1.000000000              6         0

          -----------------
          DENSITY CONVERGED
          -----------------
     TIME TO FORM FOCK OPERATORS =       0.00 SECONDS (       0.00 SEC/ITER)
     FOCK TIME ON FIRST ITERATION=       0.00, LAST ITERATION=       0.00
     TIME TO SOLVE SCF EQUATIONS =       0.00 SECONDS (       0.00 SEC/ITER)

 FINAL ENERGY IS       -0.6859878221 AFTER   2 ITERATIONS
 ...... END OF RHF CALCULATION ......

                         TIMING STATISTICS ON RANK 0:
 CPU        TIME:   STEP =      0.01 ,  TOTAL =        1.5 SECONDS (    0.0 MIN)
 WALL CLOCK TIME:   STEP =      0.01 ,  TOTAL =        2.0 SECONDS (    0.0 MIN)
 CPU UTILIZATION:   STEP =     72.30%,  TOTAL =      74.53%
 ...... END OF TWO-ELECTRON INTEGRALS .....

 CPU        TIME:   STEP =      0.00 ,  TOTAL =        1.5 SECONDS (    0.0 MIN)
 WALL CLOCK TIME:   STEP =      0.00 ,  TOTAL =        2.0 SECONDS (    0.0 MIN)
 CPU UTILIZATION:   STEP =      0.00%,  TOTAL =      74.47%

 DETERMINANT CI OPTIONS   NRNFG   NPFLG
 INTEGRAL TRANSFORMATION    1      -5
 DIAGONALIZE HAMILTONIAN    1      -5
 FORM 1E- DENSITY MATRIX    1      -5
 FORM 2E- DENSITY MATRIX    0      -5

 ---- SURFACE MAPPING GEOMETRY ----
 COORD 1=  -2.35000  COORD 2=   0.00000
 HAS ENERGY VALUES         -0.9348641305          -0.9322852171          -0.3565221248          -0.3529879269 
 H             0.0000000000          0.0000000000          0.0000000000
 H             0.0000000000          0.0000000000          2.6500000000
 ----------------------------------
 ...... END OF ONE-ELECTRON INTEGRALS ......

                         TIMING STATISTICS ON RANK 0:
 CPU        TIME:   STEP =      0.00 ,  TOTAL =        1.5 SECONDS (    0.0 MIN)
 WALL CLOCK TIME:   STEP =      0.01 ,  TOTAL =        2.0 SECONDS (    0.0 MIN)
 CPU UTILIZATION:   STEP =      0.00%,  TOTAL =      74.03%

 LOG10 OF CONDITION NUMBER OF OVERLAP MATRIX IS:  3.55880371E-02
 ...... END OF TWO-ELECTRON INTEGRALS .....

                         TIMING STATISTICS ON RANK 0:
 CPU        TIME:   STEP =      0.01 ,  TOTAL =        1.5 SECONDS (    0.0 MIN)
 WALL CLOCK TIME:   STEP =      0.01 ,  TOTAL =        2.0 SECONDS (    0.0 MIN)
 CPU UTILIZATION:   STEP =    143.53%,  TOTAL =      74.27%

 DIRECT SCF CALCULATION, SCHWRZ=T   FDIFF=F

                                                                                                              NONZERO    BLOCKS
 ITER EX DEM  TOTAL ENERGY      E CHANGE  DENSITY CHANGE    DIIS ERROR      VIR. SHIFT       DAMPING        INTEGRALS   SKIPPED
          * * *   INITIATING DIIS PROCEDURE   * * *
   1  0  0    -0.691327562    -0.691327562   0.000000000   0.000000000     0.000000000     1.000000000              6         0
   2  1  0    -0.691327562     0.000000000   0.000000000   0.000000000     0.000000000     1.000000000              6         0

          -----------------
          DENSITY CONVERGED
          -----------------
     TIME TO FORM FOCK OPERATORS =       0.00 SECONDS (       0.00 SEC/ITER)
     FOCK TIME ON FIRST ITERATION=       0.00, LAST ITERATION=       0.00
     TIME TO SOLVE SCF EQUATIONS =       0.00 SECONDS (       0.00 SEC/ITER)

 FINAL ENERGY IS       -0.6913275616 AFTER   2 ITERATIONS
 ...... END OF RHF CALCULATION ......

                         TIMING STATISTICS ON RANK 0:
 CPU        TIME:   STEP =      0.01 ,  TOTAL =        1.5 SECONDS (    0.0 MIN)
 WALL CLOCK TIME:   STEP =      0.01 ,  TOTAL =        2.0 SECONDS (    0.0 MIN)
 CPU UTILIZATION:   STEP =     73.63%,  TOTAL =      74.27%
 ...... END OF TWO-ELECTRON INTEGRALS .....

 CPU        TIME:   STEP =      0.00 ,  TOTAL =        1.5 SECONDS (    0.0 MIN)
 WALL CLOCK TIME:   STEP =      0.00 ,  TOTAL =        2.0 SECONDS (    0.0 MIN)
 CPU UTILIZATION:   STEP =      0.00%,  TOTAL =      74.22%

 DETERMINANT CI OPTIONS   NRNFG   NPFLG
 INTEGRAL TRANSFORMATION    1      -5
 DIAGONALIZE HAMILTONIAN    1      -5
 FORM 1E- DENSITY MATRIX    1      -5
 FORM 2E- DENSITY MATRIX    0      -5

 ---- SURFACE MAPPING GEOMETRY ----
 COORD 1=  -2.40000  COORD 2=   0.00000
 HAS ENERGY VALUES         -0.9351960324          -0.9321061018          -0.3600062780          -0.3558001693 
 H             0.0000000000          0.0000000000          0.0000000000
 H             0.0000000000          0.0000000000          2.6000000000
 ----------------------------------
 ...... END OF ONE-ELECTRON INTEGRALS ......

                         TIMING STATISTICS ON RANK 0:
 CPU        TIME:   STEP =      0.00 ,  TOTAL =        1.5 SECONDS (    0.0 MIN)
 WALL CLOCK TIME:   STEP =      0.01 ,  TOTAL =        2.0 SECONDS (    0.0 MIN)
 CPU UTILIZATION:   STEP =      0.00%,  TOTAL =      73.83%

 LOG10 OF CONDITION NUMBER OF OVERLAP MATRIX IS:  3.91630354E-02
 ...... END OF TWO-ELECTRON INTEGRALS .....

                         TIMING STATISTICS ON RANK 0:
 CPU        TIME:   STEP =      0.01 ,  TOTAL =        1.5 SECONDS (    0.0 MIN)
 WALL CLOCK TIME:   STEP =      0.01 ,  TOTAL =        2.0 SECONDS (    0.0 MIN)
 CPU UTILIZATION:   STEP =    142.27%,  TOTAL =      74.07%

 DIRECT SCF CALCULATION, SCHWRZ=T   FDIFF=F

                                                                                                              NONZERO    BLOCKS
 ITER EX DEM  TOTAL ENERGY      E CHANGE  DENSITY CHANGE    DIIS ERROR      VIR. SHIFT       DAMPING        INTEGRALS   SKIPPED
          * * *   INITIATING DIIS PROCEDURE   * * *
   1  0  0    -0.696974501    -0.696974501   0.000000000   0.000000000     0.000000000     1.000000000              6         0
   2  1  0    -0.696974501     0.000000000   0.000000000   0.000000000     0.000000000     1.000000000              6         0

          -----------------
          DENSITY CONVERGED
          -----------------
     TIME TO FORM FOCK OPERATORS =       0.01 SECONDS (       0.01 SEC/ITER)
     FOCK TIME ON FIRST ITERATION=       0.00, LAST ITERATION=       0.01
     TIME TO SOLVE SCF EQUATIONS =       0.00 SECONDS (       0.00 SEC/ITER)

 FINAL ENERGY IS       -0.6969745011 AFTER   2 ITERATIONS
 ...... END OF RHF CALCULATION ......

                         TIMING STATISTICS ON RANK 0:
 CPU        TIME:   STEP =      0.02 ,  TOTAL =        1.5 SECONDS (    0.0 MIN)
 WALL CLOCK TIME:   STEP =      0.01 ,  TOTAL =        2.0 SECONDS (    0.0 MIN)
 CPU UTILIZATION:   STEP =    151.35%,  TOTAL =      74.58%
 ...... END OF TWO-ELECTRON INTEGRALS .....

 CPU        TIME:   STEP =      0.00 ,  TOTAL =        1.5 SECONDS (    0.0 MIN)
 WALL CLOCK TIME:   STEP =      0.00 ,  TOTAL =        2.0 SECONDS (    0.0 MIN)
 CPU UTILIZATION:   STEP =      0.00%,  TOTAL =      74.53%

 DETERMINANT CI OPTIONS   NRNFG   NPFLG
 INTEGRAL TRANSFORMATION    1      -5
 DIAGONALIZE HAMILTONIAN    1      -5
 FORM 1E- DENSITY MATRIX    1      -5
 FORM 2E- DENSITY MATRIX    0      -5

 ---- SURFACE MAPPING GEOMETRY ----
 COORD 1=  -2.45000  COORD 2=   0.00000
 HAS ENERGY VALUES         -0.9355893666          -0.9318927667          -0.3635728788          -0.3585761638 
 H             0.0000000000          0.0000000000          0.0000000000
 H             0.0000000000          0.0000000000          2.5500000000
 ----------------------------------
 ...... END OF ONE-ELECTRON INTEGRALS ......

                         TIMING STATISTICS ON RANK 0:
 CPU        TIME:   STEP =      0.00 ,  TOTAL =        1.5 SECONDS (    0.0 MIN)
 WALL CLOCK TIME:   STEP =      0.01 ,  TOTAL =        2.0 SECONDS (    0.0 MIN)
 CPU UTILIZATION:   STEP =      0.00%,  TOTAL =      74.13%

 LOG10 OF CONDITION NUMBER OF OVERLAP MATRIX IS:  4.30464296E-02
 ...... END OF TWO-ELECTRON INTEGRALS .....

                         TIMING STATISTICS ON RANK 0:
 CPU        TIME:   STEP =      0.00 ,  TOTAL =        1.5 SECONDS (    0.0 MIN)
 WALL CLOCK TIME:   STEP =      0.01 ,  TOTAL =        2.0 SECONDS (    0.0 MIN)
 CPU UTILIZATION:   STEP =      0.00%,  TOTAL =      73.89%

 DIRECT SCF CALCULATION, SCHWRZ=T   FDIFF=F

                                                                                                              NONZERO    BLOCKS
 ITER EX DEM  TOTAL ENERGY      E CHANGE  DENSITY CHANGE    DIIS ERROR      VIR. SHIFT       DAMPING        INTEGRALS   SKIPPED
          * * *   INITIATING DIIS PROCEDURE   * * *
   1  0  0    -0.702943600    -0.702943600   0.000000000   0.000000000     0.000000000     1.000000000              6         0
   2  1  0    -0.702943600     0.000000000   0.000000000   0.000000000     0.000000000     1.000000000              6         0

          -----------------
          DENSITY CONVERGED
          -----------------
     TIME TO FORM FOCK OPERATORS =       0.00 SECONDS (       0.00 SEC/ITER)
     FOCK TIME ON FIRST ITERATION=       0.00, LAST ITERATION=       0.00
     TIME TO SOLVE SCF EQUATIONS =       0.00 SECONDS (       0.00 SEC/ITER)

 FINAL ENERGY IS       -0.7029436001 AFTER   2 ITERATIONS
 ...... END OF RHF CALCULATION ......

                         TIMING STATISTICS ON RANK 0:
 CPU        TIME:   STEP =      0.01 ,  TOTAL =        1.5 SECONDS (    0.0 MIN)
 WALL CLOCK TIME:   STEP =      0.02 ,  TOTAL =        2.1 SECONDS (    0.0 MIN)
 CPU UTILIZATION:   STEP =     60.60%,  TOTAL =      73.78%
 ...... END OF TWO-ELECTRON INTEGRALS .....

 CPU        TIME:   STEP =      0.01 ,  TOTAL =        1.5 SECONDS (    0.0 MIN)
 WALL CLOCK TIME:   STEP =      0.00 ,  TOTAL =        2.1 SECONDS (    0.0 MIN)
 CPU UTILIZATION:   STEP =    657.46%,  TOTAL =      74.21%

 DETERMINANT CI OPTIONS   NRNFG   NPFLG
 INTEGRAL TRANSFORMATION    1      -5
 DIAGONALIZE HAMILTONIAN    1      -5
 FORM 1E- DENSITY MATRIX    1      -5
 FORM 2E- DENSITY MATRIX    0      -5

 ---- SURFACE MAPPING GEOMETRY ----
 COORD 1=  -2.50000  COORD 2=   0.00000
 HAS ENERGY VALUES         -0.9360549215          -0.9316390885          -0.3672189963          -0.3612934836 
 H             0.0000000000          0.0000000000          0.0000000000
 H             0.0000000000          0.0000000000          2.5000000000
 ----------------------------------
 ...... END OF ONE-ELECTRON INTEGRALS ......

                         TIMING STATISTICS ON RANK 0:
 CPU        TIME:   STEP =      0.01 ,  TOTAL =        1.5 SECONDS (    0.0 MIN)
 WALL CLOCK TIME:   STEP =      0.02 ,  TOTAL =        2.1 SECONDS (    0.0 MIN)
 CPU UTILIZATION:   STEP =     66.35%,  TOTAL =      74.16%

 LOG10 OF CONDITION NUMBER OF OVERLAP MATRIX IS:  4.72593268E-02
 ...... END OF TWO-ELECTRON INTEGRALS .....

                         TIMING STATISTICS ON RANK 0:
 CPU        TIME:   STEP =      0.00 ,  TOTAL =        1.5 SECONDS (    0.0 MIN)
 WALL CLOCK TIME:   STEP =      0.01 ,  TOTAL =        2.1 SECONDS (    0.0 MIN)
 CPU UTILIZATION:   STEP =      0.00%,  TOTAL =      73.92%

 DIRECT SCF CALCULATION, SCHWRZ=T   FDIFF=F

                                                                                                              NONZERO    BLOCKS
 ITER EX DEM  TOTAL ENERGY      E CHANGE  DENSITY CHANGE    DIIS ERROR      VIR. SHIFT       DAMPING        INTEGRALS   SKIPPED
          * * *   INITIATING DIIS PROCEDURE   * * *
   1  0  0    -0.709250220    -0.709250220   0.000000000   0.000000000     0.000000000     1.000000000              6         0
   2  1  0    -0.709250220     0.000000000   0.000000000   0.000000000     0.000000000     1.000000000              6         0

          -----------------
          DENSITY CONVERGED
          -----------------
     TIME TO FORM FOCK OPERATORS =       0.00 SECONDS (       0.00 SEC/ITER)
     FOCK TIME ON FIRST ITERATION=       0.00, LAST ITERATION=       0.00
     TIME TO SOLVE SCF EQUATIONS =       0.00 SECONDS (       0.00 SEC/ITER)

 FINAL ENERGY IS       -0.7092502196 AFTER   2 ITERATIONS
 ...... END OF RHF CALCULATION ......

                         TIMING STATISTICS ON RANK 0:
 CPU        TIME:   STEP =      0.01 ,  TOTAL =        1.5 SECONDS (    0.0 MIN)
 WALL CLOCK TIME:   STEP =      0.01 ,  TOTAL =        2.1 SECONDS (    0.0 MIN)
 CPU UTILIZATION:   STEP =     73.89%,  TOTAL =      73.92%
 ...... END OF TWO-ELECTRON INTEGRALS .....

 CPU        TIME:   STEP =      0.00 ,  TOTAL =        1.5 SECONDS (    0.0 MIN)
 WALL CLOCK TIME:   STEP =      0.00 ,  TOTAL =        2.1 SECONDS (    0.0 MIN)
 CPU UTILIZATION:   STEP =      0.00%,  TOTAL =      73.88%

 DETERMINANT CI OPTIONS   NRNFG   NPFLG
 INTEGRAL TRANSFORMATION    1      -5
 DIAGONALIZE HAMILTONIAN    1      -5
 FORM 1E- DENSITY MATRIX    1      -5
 FORM 2E- DENSITY MATRIX    0      -5

 ---- SURFACE MAPPING GEOMETRY ----
 COORD 1=  -2.55000  COORD 2=   0.00000
 HAS ENERGY VALUES         -0.9366052579          -0.9313379098          -0.3709405255          -0.3639255342 
 H             0.0000000000          0.0000000000          0.0000000000
 H             0.0000000000          0.0000000000          2.4500000000
 ----------------------------------
 ...... END OF ONE-ELECTRON INTEGRALS ......

                         TIMING STATISTICS ON RANK 0:
 CPU        TIME:   STEP =      0.01 ,  TOTAL =        1.6 SECONDS (    0.0 MIN)
 WALL CLOCK TIME:   STEP =      0.01 ,  TOTAL =        2.1 SECONDS (    0.0 MIN)
 CPU UTILIZATION:   STEP =     92.06%,  TOTAL =      73.97%

 LOG10 OF CONDITION NUMBER OF OVERLAP MATRIX IS:  5.18238494E-02
 ...... END OF TWO-ELECTRON INTEGRALS .....

                         TIMING STATISTICS ON RANK 0:
 CPU        TIME:   STEP =      0.00 ,  TOTAL =        1.6 SECONDS (    0.0 MIN)
 WALL CLOCK TIME:   STEP =      0.01 ,  TOTAL =        2.1 SECONDS (    0.0 MIN)
 CPU UTILIZATION:   STEP =      0.00%,  TOTAL =      73.74%

 DIRECT SCF CALCULATION, SCHWRZ=T   FDIFF=F

                                                                                                              NONZERO    BLOCKS
 ITER EX DEM  TOTAL ENERGY      E CHANGE  DENSITY CHANGE    DIIS ERROR      VIR. SHIFT       DAMPING        INTEGRALS   SKIPPED
          * * *   INITIATING DIIS PROCEDURE   * * *
   1  0  0    -0.715910061    -0.715910061   0.000000000   0.000000000     0.000000000     1.000000000              6         0
   2  1  0    -0.715910061     0.000000000   0.000000000   0.000000000     0.000000000     1.000000000              6         0

          -----------------
          DENSITY CONVERGED
          -----------------
     TIME TO FORM FOCK OPERATORS =       0.00 SECONDS (       0.00 SEC/ITER)
     FOCK TIME ON FIRST ITERATION=       0.00, LAST ITERATION=       0.00
     TIME TO SOLVE SCF EQUATIONS =       0.00 SECONDS (       0.00 SEC/ITER)

 FINAL ENERGY IS       -0.7159100608 AFTER   2 ITERATIONS
 ...... END OF RHF CALCULATION ......

                         TIMING STATISTICS ON RANK 0:
 CPU        TIME:   STEP =      0.01 ,  TOTAL =        1.6 SECONDS (    0.0 MIN)
 WALL CLOCK TIME:   STEP =      0.01 ,  TOTAL =        2.1 SECONDS (    0.0 MIN)
 CPU UTILIZATION:   STEP =     73.40%,  TOTAL =      73.73%
 ...... END OF TWO-ELECTRON INTEGRALS .....

 CPU        TIME:   STEP =      0.00 ,  TOTAL =        1.6 SECONDS (    0.0 MIN)
 WALL CLOCK TIME:   STEP =      0.00 ,  TOTAL =        2.1 SECONDS (    0.0 MIN)
 CPU UTILIZATION:   STEP =      0.00%,  TOTAL =      73.65%

 DETERMINANT CI OPTIONS   NRNFG   NPFLG
 INTEGRAL TRANSFORMATION    1      -5
 DIAGONALIZE HAMILTONIAN    1      -5
 FORM 1E- DENSITY MATRIX    1      -5
 FORM 2E- DENSITY MATRIX    0      -5

 ---- SURFACE MAPPING GEOMETRY ----
 COORD 1=  -2.60000  COORD 2=   0.00000
 HAS ENERGY VALUES         -0.9372549545          -0.9309808739          -0.3747319874          -0.3664409376 
 H             0.0000000000          0.0000000000          0.0000000000
 H             0.0000000000          0.0000000000          2.4000000000
 ----------------------------------
 ...... END OF ONE-ELECTRON INTEGRALS ......

                         TIMING STATISTICS ON RANK 0:
 CPU        TIME:   STEP =      0.02 ,  TOTAL =        1.6 SECONDS (    0.0 MIN)
 WALL CLOCK TIME:   STEP =      0.01 ,  TOTAL =        2.1 SECONDS (    0.0 MIN)
 CPU UTILIZATION:   STEP =    193.50%,  TOTAL =      74.22%

 LOG10 OF CONDITION NUMBER OF OVERLAP MATRIX IS:  5.67631890E-02
 ...... END OF TWO-ELECTRON INTEGRALS .....

                         TIMING STATISTICS ON RANK 0:
 CPU        TIME:   STEP =      0.00 ,  TOTAL =        1.6 SECONDS (    0.0 MIN)
 WALL CLOCK TIME:   STEP =      0.01 ,  TOTAL =        2.1 SECONDS (    0.0 MIN)
 CPU UTILIZATION:   STEP =      0.00%,  TOTAL =      73.99%

 DIRECT SCF CALCULATION, SCHWRZ=T   FDIFF=F

                                                                                                              NONZERO    BLOCKS
 ITER EX DEM  TOTAL ENERGY      E CHANGE  DENSITY CHANGE    DIIS ERROR      VIR. SHIFT       DAMPING        INTEGRALS   SKIPPED
          * * *   INITIATING DIIS PROCEDURE   * * *
   1  0  0    -0.722939072    -0.722939072   0.000000000   0.000000000     0.000000000     1.000000000              6         0
   2  1  0    -0.722939072     0.000000000   0.000000000   0.000000000     0.000000000     1.000000000              6         0

          -----------------
          DENSITY CONVERGED
          -----------------
     TIME TO FORM FOCK OPERATORS =       0.00 SECONDS (       0.00 SEC/ITER)
     FOCK TIME ON FIRST ITERATION=       0.00, LAST ITERATION=       0.00
     TIME TO SOLVE SCF EQUATIONS =       0.01 SECONDS (       0.01 SEC/ITER)

 FINAL ENERGY IS       -0.7229390723 AFTER   2 ITERATIONS
 ...... END OF RHF CALCULATION ......

                         TIMING STATISTICS ON RANK 0:
 CPU        TIME:   STEP =      0.01 ,  TOTAL =        1.6 SECONDS (    0.0 MIN)
 WALL CLOCK TIME:   STEP =      0.01 ,  TOTAL =        2.2 SECONDS (    0.0 MIN)
 CPU UTILIZATION:   STEP =     73.01%,  TOTAL =      73.98%
 ...... END OF TWO-ELECTRON INTEGRALS .....

 CPU        TIME:   STEP =      0.00 ,  TOTAL =        1.6 SECONDS (    0.0 MIN)
 WALL CLOCK TIME:   STEP =      0.00 ,  TOTAL =        2.2 SECONDS (    0.0 MIN)
 CPU UTILIZATION:   STEP =      0.00%,  TOTAL =      73.93%

 DETERMINANT CI OPTIONS   NRNFG   NPFLG
 INTEGRAL TRANSFORMATION    1      -5
 DIAGONALIZE HAMILTONIAN    1      -5
 FORM 1E- DENSITY MATRIX    1      -5
 FORM 2E- DENSITY MATRIX    0      -5

 ---- SURFACE MAPPING GEOMETRY ----
 COORD 1=  -2.65000  COORD 2=   0.00000
 HAS ENERGY VALUES         -0.9380208662          -0.9305582347          -0.3785863021          -0.3688028519 
 H             0.0000000000          0.0000000000          0.0000000000
 H             0.0000000000          0.0000000000          2.3500000000
 ----------------------------------
 ...... END OF ONE-ELECTRON INTEGRALS ......

                         TIMING STATISTICS ON RANK 0:
 CPU        TIME:   STEP =      0.00 ,  TOTAL =        1.6 SECONDS (    0.0 MIN)
 WALL CLOCK TIME:   STEP =      0.01 ,  TOTAL =        2.2 SECONDS (    0.0 MIN)
 CPU UTILIZATION:   STEP =      0.00%,  TOTAL =      73.57%

 LOG10 OF CONDITION NUMBER OF OVERLAP MATRIX IS:  6.21016743E-02
 ...... END OF TWO-ELECTRON INTEGRALS .....

                         TIMING STATISTICS ON RANK 0:
 CPU        TIME:   STEP =      0.01 ,  TOTAL =        1.6 SECONDS (    0.0 MIN)
 WALL CLOCK TIME:   STEP =      0.01 ,  TOTAL =        2.2 SECONDS (    0.0 MIN)
 CPU UTILIZATION:   STEP =    135.78%,  TOTAL =      73.78%

 DIRECT SCF CALCULATION, SCHWRZ=T   FDIFF=F

                                                                                                              NONZERO    BLOCKS
 ITER EX DEM  TOTAL ENERGY      E CHANGE  DENSITY CHANGE    DIIS ERROR      VIR. SHIFT       DAMPING        INTEGRALS   SKIPPED
          * * *   INITIATING DIIS PROCEDURE   * * *
   1  0  0    -0.730353322    -0.730353322   0.000000000   0.000000000     0.000000000     1.000000000              6         0
   2  1  0    -0.730353322     0.000000000   0.000000000   0.000000000     0.000000000     1.000000000              6         0

          -----------------
          DENSITY CONVERGED
          -----------------
     TIME TO FORM FOCK OPERATORS =       0.00 SECONDS (       0.00 SEC/ITER)
     FOCK TIME ON FIRST ITERATION=       0.00, LAST ITERATION=       0.00
     TIME TO SOLVE SCF EQUATIONS =       0.00 SECONDS (       0.00 SEC/ITER)

 FINAL ENERGY IS       -0.7303533217 AFTER   2 ITERATIONS
 ...... END OF RHF CALCULATION ......

                         TIMING STATISTICS ON RANK 0:
 CPU        TIME:   STEP =      0.00 ,  TOTAL =        1.6 SECONDS (    0.0 MIN)
 WALL CLOCK TIME:   STEP =      0.01 ,  TOTAL =        2.2 SECONDS (    0.0 MIN)
 CPU UTILIZATION:   STEP =      0.00%,  TOTAL =      73.33%
 ...... END OF TWO-ELECTRON INTEGRALS .....

 CPU        TIME:   STEP =      0.01 ,  TOTAL =        1.6 SECONDS (    0.0 MIN)
 WALL CLOCK TIME:   STEP =      0.00 ,  TOTAL =        2.2 SECONDS (    0.0 MIN)
 CPU UTILIZATION:   STEP =    727.27%,  TOTAL =      73.73%

 DETERMINANT CI OPTIONS   NRNFG   NPFLG
 INTEGRAL TRANSFORMATION    1      -5
 DIAGONALIZE HAMILTONIAN    1      -5
 FORM 1E- DENSITY MATRIX    1      -5
 FORM 2E- DENSITY MATRIX    0      -5

 ---- SURFACE MAPPING GEOMETRY ----
 COORD 1=  -2.70000  COORD 2=   0.00000
 HAS ENERGY VALUES         -0.9389223875          -0.9300586403          -0.3824945319          -0.3709682282 
 H             0.0000000000          0.0000000000          0.0000000000
 H             0.0000000000          0.0000000000          2.3000000000
 ----------------------------------
 ...... END OF ONE-ELECTRON INTEGRALS ......

                         TIMING STATISTICS ON RANK 0:
 CPU        TIME:   STEP =      0.01 ,  TOTAL =        1.6 SECONDS (    0.0 MIN)
 WALL CLOCK TIME:   STEP =      0.01 ,  TOTAL =        2.2 SECONDS (    0.0 MIN)
 CPU UTILIZATION:   STEP =     89.15%,  TOTAL =      73.81%

 LOG10 OF CONDITION NUMBER OF OVERLAP MATRIX IS:  6.78648535E-02
 ...... END OF TWO-ELECTRON INTEGRALS .....

                         TIMING STATISTICS ON RANK 0:
 CPU        TIME:   STEP =      0.00 ,  TOTAL =        1.6 SECONDS (    0.0 MIN)
 WALL CLOCK TIME:   STEP =      0.01 ,  TOTAL =        2.2 SECONDS (    0.0 MIN)
 CPU UTILIZATION:   STEP =      0.00%,  TOTAL =      73.60%

 DIRECT SCF CALCULATION, SCHWRZ=T   FDIFF=F

                                                                                                              NONZERO    BLOCKS
 ITER EX DEM  TOTAL ENERGY      E CHANGE  DENSITY CHANGE    DIIS ERROR      VIR. SHIFT       DAMPING        INTEGRALS   SKIPPED
          * * *   INITIATING DIIS PROCEDURE   * * *
   1  0  0    -0.738168828    -0.738168828   0.000000000   0.000000000     0.000000000     1.000000000              6         0
   2  1  0    -0.738168828     0.000000000   0.000000000   0.000000000     0.000000000     1.000000000              6         0

          -----------------
          DENSITY CONVERGED
          -----------------
     TIME TO FORM FOCK OPERATORS =       0.00 SECONDS (       0.00 SEC/ITER)
     FOCK TIME ON FIRST ITERATION=       0.00, LAST ITERATION=       0.00
     TIME TO SOLVE SCF EQUATIONS =       0.01 SECONDS (       0.01 SEC/ITER)

 FINAL ENERGY IS       -0.7381688276 AFTER   2 ITERATIONS
 ...... END OF RHF CALCULATION ......

                         TIMING STATISTICS ON RANK 0:
 CPU        TIME:   STEP =      0.01 ,  TOTAL =        1.6 SECONDS (    0.0 MIN)
 WALL CLOCK TIME:   STEP =      0.01 ,  TOTAL =        2.2 SECONDS (    0.0 MIN)
 CPU UTILIZATION:   STEP =     73.24%,  TOTAL =      73.59%
 ...... END OF TWO-ELECTRON INTEGRALS .....

 CPU        TIME:   STEP =      0.00 ,  TOTAL =        1.6 SECONDS (    0.0 MIN)
 WALL CLOCK TIME:   STEP =      0.00 ,  TOTAL =        2.2 SECONDS (    0.0 MIN)
 CPU UTILIZATION:   STEP =      0.00%,  TOTAL =      73.55%

 DETERMINANT CI OPTIONS   NRNFG   NPFLG
 INTEGRAL TRANSFORMATION    1      -5
 DIAGONALIZE HAMILTONIAN    1      -5
 FORM 1E- DENSITY MATRIX    1      -5
 FORM 2E- DENSITY MATRIX    0      -5

 ---- SURFACE MAPPING GEOMETRY ----
 COORD 1=  -2.75000  COORD 2=   0.00000
 HAS ENERGY VALUES         -0.9399817067          -0.9294688866          -0.3864455922          -0.3728870135 
 H             0.0000000000          0.0000000000          0.0000000000
 H             0.0000000000          0.0000000000          2.2500000000
 ----------------------------------
 ...... END OF ONE-ELECTRON INTEGRALS ......

                         TIMING STATISTICS ON RANK 0:
 CPU        TIME:   STEP =      0.01 ,  TOTAL =        1.6 SECONDS (    0.0 MIN)
 WALL CLOCK TIME:   STEP =      0.01 ,  TOTAL =        2.2 SECONDS (    0.0 MIN)
 CPU UTILIZATION:   STEP =     73.87%,  TOTAL =      73.55%

 LOG10 OF CONDITION NUMBER OF OVERLAP MATRIX IS:  7.40795935E-02
 ...... END OF TWO-ELECTRON INTEGRALS .....

                         TIMING STATISTICS ON RANK 0:
 CPU        TIME:   STEP =      0.00 ,  TOTAL =        1.6 SECONDS (    0.0 MIN)
 WALL CLOCK TIME:   STEP =      0.01 ,  TOTAL =        2.3 SECONDS (    0.0 MIN)
 CPU UTILIZATION:   STEP =      0.00%,  TOTAL =      73.21%

 DIRECT SCF CALCULATION, SCHWRZ=T   FDIFF=F

                                                                                                              NONZERO    BLOCKS
 ITER EX DEM  TOTAL ENERGY      E CHANGE  DENSITY CHANGE    DIIS ERROR      VIR. SHIFT       DAMPING        INTEGRALS   SKIPPED
          * * *   INITIATING DIIS PROCEDURE   * * *
   1  0  0    -0.746401350    -0.746401350   0.000000000   0.000000000     0.000000000     1.000000000              6         0
   2  1  0    -0.746401350     0.000000000   0.000000000   0.000000000     0.000000000     1.000000000              6         0

          -----------------
          DENSITY CONVERGED
          -----------------
     TIME TO FORM FOCK OPERATORS =       0.00 SECONDS (       0.00 SEC/ITER)
     FOCK TIME ON FIRST ITERATION=       0.00, LAST ITERATION=       0.00
     TIME TO SOLVE SCF EQUATIONS =       0.00 SECONDS (       0.00 SEC/ITER)

 FINAL ENERGY IS       -0.7464013503 AFTER   2 ITERATIONS
 ...... END OF RHF CALCULATION ......

                         TIMING STATISTICS ON RANK 0:
 CPU        TIME:   STEP =      0.02 ,  TOTAL =        1.7 SECONDS (    0.0 MIN)
 WALL CLOCK TIME:   STEP =      0.02 ,  TOTAL =        2.3 SECONDS (    0.0 MIN)
 CPU UTILIZATION:   STEP =    131.91%,  TOTAL =      73.60%
 ...... END OF TWO-ELECTRON INTEGRALS .....

 CPU        TIME:   STEP =      0.00 ,  TOTAL =        1.7 SECONDS (    0.0 MIN)
 WALL CLOCK TIME:   STEP =      0.00 ,  TOTAL =        2.3 SECONDS (    0.0 MIN)
 CPU UTILIZATION:   STEP =      0.00%,  TOTAL =      73.55%

 DETERMINANT CI OPTIONS   NRNFG   NPFLG
 INTEGRAL TRANSFORMATION    1      -5
 DIAGONALIZE HAMILTONIAN    1      -5
 FORM 1E- DENSITY MATRIX    1      -5
 FORM 2E- DENSITY MATRIX    0      -5

 ---- SURFACE MAPPING GEOMETRY ----
 COORD 1=  -2.80000  COORD 2=   0.00000
 HAS ENERGY VALUES         -0.9412240351          -0.9287736369          -0.3904259249          -0.3745013079 
 H             0.0000000000          0.0000000000          0.0000000000
 H             0.0000000000          0.0000000000          2.2000000000
 ----------------------------------
 ...... END OF ONE-ELECTRON INTEGRALS ......

                         TIMING STATISTICS ON RANK 0:
 CPU        TIME:   STEP =      0.01 ,  TOTAL =        1.7 SECONDS (    0.0 MIN)
 WALL CLOCK TIME:   STEP =      0.01 ,  TOTAL =        2.3 SECONDS (    0.0 MIN)
 CPU UTILIZATION:   STEP =     92.92%,  TOTAL =      73.65%

 LOG10 OF CONDITION NUMBER OF OVERLAP MATRIX IS:  8.07741998E-02
 ...... END OF TWO-ELECTRON INTEGRALS .....

                         TIMING STATISTICS ON RANK 0:
 CPU        TIME:   STEP =      0.00 ,  TOTAL =        1.7 SECONDS (    0.0 MIN)
 WALL CLOCK TIME:   STEP =      0.01 ,  TOTAL =        2.3 SECONDS (    0.0 MIN)
 CPU UTILIZATION:   STEP =      0.00%,  TOTAL =      73.43%

 DIRECT SCF CALCULATION, SCHWRZ=T   FDIFF=F

                                                                                                              NONZERO    BLOCKS
 ITER EX DEM  TOTAL ENERGY      E CHANGE  DENSITY CHANGE    DIIS ERROR      VIR. SHIFT       DAMPING        INTEGRALS   SKIPPED
          * * *   INITIATING DIIS PROCEDURE   * * *
   1  0  0    -0.755066141    -0.755066141   0.000000000   0.000000000     0.000000000     1.000000000              6         0
   2  1  0    -0.755066141     0.000000000   0.000000000   0.000000000     0.000000000     1.000000000              6         0

          -----------------
          DENSITY CONVERGED
          -----------------
     TIME TO FORM FOCK OPERATORS =       0.01 SECONDS (       0.01 SEC/ITER)
     FOCK TIME ON FIRST ITERATION=       0.00, LAST ITERATION=       0.01
     TIME TO SOLVE SCF EQUATIONS =       0.00 SECONDS (       0.00 SEC/ITER)

 FINAL ENERGY IS       -0.7550661412 AFTER   2 ITERATIONS
 ...... END OF RHF CALCULATION ......

                         TIMING STATISTICS ON RANK 0:
 CPU        TIME:   STEP =      0.01 ,  TOTAL =        1.7 SECONDS (    0.0 MIN)
 WALL CLOCK TIME:   STEP =      0.01 ,  TOTAL =        2.3 SECONDS (    0.0 MIN)
 CPU UTILIZATION:   STEP =     75.86%,  TOTAL =      73.44%
 ...... END OF TWO-ELECTRON INTEGRALS .....

 CPU        TIME:   STEP =      0.00 ,  TOTAL =        1.7 SECONDS (    0.0 MIN)
 WALL CLOCK TIME:   STEP =      0.00 ,  TOTAL =        2.3 SECONDS (    0.0 MIN)
 CPU UTILIZATION:   STEP =      0.00%,  TOTAL =      73.40%

 DETERMINANT CI OPTIONS   NRNFG   NPFLG
 INTEGRAL TRANSFORMATION    1      -5
 DIAGONALIZE HAMILTONIAN    1      -5
 FORM 1E- DENSITY MATRIX    1      -5
 FORM 2E- DENSITY MATRIX    0      -5

 ---- SURFACE MAPPING GEOMETRY ----
 COORD 1=  -2.85000  COORD 2=   0.00000
 HAS ENERGY VALUES         -0.9426777871          -0.9279551044          -0.3944191319          -0.3757444944 
 H             0.0000000000          0.0000000000          0.0000000000
 H             0.0000000000          0.0000000000          2.1500000000
 ----------------------------------
 ...... END OF ONE-ELECTRON INTEGRALS ......

                         TIMING STATISTICS ON RANK 0:
 CPU        TIME:   STEP =      0.00 ,  TOTAL =        1.7 SECONDS (    0.0 MIN)
 WALL CLOCK TIME:   STEP =      0.01 ,  TOTAL =        2.3 SECONDS (    0.0 MIN)
 CPU UTILIZATION:   STEP =      0.00%,  TOTAL =      73.05%

 LOG10 OF CONDITION NUMBER OF OVERLAP MATRIX IS:  8.79785562E-02
 ...... END OF TWO-ELECTRON INTEGRALS .....

                         TIMING STATISTICS ON RANK 0:
 CPU        TIME:   STEP =      0.01 ,  TOTAL =        1.7 SECONDS (    0.0 MIN)
 WALL CLOCK TIME:   STEP =      0.01 ,  TOTAL =        2.3 SECONDS (    0.0 MIN)
 CPU UTILIZATION:   STEP =    146.13%,  TOTAL =      73.27%

 DIRECT SCF CALCULATION, SCHWRZ=T   FDIFF=F

                                                                                                              NONZERO    BLOCKS
 ITER EX DEM  TOTAL ENERGY      E CHANGE  DENSITY CHANGE    DIIS ERROR      VIR. SHIFT       DAMPING        INTEGRALS   SKIPPED
          * * *   INITIATING DIIS PROCEDURE   * * *
   1  0  0    -0.764177652    -0.764177652   0.000000000   0.000000000     0.000000000     1.000000000              6         0
   2  1  0    -0.764177652     0.000000000   0.000000000   0.000000000     0.000000000     1.000000000              6         0

          -----------------
          DENSITY CONVERGED
          -----------------
     TIME TO FORM FOCK OPERATORS =       0.01 SECONDS (       0.01 SEC/ITER)
     FOCK TIME ON FIRST ITERATION=       0.01, LAST ITERATION=       0.00
     TIME TO SOLVE SCF EQUATIONS =       0.00 SECONDS (       0.00 SEC/ITER)

 FINAL ENERGY IS       -0.7641776520 AFTER   2 ITERATIONS
 ...... END OF RHF CALCULATION ......

                         TIMING STATISTICS ON RANK 0:
 CPU        TIME:   STEP =      0.01 ,  TOTAL =        1.7 SECONDS (    0.0 MIN)
 WALL CLOCK TIME:   STEP =      0.01 ,  TOTAL =        2.3 SECONDS (    0.0 MIN)
 CPU UTILIZATION:   STEP =     73.36%,  TOTAL =      73.27%
 ...... END OF TWO-ELECTRON INTEGRALS .....

 CPU        TIME:   STEP =      0.00 ,  TOTAL =        1.7 SECONDS (    0.0 MIN)
 WALL CLOCK TIME:   STEP =      0.00 ,  TOTAL =        2.3 SECONDS (    0.0 MIN)
 CPU UTILIZATION:   STEP =      0.00%,  TOTAL =      73.23%

 DETERMINANT CI OPTIONS   NRNFG   NPFLG
 INTEGRAL TRANSFORMATION    1      -5
 DIAGONALIZE HAMILTONIAN    1      -5
 FORM 1E- DENSITY MATRIX    1      -5
 FORM 2E- DENSITY MATRIX    0      -5

 ---- SURFACE MAPPING GEOMETRY ----
 COORD 1=  -2.90000  COORD 2=   0.00000
 HAS ENERGY VALUES         -0.9443746825          -0.9269926939          -0.3984055618          -0.3765403593 
 H             0.0000000000          0.0000000000          0.0000000000
 H             0.0000000000          0.0000000000          2.1000000000
 ----------------------------------
 ...... END OF ONE-ELECTRON INTEGRALS ......

                         TIMING STATISTICS ON RANK 0:
 CPU        TIME:   STEP =      0.01 ,  TOTAL =        1.7 SECONDS (    0.0 MIN)
 WALL CLOCK TIME:   STEP =      0.01 ,  TOTAL =        2.3 SECONDS (    0.0 MIN)
 CPU UTILIZATION:   STEP =     90.93%,  TOTAL =      73.31%

 LOG10 OF CONDITION NUMBER OF OVERLAP MATRIX IS:  9.57242894E-02
 ...... END OF TWO-ELECTRON INTEGRALS .....

                         TIMING STATISTICS ON RANK 0:
 CPU        TIME:   STEP =      0.00 ,  TOTAL =        1.7 SECONDS (    0.0 MIN)
 WALL CLOCK TIME:   STEP =      0.01 ,  TOTAL =        2.4 SECONDS (    0.0 MIN)
 CPU UTILIZATION:   STEP =      0.00%,  TOTAL =      73.11%

 DIRECT SCF CALCULATION, SCHWRZ=T   FDIFF=F

                                                                                                              NONZERO    BLOCKS
 ITER EX DEM  TOTAL ENERGY      E CHANGE  DENSITY CHANGE    DIIS ERROR      VIR. SHIFT       DAMPING        INTEGRALS   SKIPPED
          * * *   INITIATING DIIS PROCEDURE   * * *
   1  0  0    -0.773749209    -0.773749209   0.000000000   0.000000000     0.000000000     1.000000000              6         0
   2  1  0    -0.773749209     0.000000000   0.000000000   0.000000000     0.000000000     1.000000000              6         0

          -----------------
          DENSITY CONVERGED
          -----------------
     TIME TO FORM FOCK OPERATORS =       0.01 SECONDS (       0.01 SEC/ITER)
     FOCK TIME ON FIRST ITERATION=       0.00, LAST ITERATION=       0.01
     TIME TO SOLVE SCF EQUATIONS =       0.00 SECONDS (       0.00 SEC/ITER)

 FINAL ENERGY IS       -0.7737492088 AFTER   2 ITERATIONS
 ...... END OF RHF CALCULATION ......

                         TIMING STATISTICS ON RANK 0:
 CPU        TIME:   STEP =      0.01 ,  TOTAL =        1.7 SECONDS (    0.0 MIN)
 WALL CLOCK TIME:   STEP =      0.01 ,  TOTAL =        2.4 SECONDS (    0.0 MIN)
 CPU UTILIZATION:   STEP =     75.57%,  TOTAL =      73.12%
 ...... END OF TWO-ELECTRON INTEGRALS .....

 CPU        TIME:   STEP =      0.00 ,  TOTAL =        1.7 SECONDS (    0.0 MIN)
 WALL CLOCK TIME:   STEP =      0.00 ,  TOTAL =        2.4 SECONDS (    0.0 MIN)
 CPU UTILIZATION:   STEP =      0.00%,  TOTAL =      73.08%

 DETERMINANT CI OPTIONS   NRNFG   NPFLG
 INTEGRAL TRANSFORMATION    1      -5
 DIAGONALIZE HAMILTONIAN    1      -5
 FORM 1E- DENSITY MATRIX    1      -5
 FORM 2E- DENSITY MATRIX    0      -5

 ---- SURFACE MAPPING GEOMETRY ----
 COORD 1=  -2.95000  COORD 2=   0.00000
 HAS ENERGY VALUES         -0.9463497387          -0.9258625947          -0.4023618452          -0.3768022312 
 H             0.0000000000          0.0000000000          0.0000000000
 H             0.0000000000          0.0000000000          2.0500000000
 ----------------------------------
 ...... END OF ONE-ELECTRON INTEGRALS ......

                         TIMING STATISTICS ON RANK 0:
 CPU        TIME:   STEP =      0.01 ,  TOTAL =        1.7 SECONDS (    0.0 MIN)
 WALL CLOCK TIME:   STEP =      0.01 ,  TOTAL =        2.4 SECONDS (    0.0 MIN)
 CPU UTILIZATION:   STEP =     82.26%,  TOTAL =      73.12%

 LOG10 OF CONDITION NUMBER OF OVERLAP MATRIX IS:  1.04044957E-01
 ...... END OF TWO-ELECTRON INTEGRALS .....

                         TIMING STATISTICS ON RANK 0:
 CPU        TIME:   STEP =      0.01 ,  TOTAL =        1.8 SECONDS (    0.0 MIN)
 WALL CLOCK TIME:   STEP =      0.01 ,  TOTAL =        2.4 SECONDS (    0.0 MIN)
 CPU UTILIZATION:   STEP =    116.06%,  TOTAL =      73.28%

 DIRECT SCF CALCULATION, SCHWRZ=T   FDIFF=F

                                                                                                              NONZERO    BLOCKS
 ITER EX DEM  TOTAL ENERGY      E CHANGE  DENSITY CHANGE    DIIS ERROR      VIR. SHIFT       DAMPING        INTEGRALS   SKIPPED
          * * *   INITIATING DIIS PROCEDURE   * * *
   1  0  0    -0.783792655    -0.783792655   0.000000000   0.000000000     0.000000000     1.000000000              6         0
   2  1  0    -0.783792655     0.000000000   0.000000000   0.000000000     0.000000000     1.000000000              6         0

          -----------------
          DENSITY CONVERGED
          -----------------
     TIME TO FORM FOCK OPERATORS =       0.01 SECONDS (       0.01 SEC/ITER)
     FOCK TIME ON FIRST ITERATION=       0.00, LAST ITERATION=       0.01
     TIME TO SOLVE SCF EQUATIONS =       0.00 SECONDS (       0.00 SEC/ITER)

 FINAL ENERGY IS       -0.7837926547 AFTER   2 ITERATIONS
 ...... END OF RHF CALCULATION ......

                         TIMING STATISTICS ON RANK 0:
 CPU        TIME:   STEP =      0.01 ,  TOTAL =        1.8 SECONDS (    0.0 MIN)
 WALL CLOCK TIME:   STEP =      0.01 ,  TOTAL =        2.4 SECONDS (    0.0 MIN)
 CPU UTILIZATION:   STEP =     69.67%,  TOTAL =      73.26%
 ...... END OF TWO-ELECTRON INTEGRALS .....

 CPU        TIME:   STEP =      0.00 ,  TOTAL =        1.8 SECONDS (    0.0 MIN)
 WALL CLOCK TIME:   STEP =      0.00 ,  TOTAL =        2.4 SECONDS (    0.0 MIN)
 CPU UTILIZATION:   STEP =      0.00%,  TOTAL =      73.21%

 DETERMINANT CI OPTIONS   NRNFG   NPFLG
 INTEGRAL TRANSFORMATION    1      -5
 DIAGONALIZE HAMILTONIAN    1      -5
 FORM 1E- DENSITY MATRIX    1      -5
 FORM 2E- DENSITY MATRIX    0      -5

 ---- SURFACE MAPPING GEOMETRY ----
 COORD 1=  -3.00000  COORD 2=   0.00000
 HAS ENERGY VALUES         -0.9486411135          -0.9245373212          -0.4062603715          -0.3764321637 
 H             0.0000000000          0.0000000000          0.0000000000
 H             0.0000000000          0.0000000000          2.0000000000
 ----------------------------------
 ...... END OF ONE-ELECTRON INTEGRALS ......

                         TIMING STATISTICS ON RANK 0:
 CPU        TIME:   STEP =      0.01 ,  TOTAL =        1.8 SECONDS (    0.0 MIN)
 WALL CLOCK TIME:   STEP =      0.01 ,  TOTAL =        2.4 SECONDS (    0.0 MIN)
 CPU UTILIZATION:   STEP =     70.07%,  TOTAL =      73.19%

 LOG10 OF CONDITION NUMBER OF OVERLAP MATRIX IS:  1.12976260E-01
 ...... END OF TWO-ELECTRON INTEGRALS .....

                         TIMING STATISTICS ON RANK 0:
 CPU        TIME:   STEP =      0.00 ,  TOTAL =        1.8 SECONDS (    0.0 MIN)
 WALL CLOCK TIME:   STEP =      0.01 ,  TOTAL =        2.4 SECONDS (    0.0 MIN)
 CPU UTILIZATION:   STEP =      0.00%,  TOTAL =      72.98%

 DIRECT SCF CALCULATION, SCHWRZ=T   FDIFF=F

                                                                                                              NONZERO    BLOCKS
 ITER EX DEM  TOTAL ENERGY      E CHANGE  DENSITY CHANGE    DIIS ERROR      VIR. SHIFT       DAMPING        INTEGRALS   SKIPPED
          * * *   INITIATING DIIS PROCEDURE   * * *
   1  0  0    -0.794317966    -0.794317966   0.000000000   0.000000000     0.000000000     1.000000000              6         0
   2  1  0    -0.794317966     0.000000000   0.000000000   0.000000000     0.000000000     1.000000000              6         0

          -----------------
          DENSITY CONVERGED
          -----------------
     TIME TO FORM FOCK OPERATORS =       0.00 SECONDS (       0.00 SEC/ITER)
     FOCK TIME ON FIRST ITERATION=       0.00, LAST ITERATION=       0.00
     TIME TO SOLVE SCF EQUATIONS =       0.01 SECONDS (       0.01 SEC/ITER)

 FINAL ENERGY IS       -0.7943179659 AFTER   2 ITERATIONS
 ...... END OF RHF CALCULATION ......

                         TIMING STATISTICS ON RANK 0:
 CPU        TIME:   STEP =      0.01 ,  TOTAL =        1.8 SECONDS (    0.0 MIN)
 WALL CLOCK TIME:   STEP =      0.01 ,  TOTAL =        2.4 SECONDS (    0.0 MIN)
 CPU UTILIZATION:   STEP =     66.82%,  TOTAL =      72.94%
 ...... END OF TWO-ELECTRON INTEGRALS .....

 CPU        TIME:   STEP =      0.01 ,  TOTAL =        1.8 SECONDS (    0.0 MIN)
 WALL CLOCK TIME:   STEP =      0.00 ,  TOTAL =        2.4 SECONDS (    0.0 MIN)
 CPU UTILIZATION:   STEP =    721.50%,  TOTAL =      73.31%

 DETERMINANT CI OPTIONS   NRNFG   NPFLG
 INTEGRAL TRANSFORMATION    1      -5
 DIAGONALIZE HAMILTONIAN    1      -5
 FORM 1E- DENSITY MATRIX    1      -5
 FORM 2E- DENSITY MATRIX    0      -5

 ---- SURFACE MAPPING GEOMETRY ----
 COORD 1=  -3.05000  COORD 2=   0.00000
 HAS ENERGY VALUES         -0.9512897601          -0.9229851912          -0.4100686973          -0.3753201914 
 H             0.0000000000          0.0000000000          0.0000000000
 H             0.0000000000          0.0000000000          1.9500000000
 ----------------------------------
 ...... END OF ONE-ELECTRON INTEGRALS ......

                         TIMING STATISTICS ON RANK 0:
 CPU        TIME:   STEP =      0.00 ,  TOTAL =        1.8 SECONDS (    0.0 MIN)
 WALL CLOCK TIME:   STEP =      0.01 ,  TOTAL =        2.5 SECONDS (    0.0 MIN)
 CPU UTILIZATION:   STEP =      0.00%,  TOTAL =      72.96%

 LOG10 OF CONDITION NUMBER OF OVERLAP MATRIX IS:  1.22556287E-01
 ...... END OF TWO-ELECTRON INTEGRALS .....

                         TIMING STATISTICS ON RANK 0:
 CPU        TIME:   STEP =      0.01 ,  TOTAL =        1.8 SECONDS (    0.0 MIN)
 WALL CLOCK TIME:   STEP =      0.01 ,  TOTAL =        2.5 SECONDS (    0.0 MIN)
 CPU UTILIZATION:   STEP =    137.51%,  TOTAL =      73.15%

 DIRECT SCF CALCULATION, SCHWRZ=T   FDIFF=F

                                                                                                              NONZERO    BLOCKS
 ITER EX DEM  TOTAL ENERGY      E CHANGE  DENSITY CHANGE    DIIS ERROR      VIR. SHIFT       DAMPING        INTEGRALS   SKIPPED
          * * *   INITIATING DIIS PROCEDURE   * * *
   1  0  0    -0.805332845    -0.805332845   0.000000000   0.000000000     0.000000000     1.000000000              6         0
   2  1  0    -0.805332845     0.000000000   0.000000000   0.000000000     0.000000000     1.000000000              6         0

          -----------------
          DENSITY CONVERGED
          -----------------
     TIME TO FORM FOCK OPERATORS =       0.00 SECONDS (       0.00 SEC/ITER)
     FOCK TIME ON FIRST ITERATION=       0.00, LAST ITERATION=       0.00
     TIME TO SOLVE SCF EQUATIONS =       0.00 SECONDS (       0.00 SEC/ITER)

 FINAL ENERGY IS       -0.8053328453 AFTER   2 ITERATIONS
 ...... END OF RHF CALCULATION ......

                         TIMING STATISTICS ON RANK 0:
 CPU        TIME:   STEP =      0.00 ,  TOTAL =        1.8 SECONDS (    0.0 MIN)
 WALL CLOCK TIME:   STEP =      0.01 ,  TOTAL =        2.5 SECONDS (    0.0 MIN)
 CPU UTILIZATION:   STEP =      0.00%,  TOTAL =      72.73%
 ...... END OF TWO-ELECTRON INTEGRALS .....

 CPU        TIME:   STEP =      0.00 ,  TOTAL =        1.8 SECONDS (    0.0 MIN)
 WALL CLOCK TIME:   STEP =      0.00 ,  TOTAL =        2.5 SECONDS (    0.0 MIN)
 CPU UTILIZATION:   STEP =      0.00%,  TOTAL =      72.69%

 DETERMINANT CI OPTIONS   NRNFG   NPFLG
 INTEGRAL TRANSFORMATION    1      -5
 DIAGONALIZE HAMILTONIAN    1      -5
 FORM 1E- DENSITY MATRIX    1      -5
 FORM 2E- DENSITY MATRIX    0      -5

 ---- SURFACE MAPPING GEOMETRY ----
 COORD 1=  -3.10000  COORD 2=   0.00000
 HAS ENERGY VALUES         -0.9543388552          -0.9211697354          -0.4137488800          -0.3733436849 
 H             0.0000000000          0.0000000000          0.0000000000
 H             0.0000000000          0.0000000000          1.9000000000
 ----------------------------------
 ...... END OF ONE-ELECTRON INTEGRALS ......

                         TIMING STATISTICS ON RANK 0:
 CPU        TIME:   STEP =      0.01 ,  TOTAL =        1.8 SECONDS (    0.0 MIN)
 WALL CLOCK TIME:   STEP =      0.01 ,  TOTAL =        2.5 SECONDS (    0.0 MIN)
 CPU UTILIZATION:   STEP =     89.87%,  TOTAL =      72.77%

 LOG10 OF CONDITION NUMBER OF OVERLAP MATRIX IS:  1.32825782E-01
 ...... END OF TWO-ELECTRON INTEGRALS .....

                         TIMING STATISTICS ON RANK 0:
 CPU        TIME:   STEP =      0.01 ,  TOTAL =        1.8 SECONDS (    0.0 MIN)
 WALL CLOCK TIME:   STEP =      0.01 ,  TOTAL =        2.5 SECONDS (    0.0 MIN)
 CPU UTILIZATION:   STEP =    102.80%,  TOTAL =      72.89%

 DIRECT SCF CALCULATION, SCHWRZ=T   FDIFF=F

                                                                                                              NONZERO    BLOCKS
 ITER EX DEM  TOTAL ENERGY      E CHANGE  DENSITY CHANGE    DIIS ERROR      VIR. SHIFT       DAMPING        INTEGRALS   SKIPPED
          * * *   INITIATING DIIS PROCEDURE   * * *
   1  0  0    -0.816842293    -0.816842293   0.000000000   0.000000000     0.000000000     1.000000000              6         0
   2  1  0    -0.816842293     0.000000000   0.000000000   0.000000000     0.000000000     1.000000000              6         0

          -----------------
          DENSITY CONVERGED
          -----------------
     TIME TO FORM FOCK OPERATORS =       0.00 SECONDS (       0.00 SEC/ITER)
     FOCK TIME ON FIRST ITERATION=       0.00, LAST ITERATION=       0.00
     TIME TO SOLVE SCF EQUATIONS =       0.01 SECONDS (       0.01 SEC/ITER)

 FINAL ENERGY IS       -0.8168422927 AFTER   2 ITERATIONS
 ...... END OF RHF CALCULATION ......

                         TIMING STATISTICS ON RANK 0:
 CPU        TIME:   STEP =      0.01 ,  TOTAL =        1.8 SECONDS (    0.0 MIN)
 WALL CLOCK TIME:   STEP =      0.02 ,  TOTAL =        2.5 SECONDS (    0.0 MIN)
 CPU UTILIZATION:   STEP =     61.76%,  TOTAL =      72.81%
 ...... END OF TWO-ELECTRON INTEGRALS .....

 CPU        TIME:   STEP =      0.00 ,  TOTAL =        1.8 SECONDS (    0.0 MIN)
 WALL CLOCK TIME:   STEP =      0.00 ,  TOTAL =        2.5 SECONDS (    0.0 MIN)
 CPU UTILIZATION:   STEP =      0.00%,  TOTAL =      72.77%

 DETERMINANT CI OPTIONS   NRNFG   NPFLG
 INTEGRAL TRANSFORMATION    1      -5
 DIAGONALIZE HAMILTONIAN    1      -5
 FORM 1E- DENSITY MATRIX    1      -5
 FORM 2E- DENSITY MATRIX    0      -5

 ---- SURFACE MAPPING GEOMETRY ----
 COORD 1=  -3.15000  COORD 2=   0.00000
 HAS ENERGY VALUES         -0.9578329691          -0.9190490248          -0.4172567225          -0.3703668216 
 H             0.0000000000          0.0000000000          0.0000000000
 H             0.0000000000          0.0000000000          1.8500000000
 ----------------------------------
 ...... END OF ONE-ELECTRON INTEGRALS ......

                         TIMING STATISTICS ON RANK 0:
 CPU        TIME:   STEP =      0.00 ,  TOTAL =        1.8 SECONDS (    0.0 MIN)
 WALL CLOCK TIME:   STEP =      0.01 ,  TOTAL =        2.5 SECONDS (    0.0 MIN)
 CPU UTILIZATION:   STEP =      0.00%,  TOTAL =      72.46%

 LOG10 OF CONDITION NUMBER OF OVERLAP MATRIX IS:  1.43828441E-01
 ...... END OF TWO-ELECTRON INTEGRALS .....

                         TIMING STATISTICS ON RANK 0:
 CPU        TIME:   STEP =      0.01 ,  TOTAL =        1.8 SECONDS (    0.0 MIN)
 WALL CLOCK TIME:   STEP =      0.01 ,  TOTAL =        2.5 SECONDS (    0.0 MIN)
 CPU UTILIZATION:   STEP =    147.86%,  TOTAL =      72.66%

 DIRECT SCF CALCULATION, SCHWRZ=T   FDIFF=F

                                                                                                              NONZERO    BLOCKS
 ITER EX DEM  TOTAL ENERGY      E CHANGE  DENSITY CHANGE    DIIS ERROR      VIR. SHIFT       DAMPING        INTEGRALS   SKIPPED
          * * *   INITIATING DIIS PROCEDURE   * * *
   1  0  0    -0.828848148    -0.828848148   0.000000000   0.000000000     0.000000000     1.000000000              6         0
   2  1  0    -0.828848148     0.000000000   0.000000000   0.000000000     0.000000000     1.000000000              6         0

          -----------------
          DENSITY CONVERGED
          -----------------
     TIME TO FORM FOCK OPERATORS =       0.01 SECONDS (       0.01 SEC/ITER)
     FOCK TIME ON FIRST ITERATION=       0.00, LAST ITERATION=       0.01
     TIME TO SOLVE SCF EQUATIONS =       0.00 SECONDS (       0.00 SEC/ITER)

 FINAL ENERGY IS       -0.8288481484 AFTER   2 ITERATIONS
 ...... END OF RHF CALCULATION ......

                         TIMING STATISTICS ON RANK 0:
 CPU        TIME:   STEP =      0.01 ,  TOTAL =        1.8 SECONDS (    0.0 MIN)
 WALL CLOCK TIME:   STEP =      0.01 ,  TOTAL =        2.5 SECONDS (    0.0 MIN)
 CPU UTILIZATION:   STEP =     74.09%,  TOTAL =      72.67%
 ...... END OF TWO-ELECTRON INTEGRALS .....

 CPU        TIME:   STEP =      0.00 ,  TOTAL =        1.8 SECONDS (    0.0 MIN)
 WALL CLOCK TIME:   STEP =      0.00 ,  TOTAL =        2.5 SECONDS (    0.0 MIN)
 CPU UTILIZATION:   STEP =      0.00%,  TOTAL =      72.63%

 DETERMINANT CI OPTIONS   NRNFG   NPFLG
 INTEGRAL TRANSFORMATION    1      -5
 DIAGONALIZE HAMILTONIAN    1      -5
 FORM 1E- DENSITY MATRIX    1      -5
 FORM 2E- DENSITY MATRIX    0      -5

 ---- SURFACE MAPPING GEOMETRY ----
 COORD 1=  -3.20000  COORD 2=   0.00000
 HAS ENERGY VALUES         -0.9618169540          -0.9165749086          -0.4205409220          -0.3662401802 
 H             0.0000000000          0.0000000000          0.0000000000
 H             0.0000000000          0.0000000000          1.8000000000
 ----------------------------------
 ...... END OF ONE-ELECTRON INTEGRALS ......

                         TIMING STATISTICS ON RANK 0:
 CPU        TIME:   STEP =      0.01 ,  TOTAL =        1.9 SECONDS (    0.0 MIN)
 WALL CLOCK TIME:   STEP =      0.01 ,  TOTAL =        2.6 SECONDS (    0.0 MIN)
 CPU UTILIZATION:   STEP =     93.01%,  TOTAL =      72.72%

 LOG10 OF CONDITION NUMBER OF OVERLAP MATRIX IS:  1.55611235E-01
 ...... END OF TWO-ELECTRON INTEGRALS .....

                         TIMING STATISTICS ON RANK 0:
 CPU        TIME:   STEP =      0.00 ,  TOTAL =        1.9 SECONDS (    0.0 MIN)
 WALL CLOCK TIME:   STEP =      0.01 ,  TOTAL =        2.6 SECONDS (    0.0 MIN)
 CPU UTILIZATION:   STEP =      0.00%,  TOTAL =      72.52%

 DIRECT SCF CALCULATION, SCHWRZ=T   FDIFF=F

                                                                                                              NONZERO    BLOCKS
 ITER EX DEM  TOTAL ENERGY      E CHANGE  DENSITY CHANGE    DIIS ERROR      VIR. SHIFT       DAMPING        INTEGRALS   SKIPPED
          * * *   INITIATING DIIS PROCEDURE   * * *
   1  0  0    -0.841348599    -0.841348599   0.000000000   0.000000000     0.000000000     1.000000000              6         0
   2  1  0    -0.841348599     0.000000000   0.000000000   0.000000000     0.000000000     1.000000000              6         0

          -----------------
          DENSITY CONVERGED
          -----------------
     TIME TO FORM FOCK OPERATORS =       0.00 SECONDS (       0.00 SEC/ITER)
     FOCK TIME ON FIRST ITERATION=       0.00, LAST ITERATION=       0.00
     TIME TO SOLVE SCF EQUATIONS =       0.00 SECONDS (       0.00 SEC/ITER)

 FINAL ENERGY IS       -0.8413485990 AFTER   2 ITERATIONS
 ...... END OF RHF CALCULATION ......

                         TIMING STATISTICS ON RANK 0:
 CPU        TIME:   STEP =      0.01 ,  TOTAL =        1.9 SECONDS (    0.0 MIN)
 WALL CLOCK TIME:   STEP =      0.01 ,  TOTAL =        2.6 SECONDS (    0.0 MIN)
 CPU UTILIZATION:   STEP =     73.28%,  TOTAL =      72.53%
 ...... END OF TWO-ELECTRON INTEGRALS .....

 CPU        TIME:   STEP =      0.00 ,  TOTAL =        1.9 SECONDS (    0.0 MIN)
 WALL CLOCK TIME:   STEP =      0.00 ,  TOTAL =        2.6 SECONDS (    0.0 MIN)
 CPU UTILIZATION:   STEP =      0.00%,  TOTAL =      72.49%

 DETERMINANT CI OPTIONS   NRNFG   NPFLG
 INTEGRAL TRANSFORMATION    1      -5
 DIAGONALIZE HAMILTONIAN    1      -5
 FORM 1E- DENSITY MATRIX    1      -5
 FORM 2E- DENSITY MATRIX    0      -5

 ---- SURFACE MAPPING GEOMETRY ----
 COORD 1=  -3.25000  COORD 2=   0.00000
 HAS ENERGY VALUES         -0.9663345461          -0.9136921478          -0.4235421073          -0.3608004491 
 H             0.0000000000          0.0000000000          0.0000000000
 H             0.0000000000          0.0000000000          1.7500000000
 ----------------------------------
 ...... END OF ONE-ELECTRON INTEGRALS ......

                         TIMING STATISTICS ON RANK 0:
 CPU        TIME:   STEP =      0.01 ,  TOTAL =        1.9 SECONDS (    0.0 MIN)
 WALL CLOCK TIME:   STEP =      0.01 ,  TOTAL =        2.6 SECONDS (    0.0 MIN)
 CPU UTILIZATION:   STEP =     68.30%,  TOTAL =      72.47%

 LOG10 OF CONDITION NUMBER OF OVERLAP MATRIX IS:  1.68224769E-01
 ...... END OF TWO-ELECTRON INTEGRALS .....

                         TIMING STATISTICS ON RANK 0:
 CPU        TIME:   STEP =      0.01 ,  TOTAL =        1.9 SECONDS (    0.0 MIN)
 WALL CLOCK TIME:   STEP =      0.01 ,  TOTAL =        2.6 SECONDS (    0.0 MIN)
 CPU UTILIZATION:   STEP =     94.22%,  TOTAL =      72.55%

 DIRECT SCF CALCULATION, SCHWRZ=T   FDIFF=F

                                                                                                              NONZERO    BLOCKS
 ITER EX DEM  TOTAL ENERGY      E CHANGE  DENSITY CHANGE    DIIS ERROR      VIR. SHIFT       DAMPING        INTEGRALS   SKIPPED
          * * *   INITIATING DIIS PROCEDURE   * * *
   1  0  0    -0.854337627    -0.854337627   0.000000000   0.000000000     0.000000000     1.000000000              6         0
   2  1  0    -0.854337627     0.000000000   0.000000000   0.000000000     0.000000000     1.000000000              6         0

          -----------------
          DENSITY CONVERGED
          -----------------
     TIME TO FORM FOCK OPERATORS =       0.00 SECONDS (       0.00 SEC/ITER)
     FOCK TIME ON FIRST ITERATION=       0.00, LAST ITERATION=       0.00
     TIME TO SOLVE SCF EQUATIONS =       0.00 SECONDS (       0.00 SEC/ITER)

 FINAL ENERGY IS       -0.8543376275 AFTER   2 ITERATIONS
 ...... END OF RHF CALCULATION ......

                         TIMING STATISTICS ON RANK 0:
 CPU        TIME:   STEP =      0.01 ,  TOTAL =        1.9 SECONDS (    0.0 MIN)
 WALL CLOCK TIME:   STEP =      0.02 ,  TOTAL =        2.6 SECONDS (    0.0 MIN)
 CPU UTILIZATION:   STEP =     58.30%,  TOTAL =      72.46%
 ...... END OF TWO-ELECTRON INTEGRALS .....

 CPU        TIME:   STEP =      0.00 ,  TOTAL =        1.9 SECONDS (    0.0 MIN)
 WALL CLOCK TIME:   STEP =      0.00 ,  TOTAL =        2.6 SECONDS (    0.0 MIN)
 CPU UTILIZATION:   STEP =      0.00%,  TOTAL =      72.42%

 DETERMINANT CI OPTIONS   NRNFG   NPFLG
 INTEGRAL TRANSFORMATION    1      -5
 DIAGONALIZE HAMILTONIAN    1      -5
 FORM 1E- DENSITY MATRIX    1      -5
 FORM 2E- DENSITY MATRIX    0      -5

 ---- SURFACE MAPPING GEOMETRY ----
 COORD 1=  -3.30000  COORD 2=   0.00000
 HAS ENERGY VALUES         -0.9714266896          -0.9103374356          -0.4261917590          -0.3538702227 
 H             0.0000000000          0.0000000000          0.0000000000
 H             0.0000000000          0.0000000000          1.7000000000
 ----------------------------------
 ...... END OF ONE-ELECTRON INTEGRALS ......

                         TIMING STATISTICS ON RANK 0:
 CPU        TIME:   STEP =      0.01 ,  TOTAL =        1.9 SECONDS (    0.0 MIN)
 WALL CLOCK TIME:   STEP =      0.01 ,  TOTAL =        2.6 SECONDS (    0.0 MIN)
 CPU UTILIZATION:   STEP =     84.43%,  TOTAL =      72.47%

 LOG10 OF CONDITION NUMBER OF OVERLAP MATRIX IS:  1.81723660E-01
 ...... END OF TWO-ELECTRON INTEGRALS .....

                         TIMING STATISTICS ON RANK 0:
 CPU        TIME:   STEP =      0.00 ,  TOTAL =        1.9 SECONDS (    0.0 MIN)
 WALL CLOCK TIME:   STEP =      0.01 ,  TOTAL =        2.6 SECONDS (    0.0 MIN)
 CPU UTILIZATION:   STEP =      0.00%,  TOTAL =      72.19%

 DIRECT SCF CALCULATION, SCHWRZ=T   FDIFF=F

                                                                                                              NONZERO    BLOCKS
 ITER EX DEM  TOTAL ENERGY      E CHANGE  DENSITY CHANGE    DIIS ERROR      VIR. SHIFT       DAMPING        INTEGRALS   SKIPPED
          * * *   INITIATING DIIS PROCEDURE   * * *
   1  0  0    -0.867804385    -0.867804385   0.000000000   0.000000000     0.000000000     1.000000000              6         0
   2  1  0    -0.867804385     0.000000000   0.000000000   0.000000000     0.000000000     1.000000000              6         0

          -----------------
          DENSITY CONVERGED
          -----------------
     TIME TO FORM FOCK OPERATORS =       0.00 SECONDS (       0.00 SEC/ITER)
     FOCK TIME ON FIRST ITERATION=       0.00, LAST ITERATION=       0.00
     TIME TO SOLVE SCF EQUATIONS =       0.01 SECONDS (       0.01 SEC/ITER)

 FINAL ENERGY IS       -0.8678043846 AFTER   2 ITERATIONS
 ...... END OF RHF CALCULATION ......

                         TIMING STATISTICS ON RANK 0:
 CPU        TIME:   STEP =      0.02 ,  TOTAL =        1.9 SECONDS (    0.0 MIN)
 WALL CLOCK TIME:   STEP =      0.02 ,  TOTAL =        2.7 SECONDS (    0.0 MIN)
 CPU UTILIZATION:   STEP =    101.94%,  TOTAL =      72.41%
 ...... END OF TWO-ELECTRON INTEGRALS .....

 CPU        TIME:   STEP =      0.00 ,  TOTAL =        1.9 SECONDS (    0.0 MIN)
 WALL CLOCK TIME:   STEP =      0.00 ,  TOTAL =        2.7 SECONDS (    0.0 MIN)
 CPU UTILIZATION:   STEP =      0.00%,  TOTAL =      72.31%

 DETERMINANT CI OPTIONS   NRNFG   NPFLG
 INTEGRAL TRANSFORMATION    1      -5
 DIAGONALIZE HAMILTONIAN    1      -5
 FORM 1E- DENSITY MATRIX    1      -5
 FORM 2E- DENSITY MATRIX    0      -5

 ---- SURFACE MAPPING GEOMETRY ----
 COORD 1=  -3.35000  COORD 2=   0.00000
 HAS ENERGY VALUES         -0.9771296172          -0.9064382916          -0.4284109999          -0.3452578373 
 H             0.0000000000          0.0000000000          0.0000000000
 H             0.0000000000          0.0000000000          1.6500000000
 ----------------------------------
 ...... END OF ONE-ELECTRON INTEGRALS ......

                         TIMING STATISTICS ON RANK 0:
 CPU        TIME:   STEP =      0.01 ,  TOTAL =        1.9 SECONDS (    0.0 MIN)
 WALL CLOCK TIME:   STEP =      0.01 ,  TOTAL =        2.7 SECONDS (    0.0 MIN)
 CPU UTILIZATION:   STEP =     72.68%,  TOTAL =      72.31%

 LOG10 OF CONDITION NUMBER OF OVERLAP MATRIX IS:  1.96166954E-01
 ...... END OF TWO-ELECTRON INTEGRALS .....

                         TIMING STATISTICS ON RANK 0:
 CPU        TIME:   STEP =      0.00 ,  TOTAL =        1.9 SECONDS (    0.0 MIN)
 WALL CLOCK TIME:   STEP =      0.01 ,  TOTAL =        2.7 SECONDS (    0.0 MIN)
 CPU UTILIZATION:   STEP =      0.00%,  TOTAL =      72.07%

 DIRECT SCF CALCULATION, SCHWRZ=T   FDIFF=F

                                                                                                              NONZERO    BLOCKS
 ITER EX DEM  TOTAL ENERGY      E CHANGE  DENSITY CHANGE    DIIS ERROR      VIR. SHIFT       DAMPING        INTEGRALS   SKIPPED
          * * *   INITIATING DIIS PROCEDURE   * * *
   1  0  0    -0.881732451    -0.881732451   0.000000000   0.000000000     0.000000000     1.000000000              6         0
   2  1  0    -0.881732451     0.000000000   0.000000000   0.000000000     0.000000000     1.000000000              6         0

          -----------------
          DENSITY CONVERGED
          -----------------
     TIME TO FORM FOCK OPERATORS =       0.00 SECONDS (       0.00 SEC/ITER)
     FOCK TIME ON FIRST ITERATION=       0.00, LAST ITERATION=       0.00
     TIME TO SOLVE SCF EQUATIONS =       0.00 SECONDS (       0.00 SEC/ITER)

 FINAL ENERGY IS       -0.8817324505 AFTER   2 ITERATIONS
 ...... END OF RHF CALCULATION ......

                         TIMING STATISTICS ON RANK 0:
 CPU        TIME:   STEP =      0.01 ,  TOTAL =        1.9 SECONDS (    0.0 MIN)
 WALL CLOCK TIME:   STEP =      0.02 ,  TOTAL =        2.7 SECONDS (    0.0 MIN)
 CPU UTILIZATION:   STEP =     57.28%,  TOTAL =      71.98%
 ...... END OF TWO-ELECTRON INTEGRALS .....

 CPU        TIME:   STEP =      0.00 ,  TOTAL =        1.9 SECONDS (    0.0 MIN)
 WALL CLOCK TIME:   STEP =      0.00 ,  TOTAL =        2.7 SECONDS (    0.0 MIN)
 CPU UTILIZATION:   STEP =      0.00%,  TOTAL =      71.94%

 DETERMINANT CI OPTIONS   NRNFG   NPFLG
 INTEGRAL TRANSFORMATION    1      -5
 DIAGONALIZE HAMILTONIAN    1      -5
 FORM 1E- DENSITY MATRIX    1      -5
 FORM 2E- DENSITY MATRIX    0      -5

 ---- SURFACE MAPPING GEOMETRY ----
 COORD 1=  -3.40000  COORD 2=   0.00000
 HAS ENERGY VALUES         -0.9834727301          -0.9019118220          -0.4301092517          -0.3347571861 
 H             0.0000000000          0.0000000000          0.0000000000
 H             0.0000000000          0.0000000000          1.6000000000
 ----------------------------------
 ...... END OF ONE-ELECTRON INTEGRALS ......

                         TIMING STATISTICS ON RANK 0:
 CPU        TIME:   STEP =      0.00 ,  TOTAL =        1.9 SECONDS (    0.0 MIN)
 WALL CLOCK TIME:   STEP =      0.01 ,  TOTAL =        2.7 SECONDS (    0.0 MIN)
 CPU UTILIZATION:   STEP =      0.00%,  TOTAL =      71.61%

 LOG10 OF CONDITION NUMBER OF OVERLAP MATRIX IS:  2.11618566E-01
 ...... END OF TWO-ELECTRON INTEGRALS .....

                         TIMING STATISTICS ON RANK 0:
 CPU        TIME:   STEP =      0.01 ,  TOTAL =        2.0 SECONDS (    0.0 MIN)
 WALL CLOCK TIME:   STEP =      0.01 ,  TOTAL =        2.7 SECONDS (    0.0 MIN)
 CPU UTILIZATION:   STEP =    146.95%,  TOTAL =      71.80%

 DIRECT SCF CALCULATION, SCHWRZ=T   FDIFF=F

                                                                                                              NONZERO    BLOCKS
 ITER EX DEM  TOTAL ENERGY      E CHANGE  DENSITY CHANGE    DIIS ERROR      VIR. SHIFT       DAMPING        INTEGRALS   SKIPPED
          * * *   INITIATING DIIS PROCEDURE   * * *
   1  0  0    -0.896098959    -0.896098959   0.000000000   0.000000000     0.000000000     1.000000000              6         0
   2  1  0    -0.896098959     0.000000000   0.000000000   0.000000000     0.000000000     1.000000000              6         0

          -----------------
          DENSITY CONVERGED
          -----------------
     TIME TO FORM FOCK OPERATORS =       0.01 SECONDS (       0.01 SEC/ITER)
     FOCK TIME ON FIRST ITERATION=       0.00, LAST ITERATION=       0.01
     TIME TO SOLVE SCF EQUATIONS =       0.00 SECONDS (       0.00 SEC/ITER)

 FINAL ENERGY IS       -0.8960989589 AFTER   2 ITERATIONS
 ...... END OF RHF CALCULATION ......

                         TIMING STATISTICS ON RANK 0:
 CPU        TIME:   STEP =      0.01 ,  TOTAL =        2.0 SECONDS (    0.0 MIN)
 WALL CLOCK TIME:   STEP =      0.01 ,  TOTAL =        2.7 SECONDS (    0.0 MIN)
 CPU UTILIZATION:   STEP =     72.81%,  TOTAL =      71.80%
 ...... END OF TWO-ELECTRON INTEGRALS .....

 CPU        TIME:   STEP =      0.00 ,  TOTAL =        2.0 SECONDS (    0.0 MIN)
 WALL CLOCK TIME:   STEP =      0.00 ,  TOTAL =        2.7 SECONDS (    0.0 MIN)
 CPU UTILIZATION:   STEP =      0.00%,  TOTAL =      71.77%

 DETERMINANT CI OPTIONS   NRNFG   NPFLG
 INTEGRAL TRANSFORMATION    1      -5
 DIAGONALIZE HAMILTONIAN    1      -5
 FORM 1E- DENSITY MATRIX    1      -5
 FORM 2E- DENSITY MATRIX    0      -5

 ---- SURFACE MAPPING GEOMETRY ----
 COORD 1=  -3.45000  COORD 2=   0.00000
 HAS ENERGY VALUES         -0.9904763420          -0.8966633332          -0.4311827505          -0.3221474311 
 H             0.0000000000          0.0000000000          0.0000000000
 H             0.0000000000          0.0000000000          1.5500000000
 ----------------------------------
 ...... END OF ONE-ELECTRON INTEGRALS ......

                         TIMING STATISTICS ON RANK 0:
 CPU        TIME:   STEP =      0.01 ,  TOTAL =        2.0 SECONDS (    0.0 MIN)
 WALL CLOCK TIME:   STEP =      0.01 ,  TOTAL =        2.8 SECONDS (    0.0 MIN)
 CPU UTILIZATION:   STEP =     92.41%,  TOTAL =      71.85%

 LOG10 OF CONDITION NUMBER OF OVERLAP MATRIX IS:  2.28147762E-01
 ...... END OF TWO-ELECTRON INTEGRALS .....

                         TIMING STATISTICS ON RANK 0:
 CPU        TIME:   STEP =      0.00 ,  TOTAL =        2.0 SECONDS (    0.0 MIN)
 WALL CLOCK TIME:   STEP =      0.01 ,  TOTAL =        2.8 SECONDS (    0.0 MIN)
 CPU UTILIZATION:   STEP =      0.00%,  TOTAL =      71.67%

 DIRECT SCF CALCULATION, SCHWRZ=T   FDIFF=F

                                                                                                              NONZERO    BLOCKS
 ITER EX DEM  TOTAL ENERGY      E CHANGE  DENSITY CHANGE    DIIS ERROR      VIR. SHIFT       DAMPING        INTEGRALS   SKIPPED
          * * *   INITIATING DIIS PROCEDURE   * * *
   1  0  0    -0.910873555    -0.910873555   0.000000000   0.000000000     0.000000000     1.000000000              6         0
   2  1  0    -0.910873555     0.000000000   0.000000000   0.000000000     0.000000000     1.000000000              6         0

          -----------------
          DENSITY CONVERGED
          -----------------
     TIME TO FORM FOCK OPERATORS =       0.00 SECONDS (       0.00 SEC/ITER)
     FOCK TIME ON FIRST ITERATION=       0.00, LAST ITERATION=       0.00
     TIME TO SOLVE SCF EQUATIONS =       0.01 SECONDS (       0.01 SEC/ITER)

 FINAL ENERGY IS       -0.9108735552 AFTER   2 ITERATIONS
 ...... END OF RHF CALCULATION ......

                         TIMING STATISTICS ON RANK 0:
 CPU        TIME:   STEP =      0.02 ,  TOTAL =        2.0 SECONDS (    0.0 MIN)
 WALL CLOCK TIME:   STEP =      0.01 ,  TOTAL =        2.8 SECONDS (    0.0 MIN)
 CPU UTILIZATION:   STEP =    134.83%,  TOTAL =      72.01%
 ...... END OF TWO-ELECTRON INTEGRALS .....

 CPU        TIME:   STEP =      0.00 ,  TOTAL =        2.0 SECONDS (    0.0 MIN)
 WALL CLOCK TIME:   STEP =      0.00 ,  TOTAL =        2.8 SECONDS (    0.0 MIN)
 CPU UTILIZATION:   STEP =      0.00%,  TOTAL =      71.97%

 DETERMINANT CI OPTIONS   NRNFG   NPFLG
 INTEGRAL TRANSFORMATION    1      -5
 DIAGONALIZE HAMILTONIAN    1      -5
 FORM 1E- DENSITY MATRIX    1      -5
 FORM 2E- DENSITY MATRIX    0      -5

 ---- SURFACE MAPPING GEOMETRY ----
 COORD 1=  -3.50000  COORD 2=   0.00000
 HAS ENERGY VALUES         -0.9981493544          -0.8905847840          -0.4315129126          -0.3071925094 
 H             0.0000000000          0.0000000000          0.0000000000
 H             0.0000000000          0.0000000000          1.5000000000
 ----------------------------------
 ...... END OF ONE-ELECTRON INTEGRALS ......

                         TIMING STATISTICS ON RANK 0:
 CPU        TIME:   STEP =      0.00 ,  TOTAL =        2.0 SECONDS (    0.0 MIN)
 WALL CLOCK TIME:   STEP =      0.01 ,  TOTAL =        2.8 SECONDS (    0.0 MIN)
 CPU UTILIZATION:   STEP =      0.00%,  TOTAL =      71.67%

 LOG10 OF CONDITION NUMBER OF OVERLAP MATRIX IS:  2.45829677E-01
 ...... END OF TWO-ELECTRON INTEGRALS .....

                         TIMING STATISTICS ON RANK 0:
 CPU        TIME:   STEP =      0.01 ,  TOTAL =        2.0 SECONDS (    0.0 MIN)
 WALL CLOCK TIME:   STEP =      0.01 ,  TOTAL =        2.8 SECONDS (    0.0 MIN)
 CPU UTILIZATION:   STEP =     96.14%,  TOTAL =      71.77%

 DIRECT SCF CALCULATION, SCHWRZ=T   FDIFF=F

                                                                                                              NONZERO    BLOCKS
 ITER EX DEM  TOTAL ENERGY      E CHANGE  DENSITY CHANGE    DIIS ERROR      VIR. SHIFT       DAMPING        INTEGRALS   SKIPPED
          * * *   INITIATING DIIS PROCEDURE   * * *
   1  0  0    -0.926017176    -0.926017176   0.000000000   0.000000000     0.000000000     1.000000000              6         0
   2  1  0    -0.926017176     0.000000000   0.000000000   0.000000000     0.000000000     1.000000000              6         0

          -----------------
          DENSITY CONVERGED
          -----------------
     TIME TO FORM FOCK OPERATORS =       0.01 SECONDS (       0.01 SEC/ITER)
     FOCK TIME ON FIRST ITERATION=       0.01, LAST ITERATION=       0.00
     TIME TO SOLVE SCF EQUATIONS =       0.00 SECONDS (       0.00 SEC/ITER)

 FINAL ENERGY IS       -0.9260171763 AFTER   2 ITERATIONS
 ...... END OF RHF CALCULATION ......

                         TIMING STATISTICS ON RANK 0:
 CPU        TIME:   STEP =      0.01 ,  TOTAL =        2.0 SECONDS (    0.0 MIN)
 WALL CLOCK TIME:   STEP =      0.02 ,  TOTAL =        2.8 SECONDS (    0.0 MIN)
 CPU UTILIZATION:   STEP =     57.83%,  TOTAL =      71.68%
 ...... END OF TWO-ELECTRON INTEGRALS .....

 CPU        TIME:   STEP =      0.00 ,  TOTAL =        2.0 SECONDS (    0.0 MIN)
 WALL CLOCK TIME:   STEP =      0.00 ,  TOTAL =        2.8 SECONDS (    0.0 MIN)
 CPU UTILIZATION:   STEP =      0.00%,  TOTAL =      71.64%

 DETERMINANT CI OPTIONS   NRNFG   NPFLG
 INTEGRAL TRANSFORMATION    1      -5
 DIAGONALIZE HAMILTONIAN    1      -5
 FORM 1E- DENSITY MATRIX    1      -5
 FORM 2E- DENSITY MATRIX    0      -5

 ---- SURFACE MAPPING GEOMETRY ----
 COORD 1=  -3.55000  COORD 2=   0.00000
 HAS ENERGY VALUES         -1.0064869327          -0.8835530501          -0.4309645322          -0.2896403074 
 H             0.0000000000          0.0000000000          0.0000000000
 H             0.0000000000          0.0000000000          1.4500000000
 ----------------------------------
 ...... END OF ONE-ELECTRON INTEGRALS ......

                         TIMING STATISTICS ON RANK 0:
 CPU        TIME:   STEP =      0.00 ,  TOTAL =        2.0 SECONDS (    0.0 MIN)
 WALL CLOCK TIME:   STEP =      0.01 ,  TOTAL =        2.8 SECONDS (    0.0 MIN)
 CPU UTILIZATION:   STEP =      0.00%,  TOTAL =      71.36%

 LOG10 OF CONDITION NUMBER OF OVERLAP MATRIX IS:  2.64745886E-01
 ...... END OF TWO-ELECTRON INTEGRALS .....

                         TIMING STATISTICS ON RANK 0:
 CPU        TIME:   STEP =      0.01 ,  TOTAL =        2.0 SECONDS (    0.0 MIN)
 WALL CLOCK TIME:   STEP =      0.01 ,  TOTAL =        2.8 SECONDS (    0.0 MIN)
 CPU UTILIZATION:   STEP =    151.15%,  TOTAL =      71.55%

 DIRECT SCF CALCULATION, SCHWRZ=T   FDIFF=F

                                                                                                              NONZERO    BLOCKS
 ITER EX DEM  TOTAL ENERGY      E CHANGE  DENSITY CHANGE    DIIS ERROR      VIR. SHIFT       DAMPING        INTEGRALS   SKIPPED
          * * *   INITIATING DIIS PROCEDURE   * * *
   1  0  0    -0.941480655    -0.941480655   0.000000000   0.000000000     0.000000000     1.000000000              6         0
   2  1  0    -0.941480655     0.000000000   0.000000000   0.000000000     0.000000000     1.000000000              6         0

          -----------------
          DENSITY CONVERGED
          -----------------
     TIME TO FORM FOCK OPERATORS =       0.00 SECONDS (       0.00 SEC/ITER)
     FOCK TIME ON FIRST ITERATION=       0.00, LAST ITERATION=       0.00
     TIME TO SOLVE SCF EQUATIONS =       0.01 SECONDS (       0.01 SEC/ITER)

 FINAL ENERGY IS       -0.9414806553 AFTER   2 ITERATIONS
 ...... END OF RHF CALCULATION ......

                         TIMING STATISTICS ON RANK 0:
 CPU        TIME:   STEP =      0.01 ,  TOTAL =        2.0 SECONDS (    0.0 MIN)
 WALL CLOCK TIME:   STEP =      0.01 ,  TOTAL =        2.9 SECONDS (    0.0 MIN)
 CPU UTILIZATION:   STEP =     74.16%,  TOTAL =      71.56%
 ...... END OF TWO-ELECTRON INTEGRALS .....

 CPU        TIME:   STEP =      0.01 ,  TOTAL =        2.0 SECONDS (    0.0 MIN)
 WALL CLOCK TIME:   STEP =      0.00 ,  TOTAL =        2.9 SECONDS (    0.0 MIN)
 CPU UTILIZATION:   STEP =    738.55%,  TOTAL =      71.88%

 DETERMINANT CI OPTIONS   NRNFG   NPFLG
 INTEGRAL TRANSFORMATION    1      -5
 DIAGONALIZE HAMILTONIAN    1      -5
 FORM 1E- DENSITY MATRIX    1      -5
 FORM 2E- DENSITY MATRIX    0      -5

 ---- SURFACE MAPPING GEOMETRY ----
 COORD 1=  -3.60000  COORD 2=   0.00000
 HAS ENERGY VALUES         -1.0154682502          -0.8754279418          -0.4293837645          -0.2692213110 
 H             0.0000000000          0.0000000000          0.0000000000
 H             0.0000000000          0.0000000000          1.4000000000
 ----------------------------------
 ...... END OF ONE-ELECTRON INTEGRALS ......

                         TIMING STATISTICS ON RANK 0:
 CPU        TIME:   STEP =      0.00 ,  TOTAL =        2.0 SECONDS (    0.0 MIN)
 WALL CLOCK TIME:   STEP =      0.01 ,  TOTAL =        2.9 SECONDS (    0.0 MIN)
 CPU UTILIZATION:   STEP =      0.00%,  TOTAL =      71.60%

 LOG10 OF CONDITION NUMBER OF OVERLAP MATRIX IS:  2.84985041E-01
 ...... END OF TWO-ELECTRON INTEGRALS .....

                         TIMING STATISTICS ON RANK 0:
 CPU        TIME:   STEP =      0.01 ,  TOTAL =        2.1 SECONDS (    0.0 MIN)
 WALL CLOCK TIME:   STEP =      0.01 ,  TOTAL =        2.9 SECONDS (    0.0 MIN)
 CPU UTILIZATION:   STEP =    148.83%,  TOTAL =      71.78%

 DIRECT SCF CALCULATION, SCHWRZ=T   FDIFF=F

                                                                                                              NONZERO    BLOCKS
 ITER EX DEM  TOTAL ENERGY      E CHANGE  DENSITY CHANGE    DIIS ERROR      VIR. SHIFT       DAMPING        INTEGRALS   SKIPPED
          * * *   INITIATING DIIS PROCEDURE   * * *
   1  0  0    -0.957203176    -0.957203176   0.000000000   0.000000000     0.000000000     1.000000000              6         0
   2  1  0    -0.957203176     0.000000000   0.000000000   0.000000000     0.000000000     1.000000000              6         0

          -----------------
          DENSITY CONVERGED
          -----------------
     TIME TO FORM FOCK OPERATORS =       0.00 SECONDS (       0.00 SEC/ITER)
     FOCK TIME ON FIRST ITERATION=       0.00, LAST ITERATION=       0.00
     TIME TO SOLVE SCF EQUATIONS =       0.00 SECONDS (       0.00 SEC/ITER)

 FINAL ENERGY IS       -0.9572031757 AFTER   2 ITERATIONS
 ...... END OF RHF CALCULATION ......

                         TIMING STATISTICS ON RANK 0:
 CPU        TIME:   STEP =      0.00 ,  TOTAL =        2.1 SECONDS (    0.0 MIN)
 WALL CLOCK TIME:   STEP =      0.01 ,  TOTAL =        2.9 SECONDS (    0.0 MIN)
 CPU UTILIZATION:   STEP =      0.00%,  TOTAL =      71.44%
 ...... END OF TWO-ELECTRON INTEGRALS .....

 CPU        TIME:   STEP =      0.00 ,  TOTAL =        2.1 SECONDS (    0.0 MIN)
 WALL CLOCK TIME:   STEP =      0.00 ,  TOTAL =        2.9 SECONDS (    0.0 MIN)
 CPU UTILIZATION:   STEP =      0.00%,  TOTAL =      71.40%

 DETERMINANT CI OPTIONS   NRNFG   NPFLG
 INTEGRAL TRANSFORMATION    1      -5
 DIAGONALIZE HAMILTONIAN    1      -5
 FORM 1E- DENSITY MATRIX    1      -5
 FORM 2E- DENSITY MATRIX    0      -5

 ---- SURFACE MAPPING GEOMETRY ----
 COORD 1=  -3.65000  COORD 2=   0.00000
 HAS ENERGY VALUES         -1.0250543633          -0.8660498681          -0.4265957974          -0.2456464334 
 H             0.0000000000          0.0000000000          0.0000000000
 H             0.0000000000          0.0000000000          1.3500000000
 ----------------------------------
 ...... END OF ONE-ELECTRON INTEGRALS ......

                         TIMING STATISTICS ON RANK 0:
 CPU        TIME:   STEP =      0.01 ,  TOTAL =        2.1 SECONDS (    0.0 MIN)
 WALL CLOCK TIME:   STEP =      0.01 ,  TOTAL =        2.9 SECONDS (    0.0 MIN)
 CPU UTILIZATION:   STEP =     93.84%,  TOTAL =      71.48%

 LOG10 OF CONDITION NUMBER OF OVERLAP MATRIX IS:  3.06643605E-01
 ...... END OF TWO-ELECTRON INTEGRALS .....

                         TIMING STATISTICS ON RANK 0:
 CPU        TIME:   STEP =      0.00 ,  TOTAL =        2.1 SECONDS (    0.0 MIN)
 WALL CLOCK TIME:   STEP =      0.01 ,  TOTAL =        2.9 SECONDS (    0.0 MIN)
 CPU UTILIZATION:   STEP =      0.00%,  TOTAL =      71.31%

 DIRECT SCF CALCULATION, SCHWRZ=T   FDIFF=F

                                                                                                              NONZERO    BLOCKS
 ITER EX DEM  TOTAL ENERGY      E CHANGE  DENSITY CHANGE    DIIS ERROR      VIR. SHIFT       DAMPING        INTEGRALS   SKIPPED
          * * *   INITIATING DIIS PROCEDURE   * * *
   1  0  0    -0.973110616    -0.973110616   0.000000000   0.000000000     0.000000000     1.000000000              6         0
   2  1  0    -0.973110616     0.000000000   0.000000000   0.000000000     0.000000000     1.000000000              6         0

          -----------------
          DENSITY CONVERGED
          -----------------
     TIME TO FORM FOCK OPERATORS =       0.00 SECONDS (       0.00 SEC/ITER)
     FOCK TIME ON FIRST ITERATION=       0.00, LAST ITERATION=       0.00
     TIME TO SOLVE SCF EQUATIONS =       0.00 SECONDS (       0.00 SEC/ITER)

 FINAL ENERGY IS       -0.9731106164 AFTER   2 ITERATIONS
 ...... END OF RHF CALCULATION ......

                         TIMING STATISTICS ON RANK 0:
 CPU        TIME:   STEP =      0.01 ,  TOTAL =        2.1 SECONDS (    0.0 MIN)
 WALL CLOCK TIME:   STEP =      0.01 ,  TOTAL =        2.9 SECONDS (    0.0 MIN)
 CPU UTILIZATION:   STEP =     75.29%,  TOTAL =      71.33%
 ...... END OF TWO-ELECTRON INTEGRALS .....

 CPU        TIME:   STEP =      0.00 ,  TOTAL =        2.1 SECONDS (    0.0 MIN)
 WALL CLOCK TIME:   STEP =      0.00 ,  TOTAL =        2.9 SECONDS (    0.0 MIN)
 CPU UTILIZATION:   STEP =      0.00%,  TOTAL =      71.30%

 DETERMINANT CI OPTIONS   NRNFG   NPFLG
 INTEGRAL TRANSFORMATION    1      -5
 DIAGONALIZE HAMILTONIAN    1      -5
 FORM 1E- DENSITY MATRIX    1      -5
 FORM 2E- DENSITY MATRIX    0      -5

 ---- SURFACE MAPPING GEOMETRY ----
 COORD 1=  -3.70000  COORD 2=   0.00000
 HAS ENERGY VALUES         -1.0351862672          -0.8552369438          -0.4224020256          -0.2186035598 
 H             0.0000000000          0.0000000000          0.0000000000
 H             0.0000000000          0.0000000000          1.3000000000
 ----------------------------------
 ...... END OF ONE-ELECTRON INTEGRALS ......

                         TIMING STATISTICS ON RANK 0:
 CPU        TIME:   STEP =      0.01 ,  TOTAL =        2.1 SECONDS (    0.0 MIN)
 WALL CLOCK TIME:   STEP =      0.01 ,  TOTAL =        2.9 SECONDS (    0.0 MIN)
 CPU UTILIZATION:   STEP =     91.12%,  TOTAL =      71.37%

 LOG10 OF CONDITION NUMBER OF OVERLAP MATRIX IS:  3.29826710E-01
 ...... END OF TWO-ELECTRON INTEGRALS .....

                         TIMING STATISTICS ON RANK 0:
 CPU        TIME:   STEP =      0.00 ,  TOTAL =        2.1 SECONDS (    0.0 MIN)
 WALL CLOCK TIME:   STEP =      0.01 ,  TOTAL =        2.9 SECONDS (    0.0 MIN)
 CPU UTILIZATION:   STEP =      0.00%,  TOTAL =      71.21%

 DIRECT SCF CALCULATION, SCHWRZ=T   FDIFF=F

                                                                                                              NONZERO    BLOCKS
 ITER EX DEM  TOTAL ENERGY      E CHANGE  DENSITY CHANGE    DIIS ERROR      VIR. SHIFT       DAMPING        INTEGRALS   SKIPPED
          * * *   INITIATING DIIS PROCEDURE   * * *
   1  0  0    -0.989113815    -0.989113815   0.000000000   0.000000000     0.000000000     1.000000000              6         0
   2  1  0    -0.989113815     0.000000000   0.000000000   0.000000000     0.000000000     1.000000000              6         0

          -----------------
          DENSITY CONVERGED
          -----------------
     TIME TO FORM FOCK OPERATORS =       0.00 SECONDS (       0.00 SEC/ITER)
     FOCK TIME ON FIRST ITERATION=       0.00, LAST ITERATION=       0.00
     TIME TO SOLVE SCF EQUATIONS =       0.00 SECONDS (       0.00 SEC/ITER)

 FINAL ENERGY IS       -0.9891138146 AFTER   2 ITERATIONS
 ...... END OF RHF CALCULATION ......

                         TIMING STATISTICS ON RANK 0:
 CPU        TIME:   STEP =      0.01 ,  TOTAL =        2.1 SECONDS (    0.0 MIN)
 WALL CLOCK TIME:   STEP =      0.01 ,  TOTAL =        2.9 SECONDS (    0.0 MIN)
 CPU UTILIZATION:   STEP =     72.35%,  TOTAL =      71.22%
 ...... END OF TWO-ELECTRON INTEGRALS .....

 CPU        TIME:   STEP =      0.00 ,  TOTAL =        2.1 SECONDS (    0.0 MIN)
 WALL CLOCK TIME:   STEP =      0.00 ,  TOTAL =        3.0 SECONDS (    0.0 MIN)
 CPU UTILIZATION:   STEP =      0.00%,  TOTAL =      71.18%

 DETERMINANT CI OPTIONS   NRNFG   NPFLG
 INTEGRAL TRANSFORMATION    1      -5
 DIAGONALIZE HAMILTONIAN    1      -5
 FORM 1E- DENSITY MATRIX    1      -5
 FORM 2E- DENSITY MATRIX    0      -5

 ---- SURFACE MAPPING GEOMETRY ----
 COORD 1=  -3.75000  COORD 2=   0.00000
 HAS ENERGY VALUES         -1.0457831453          -0.8427811995          -0.4165763977          -0.1877520781 
 H             0.0000000000          0.0000000000          0.0000000000
 H             0.0000000000          0.0000000000          1.2500000000
 ----------------------------------
 ...... END OF ONE-ELECTRON INTEGRALS ......

                         TIMING STATISTICS ON RANK 0:
 CPU        TIME:   STEP =      0.02 ,  TOTAL =        2.1 SECONDS (    0.0 MIN)
 WALL CLOCK TIME:   STEP =      0.01 ,  TOTAL =        3.0 SECONDS (    0.0 MIN)
 CPU UTILIZATION:   STEP =    168.32%,  TOTAL =      71.57%

 LOG10 OF CONDITION NUMBER OF OVERLAP MATRIX IS:  3.54649225E-01
 ...... END OF TWO-ELECTRON INTEGRALS .....

                         TIMING STATISTICS ON RANK 0:
 CPU        TIME:   STEP =      0.01 ,  TOTAL =        2.1 SECONDS (    0.0 MIN)
 WALL CLOCK TIME:   STEP =      0.01 ,  TOTAL =        3.0 SECONDS (    0.0 MIN)
 CPU UTILIZATION:   STEP =    148.88%,  TOTAL =      71.75%

 DIRECT SCF CALCULATION, SCHWRZ=T   FDIFF=F

                                                                                                              NONZERO    BLOCKS
 ITER EX DEM  TOTAL ENERGY      E CHANGE  DENSITY CHANGE    DIIS ERROR      VIR. SHIFT       DAMPING        INTEGRALS   SKIPPED
          * * *   INITIATING DIIS PROCEDURE   * * *
   1  0  0    -1.005106707    -1.005106707   0.000000000   0.000000000     0.000000000     1.000000000              6         0
   2  1  0    -1.005106707     0.000000000   0.000000000   0.000000000     0.000000000     1.000000000              6         0

          -----------------
          DENSITY CONVERGED
          -----------------
     TIME TO FORM FOCK OPERATORS =       0.00 SECONDS (       0.00 SEC/ITER)
     FOCK TIME ON FIRST ITERATION=       0.00, LAST ITERATION=       0.00
     TIME TO SOLVE SCF EQUATIONS =       0.00 SECONDS (       0.00 SEC/ITER)

 FINAL ENERGY IS       -1.0051067071 AFTER   2 ITERATIONS
 ...... END OF RHF CALCULATION ......

                         TIMING STATISTICS ON RANK 0:
 CPU        TIME:   STEP =      0.00 ,  TOTAL =        2.1 SECONDS (    0.0 MIN)
 WALL CLOCK TIME:   STEP =      0.01 ,  TOTAL =        3.0 SECONDS (    0.0 MIN)
 CPU UTILIZATION:   STEP =      0.00%,  TOTAL =      71.40%
 ...... END OF TWO-ELECTRON INTEGRALS .....

 CPU        TIME:   STEP =      0.00 ,  TOTAL =        2.1 SECONDS (    0.0 MIN)
 WALL CLOCK TIME:   STEP =      0.00 ,  TOTAL =        3.0 SECONDS (    0.0 MIN)
 CPU UTILIZATION:   STEP =      0.00%,  TOTAL =      71.36%

 DETERMINANT CI OPTIONS   NRNFG   NPFLG
 INTEGRAL TRANSFORMATION    1      -5
 DIAGONALIZE HAMILTONIAN    1      -5
 FORM 1E- DENSITY MATRIX    1      -5
 FORM 2E- DENSITY MATRIX    0      -5

 ---- SURFACE MAPPING GEOMETRY ----
 COORD 1=  -3.80000  COORD 2=   0.00000
 HAS ENERGY VALUES         -1.0567407468          -0.8284433499          -0.4088604139          -0.1527143676 
 H             0.0000000000          0.0000000000          0.0000000000
 H             0.0000000000          0.0000000000          1.2000000000
 ----------------------------------
 ...... END OF ONE-ELECTRON INTEGRALS ......

                         TIMING STATISTICS ON RANK 0:
 CPU        TIME:   STEP =      0.01 ,  TOTAL =        2.1 SECONDS (    0.0 MIN)
 WALL CLOCK TIME:   STEP =      0.01 ,  TOTAL =        3.0 SECONDS (    0.0 MIN)
 CPU UTILIZATION:   STEP =     89.18%,  TOTAL =      71.43%

 LOG10 OF CONDITION NUMBER OF OVERLAP MATRIX IS:  3.81237091E-01
 ...... END OF TWO-ELECTRON INTEGRALS .....

                         TIMING STATISTICS ON RANK 0:
 CPU        TIME:   STEP =      0.00 ,  TOTAL =        2.1 SECONDS (    0.0 MIN)
 WALL CLOCK TIME:   STEP =      0.01 ,  TOTAL =        3.0 SECONDS (    0.1 MIN)
 CPU UTILIZATION:   STEP =      0.00%,  TOTAL =      71.27%

 DIRECT SCF CALCULATION, SCHWRZ=T   FDIFF=F

                                                                                                              NONZERO    BLOCKS
 ITER EX DEM  TOTAL ENERGY      E CHANGE  DENSITY CHANGE    DIIS ERROR      VIR. SHIFT       DAMPING        INTEGRALS   SKIPPED
          * * *   INITIATING DIIS PROCEDURE   * * *
   1  0  0    -1.020964144    -1.020964144   0.000000000   0.000000000     0.000000000     1.000000000              6         0
   2  1  0    -1.020964144     0.000000000   0.000000000   0.000000000     0.000000000     1.000000000              6         0

          -----------------
          DENSITY CONVERGED
          -----------------
     TIME TO FORM FOCK OPERATORS =       0.01 SECONDS (       0.00 SEC/ITER)
     FOCK TIME ON FIRST ITERATION=       0.00, LAST ITERATION=       0.01
     TIME TO SOLVE SCF EQUATIONS =       0.00 SECONDS (       0.00 SEC/ITER)

 FINAL ENERGY IS       -1.0209641441 AFTER   2 ITERATIONS
 ...... END OF RHF CALCULATION ......

                         TIMING STATISTICS ON RANK 0:
 CPU        TIME:   STEP =      0.02 ,  TOTAL =        2.2 SECONDS (    0.0 MIN)
 WALL CLOCK TIME:   STEP =      0.02 ,  TOTAL =        3.0 SECONDS (    0.1 MIN)
 CPU UTILIZATION:   STEP =    115.22%,  TOTAL =      71.52%
 ...... END OF TWO-ELECTRON INTEGRALS .....

 CPU        TIME:   STEP =      0.00 ,  TOTAL =        2.2 SECONDS (    0.0 MIN)
 WALL CLOCK TIME:   STEP =      0.00 ,  TOTAL =        3.0 SECONDS (    0.1 MIN)
 CPU UTILIZATION:   STEP =      0.00%,  TOTAL =      71.49%

 DETERMINANT CI OPTIONS   NRNFG   NPFLG
 INTEGRAL TRANSFORMATION    1      -5
 DIAGONALIZE HAMILTONIAN    1      -5
 FORM 1E- DENSITY MATRIX    1      -5
 FORM 2E- DENSITY MATRIX    0      -5

 ---- SURFACE MAPPING GEOMETRY ----
 COORD 1=  -3.85000  COORD 2=   0.00000
 HAS ENERGY VALUES         -1.0679296595          -0.8119453505          -0.3989560019          -0.1130628878 
 H             0.0000000000          0.0000000000          0.0000000000
 H             0.0000000000          0.0000000000          1.1500000000
 ----------------------------------
 ...... END OF ONE-ELECTRON INTEGRALS ......

                         TIMING STATISTICS ON RANK 0:
 CPU        TIME:   STEP =      0.01 ,  TOTAL =        2.2 SECONDS (    0.0 MIN)
 WALL CLOCK TIME:   STEP =      0.02 ,  TOTAL =        3.0 SECONDS (    0.1 MIN)
 CPU UTILIZATION:   STEP =     65.27%,  TOTAL =      71.45%

 LOG10 OF CONDITION NUMBER OF OVERLAP MATRIX IS:  4.09729077E-01
 ...... END OF TWO-ELECTRON INTEGRALS .....

                         TIMING STATISTICS ON RANK 0:
 CPU        TIME:   STEP =      0.00 ,  TOTAL =        2.2 SECONDS (    0.0 MIN)
 WALL CLOCK TIME:   STEP =      0.01 ,  TOTAL =        3.0 SECONDS (    0.1 MIN)
 CPU UTILIZATION:   STEP =      0.00%,  TOTAL =      71.24%

 DIRECT SCF CALCULATION, SCHWRZ=T   FDIFF=F

                                                                                                              NONZERO    BLOCKS
 ITER EX DEM  TOTAL ENERGY      E CHANGE  DENSITY CHANGE    DIIS ERROR      VIR. SHIFT       DAMPING        INTEGRALS   SKIPPED
          * * *   INITIATING DIIS PROCEDURE   * * *
   1  0  0    -1.036538876    -1.036538876   0.000000000   0.000000000     0.000000000     1.000000000              6         0
   2  1  0    -1.036538876     0.000000000   0.000000000   0.000000000     0.000000000     1.000000000              6         0

          -----------------
          DENSITY CONVERGED
          -----------------
     TIME TO FORM FOCK OPERATORS =       0.00 SECONDS (       0.00 SEC/ITER)
     FOCK TIME ON FIRST ITERATION=       0.00, LAST ITERATION=       0.00
     TIME TO SOLVE SCF EQUATIONS =       0.00 SECONDS (       0.00 SEC/ITER)

 FINAL ENERGY IS       -1.0365388755 AFTER   2 ITERATIONS
 ...... END OF RHF CALCULATION ......

                         TIMING STATISTICS ON RANK 0:
 CPU        TIME:   STEP =      0.01 ,  TOTAL =        2.2 SECONDS (    0.0 MIN)
 WALL CLOCK TIME:   STEP =      0.01 ,  TOTAL =        3.1 SECONDS (    0.1 MIN)
 CPU UTILIZATION:   STEP =     75.68%,  TOTAL =      71.26%
 ...... END OF TWO-ELECTRON INTEGRALS .....

 CPU        TIME:   STEP =      0.00 ,  TOTAL =        2.2 SECONDS (    0.0 MIN)
 WALL CLOCK TIME:   STEP =      0.00 ,  TOTAL =        3.1 SECONDS (    0.1 MIN)
 CPU UTILIZATION:   STEP =      0.00%,  TOTAL =      71.23%

 DETERMINANT CI OPTIONS   NRNFG   NPFLG
 INTEGRAL TRANSFORMATION    1      -5
 DIAGONALIZE HAMILTONIAN    1      -5
 FORM 1E- DENSITY MATRIX    1      -5
 FORM 2E- DENSITY MATRIX    0      -5

 ---- SURFACE MAPPING GEOMETRY ----
 COORD 1=  -3.90000  COORD 2=   0.00000
 HAS ENERGY VALUES         -1.0791929454          -0.7929597016          -0.3865152496          -0.0683013050 
 H             0.0000000000          0.0000000000          0.0000000000
 H             0.0000000000          0.0000000000          1.1000000000
 ----------------------------------
 ...... END OF ONE-ELECTRON INTEGRALS ......

                         TIMING STATISTICS ON RANK 0:
 CPU        TIME:   STEP =      0.01 ,  TOTAL =        2.2 SECONDS (    0.0 MIN)
 WALL CLOCK TIME:   STEP =      0.01 ,  TOTAL =        3.1 SECONDS (    0.1 MIN)
 CPU UTILIZATION:   STEP =     87.60%,  TOTAL =      71.29%

 LOG10 OF CONDITION NUMBER OF OVERLAP MATRIX IS:  4.40279136E-01
 ...... END OF TWO-ELECTRON INTEGRALS .....

                         TIMING STATISTICS ON RANK 0:
 CPU        TIME:   STEP =      0.00 ,  TOTAL =        2.2 SECONDS (    0.0 MIN)
 WALL CLOCK TIME:   STEP =      0.01 ,  TOTAL =        3.1 SECONDS (    0.1 MIN)
 CPU UTILIZATION:   STEP =      0.00%,  TOTAL =      71.13%

 DIRECT SCF CALCULATION, SCHWRZ=T   FDIFF=F

                                                                                                              NONZERO    BLOCKS
 ITER EX DEM  TOTAL ENERGY      E CHANGE  DENSITY CHANGE    DIIS ERROR      VIR. SHIFT       DAMPING        INTEGRALS   SKIPPED
          * * *   INITIATING DIIS PROCEDURE   * * *
   1  0  0    -1.051656756    -1.051656756   0.000000000   0.000000000     0.000000000     1.000000000              6         0
   2  1  0    -1.051656756     0.000000000   0.000000000   0.000000000     0.000000000     1.000000000              6         0

          -----------------
          DENSITY CONVERGED
          -----------------
     TIME TO FORM FOCK OPERATORS =       0.00 SECONDS (       0.00 SEC/ITER)
     FOCK TIME ON FIRST ITERATION=       0.00, LAST ITERATION=       0.00
     TIME TO SOLVE SCF EQUATIONS =       0.00 SECONDS (       0.00 SEC/ITER)

 FINAL ENERGY IS       -1.0516567561 AFTER   2 ITERATIONS
 ...... END OF RHF CALCULATION ......

                         TIMING STATISTICS ON RANK 0:
 CPU        TIME:   STEP =      0.01 ,  TOTAL =        2.2 SECONDS (    0.0 MIN)
 WALL CLOCK TIME:   STEP =      0.01 ,  TOTAL =        3.1 SECONDS (    0.1 MIN)
 CPU UTILIZATION:   STEP =     72.18%,  TOTAL =      71.13%
 ...... END OF TWO-ELECTRON INTEGRALS .....

 CPU        TIME:   STEP =      0.00 ,  TOTAL =        2.2 SECONDS (    0.0 MIN)
 WALL CLOCK TIME:   STEP =      0.00 ,  TOTAL =        3.1 SECONDS (    0.1 MIN)
 CPU UTILIZATION:   STEP =      0.00%,  TOTAL =      71.10%

 DETERMINANT CI OPTIONS   NRNFG   NPFLG
 INTEGRAL TRANSFORMATION    1      -5
 DIAGONALIZE HAMILTONIAN    1      -5
 FORM 1E- DENSITY MATRIX    1      -5
 FORM 2E- DENSITY MATRIX    0      -5

 ---- SURFACE MAPPING GEOMETRY ----
 COORD 1=  -3.95000  COORD 2=   0.00000
 HAS ENERGY VALUES         -1.0903421768          -0.7710943208          -0.3711257890          -0.0178381863 
 H             0.0000000000          0.0000000000          0.0000000000
 H             0.0000000000          0.0000000000          1.0500000000
 ----------------------------------
 ...... END OF ONE-ELECTRON INTEGRALS ......

                         TIMING STATISTICS ON RANK 0:
 CPU        TIME:   STEP =      0.01 ,  TOTAL =        2.2 SECONDS (    0.0 MIN)
 WALL CLOCK TIME:   STEP =      0.01 ,  TOTAL =        3.1 SECONDS (    0.1 MIN)
 CPU UTILIZATION:   STEP =     92.12%,  TOTAL =      71.18%

 LOG10 OF CONDITION NUMBER OF OVERLAP MATRIX IS:  4.73059598E-01
 ...... END OF TWO-ELECTRON INTEGRALS .....

                         TIMING STATISTICS ON RANK 0:
 CPU        TIME:   STEP =      0.01 ,  TOTAL =        2.2 SECONDS (    0.0 MIN)
 WALL CLOCK TIME:   STEP =      0.01 ,  TOTAL =        3.1 SECONDS (    0.1 MIN)
 CPU UTILIZATION:   STEP =    151.77%,  TOTAL =      71.35%

 DIRECT SCF CALCULATION, SCHWRZ=T   FDIFF=F

                                                                                                              NONZERO    BLOCKS
 ITER EX DEM  TOTAL ENERGY      E CHANGE  DENSITY CHANGE    DIIS ERROR      VIR. SHIFT       DAMPING        INTEGRALS   SKIPPED
          * * *   INITIATING DIIS PROCEDURE   * * *
   1  0  0    -1.066108650    -1.066108650   0.000000000   0.000000000     0.000000000     1.000000000              6         0
   2  1  0    -1.066108650     0.000000000   0.000000000   0.000000000     0.000000000     1.000000000              6         0

          -----------------
          DENSITY CONVERGED
          -----------------
     TIME TO FORM FOCK OPERATORS =       0.01 SECONDS (       0.01 SEC/ITER)
     FOCK TIME ON FIRST ITERATION=       0.00, LAST ITERATION=       0.01
     TIME TO SOLVE SCF EQUATIONS =       0.00 SECONDS (       0.00 SEC/ITER)

 FINAL ENERGY IS       -1.0661086497 AFTER   2 ITERATIONS
 ...... END OF RHF CALCULATION ......

                         TIMING STATISTICS ON RANK 0:
 CPU        TIME:   STEP =      0.01 ,  TOTAL =        2.2 SECONDS (    0.0 MIN)
 WALL CLOCK TIME:   STEP =      0.01 ,  TOTAL =        3.1 SECONDS (    0.1 MIN)
 CPU UTILIZATION:   STEP =     75.17%,  TOTAL =      71.36%
 ...... END OF TWO-ELECTRON INTEGRALS .....

 CPU        TIME:   STEP =      0.00 ,  TOTAL =        2.2 SECONDS (    0.0 MIN)
 WALL CLOCK TIME:   STEP =      0.00 ,  TOTAL =        3.1 SECONDS (    0.1 MIN)
 CPU UTILIZATION:   STEP =      0.00%,  TOTAL =      71.33%

 DETERMINANT CI OPTIONS   NRNFG   NPFLG
 INTEGRAL TRANSFORMATION    1      -5
 DIAGONALIZE HAMILTONIAN    1      -5
 FORM 1E- DENSITY MATRIX    1      -5
 FORM 2E- DENSITY MATRIX    0      -5

 ---- SURFACE MAPPING GEOMETRY ----
 COORD 1=  -4.00000  COORD 2=   0.00000
 HAS ENERGY VALUES         -1.1011503307          -0.7458717980          -0.3522906322           0.0390476216 
 H             0.0000000000          0.0000000000          0.0000000000
 H             0.0000000000          0.0000000000          1.0000000000
 ----------------------------------
 ...... END OF ONE-ELECTRON INTEGRALS ......

                         TIMING STATISTICS ON RANK 0:
 CPU        TIME:   STEP =      0.00 ,  TOTAL =        2.2 SECONDS (    0.0 MIN)
 WALL CLOCK TIME:   STEP =      0.01 ,  TOTAL =        3.1 SECONDS (    0.1 MIN)
 CPU UTILIZATION:   STEP =      0.00%,  TOTAL =      71.07%

 LOG10 OF CONDITION NUMBER OF OVERLAP MATRIX IS:  5.08265562E-01
 ...... END OF TWO-ELECTRON INTEGRALS .....

                         TIMING STATISTICS ON RANK 0:
 CPU        TIME:   STEP =      0.01 ,  TOTAL =        2.2 SECONDS (    0.0 MIN)
 WALL CLOCK TIME:   STEP =      0.01 ,  TOTAL =        3.1 SECONDS (    0.1 MIN)
 CPU UTILIZATION:   STEP =    148.61%,  TOTAL =      71.24%

 DIRECT SCF CALCULATION, SCHWRZ=T   FDIFF=F

                                                                                                              NONZERO    BLOCKS
 ITER EX DEM  TOTAL ENERGY      E CHANGE  DENSITY CHANGE    DIIS ERROR      VIR. SHIFT       DAMPING        INTEGRALS   SKIPPED
          * * *   INITIATING DIIS PROCEDURE   * * *
   1  0  0    -1.079636929    -1.079636929   0.000000000   0.000000000     0.000000000     1.000000000              6         0
   2  1  0    -1.079636929     0.000000000   0.000000000   0.000000000     0.000000000     1.000000000              6         0

          -----------------
          DENSITY CONVERGED
          -----------------
     TIME TO FORM FOCK OPERATORS =       0.00 SECONDS (       0.00 SEC/ITER)
     FOCK TIME ON FIRST ITERATION=       0.00, LAST ITERATION=       0.00
     TIME TO SOLVE SCF EQUATIONS =       0.00 SECONDS (       0.00 SEC/ITER)

 FINAL ENERGY IS       -1.0796369286 AFTER   2 ITERATIONS
 ...... END OF RHF CALCULATION ......

                         TIMING STATISTICS ON RANK 0:
 CPU        TIME:   STEP =      0.00 ,  TOTAL =        2.2 SECONDS (    0.0 MIN)
 WALL CLOCK TIME:   STEP =      0.01 ,  TOTAL =        3.2 SECONDS (    0.1 MIN)
 CPU UTILIZATION:   STEP =      0.00%,  TOTAL =      70.92%
 ...... END OF TWO-ELECTRON INTEGRALS .....

 CPU        TIME:   STEP =      0.01 ,  TOTAL =        2.3 SECONDS (    0.0 MIN)
 WALL CLOCK TIME:   STEP =      0.00 ,  TOTAL =        3.2 SECONDS (    0.1 MIN)
 CPU UTILIZATION:   STEP =    740.19%,  TOTAL =      71.21%

 DETERMINANT CI OPTIONS   NRNFG   NPFLG
 INTEGRAL TRANSFORMATION    1      -5
 DIAGONALIZE HAMILTONIAN    1      -5
 FORM 1E- DENSITY MATRIX    1      -5
 FORM 2E- DENSITY MATRIX    0      -5

 ---- SURFACE MAPPING GEOMETRY ----
 COORD 1=  -4.05000  COORD 2=   0.00000
 HAS ENERGY VALUES         -1.1113394181          -0.7167022111          -0.3294015782           0.1032495084 
 H             0.0000000000          0.0000000000          0.0000000000
 H             0.0000000000          0.0000000000          0.9500000000
 ----------------------------------
 ...... END OF ONE-ELECTRON INTEGRALS ......

                         TIMING STATISTICS ON RANK 0:
 CPU        TIME:   STEP =      0.00 ,  TOTAL =        2.3 SECONDS (    0.0 MIN)
 WALL CLOCK TIME:   STEP =      0.01 ,  TOTAL =        3.2 SECONDS (    0.1 MIN)
 CPU UTILIZATION:   STEP =      0.00%,  TOTAL =      70.97%

 LOG10 OF CONDITION NUMBER OF OVERLAP MATRIX IS:  5.46120922E-01
 ...... END OF TWO-ELECTRON INTEGRALS .....

                         TIMING STATISTICS ON RANK 0:
 CPU        TIME:   STEP =      0.00 ,  TOTAL =        2.3 SECONDS (    0.0 MIN)
 WALL CLOCK TIME:   STEP =      0.01 ,  TOTAL =        3.2 SECONDS (    0.1 MIN)
 CPU UTILIZATION:   STEP =      0.00%,  TOTAL =      70.77%

 DIRECT SCF CALCULATION, SCHWRZ=T   FDIFF=F

                                                                                                              NONZERO    BLOCKS
 ITER EX DEM  TOTAL ENERGY      E CHANGE  DENSITY CHANGE    DIIS ERROR      VIR. SHIFT       DAMPING        INTEGRALS   SKIPPED
          * * *   INITIATING DIIS PROCEDURE   * * *
   1  0  0    -1.091914041    -1.091914041   0.000000000   0.000000000     0.000000000     1.000000000              6         0
   2  1  0    -1.091914041     0.000000000   0.000000000   0.000000000     0.000000000     1.000000000              6         0

          -----------------
          DENSITY CONVERGED
          -----------------
     TIME TO FORM FOCK OPERATORS =       0.00 SECONDS (       0.00 SEC/ITER)
     FOCK TIME ON FIRST ITERATION=       0.00, LAST ITERATION=       0.00
     TIME TO SOLVE SCF EQUATIONS =       0.00 SECONDS (       0.00 SEC/ITER)

 FINAL ENERGY IS       -1.0919140413 AFTER   2 ITERATIONS
 ...... END OF RHF CALCULATION ......

                         TIMING STATISTICS ON RANK 0:
 CPU        TIME:   STEP =      0.02 ,  TOTAL =        2.3 SECONDS (    0.0 MIN)
 WALL CLOCK TIME:   STEP =      0.01 ,  TOTAL =        3.2 SECONDS (    0.1 MIN)
 CPU UTILIZATION:   STEP =    150.22%,  TOTAL =      71.11%
 ...... END OF TWO-ELECTRON INTEGRALS .....

 CPU        TIME:   STEP =      0.00 ,  TOTAL =        2.3 SECONDS (    0.0 MIN)
 WALL CLOCK TIME:   STEP =      0.00 ,  TOTAL =        3.2 SECONDS (    0.1 MIN)
 CPU UTILIZATION:   STEP =      0.00%,  TOTAL =      71.07%

 DETERMINANT CI OPTIONS   NRNFG   NPFLG
 INTEGRAL TRANSFORMATION    1      -5
 DIAGONALIZE HAMILTONIAN    1      -5
 FORM 1E- DENSITY MATRIX    1      -5
 FORM 2E- DENSITY MATRIX    0      -5

 ---- SURFACE MAPPING GEOMETRY ----
 COORD 1=  -4.10000  COORD 2=   0.00000
 HAS ENERGY VALUES         -1.1205602818          -0.6828493983          -0.3017060116           0.1758813040 
 H             0.0000000000          0.0000000000          0.0000000000
 H             0.0000000000          0.0000000000          0.9000000000
 ----------------------------------
 ...... END OF ONE-ELECTRON INTEGRALS ......

                         TIMING STATISTICS ON RANK 0:
 CPU        TIME:   STEP =      0.01 ,  TOTAL =        2.3 SECONDS (    0.0 MIN)
 WALL CLOCK TIME:   STEP =      0.01 ,  TOTAL =        3.2 SECONDS (    0.1 MIN)
 CPU UTILIZATION:   STEP =     94.98%,  TOTAL =      71.15%

 LOG10 OF CONDITION NUMBER OF OVERLAP MATRIX IS:  5.86886606E-01
 ...... END OF TWO-ELECTRON INTEGRALS .....

                         TIMING STATISTICS ON RANK 0:
 CPU        TIME:   STEP =      0.00 ,  TOTAL =        2.3 SECONDS (    0.0 MIN)
 WALL CLOCK TIME:   STEP =      0.01 ,  TOTAL =        3.2 SECONDS (    0.1 MIN)
 CPU UTILIZATION:   STEP =      0.00%,  TOTAL =      71.00%

 DIRECT SCF CALCULATION, SCHWRZ=T   FDIFF=F

                                                                                                              NONZERO    BLOCKS
 ITER EX DEM  TOTAL ENERGY      E CHANGE  DENSITY CHANGE    DIIS ERROR      VIR. SHIFT       DAMPING        INTEGRALS   SKIPPED
          * * *   INITIATING DIIS PROCEDURE   * * *
   1  0  0    -1.102510554    -1.102510554   0.000000000   0.000000000     0.000000000     1.000000000              6         0
   2  1  0    -1.102510554     0.000000000   0.000000000   0.000000000     0.000000000     1.000000000              6         0

          -----------------
          DENSITY CONVERGED
          -----------------
     TIME TO FORM FOCK OPERATORS =       0.00 SECONDS (       0.00 SEC/ITER)
     FOCK TIME ON FIRST ITERATION=       0.00, LAST ITERATION=       0.00
     TIME TO SOLVE SCF EQUATIONS =       0.01 SECONDS (       0.01 SEC/ITER)

 FINAL ENERGY IS       -1.1025105542 AFTER   2 ITERATIONS
 ...... END OF RHF CALCULATION ......

                         TIMING STATISTICS ON RANK 0:
 CPU        TIME:   STEP =      0.01 ,  TOTAL =        2.3 SECONDS (    0.0 MIN)
 WALL CLOCK TIME:   STEP =      0.01 ,  TOTAL =        3.2 SECONDS (    0.1 MIN)
 CPU UTILIZATION:   STEP =     75.56%,  TOTAL =      71.02%
 ...... END OF TWO-ELECTRON INTEGRALS .....

 CPU        TIME:   STEP =      0.00 ,  TOTAL =        2.3 SECONDS (    0.0 MIN)
 WALL CLOCK TIME:   STEP =      0.00 ,  TOTAL =        3.2 SECONDS (    0.1 MIN)
 CPU UTILIZATION:   STEP =      0.00%,  TOTAL =      70.99%

 DETERMINANT CI OPTIONS   NRNFG   NPFLG
 INTEGRAL TRANSFORMATION    1      -5
 DIAGONALIZE HAMILTONIAN    1      -5
 FORM 1E- DENSITY MATRIX    1      -5
 FORM 2E- DENSITY MATRIX    0      -5

 ---- SURFACE MAPPING GEOMETRY ----
 COORD 1=  -4.15000  COORD 2=   0.00000
 HAS ENERGY VALUES         -1.1283618787          -0.6433915547          -0.2682678600           0.2583267352 
 H             0.0000000000          0.0000000000          0.0000000000
 H             0.0000000000          0.0000000000          0.8500000000
 ----------------------------------
 ...... END OF ONE-ELECTRON INTEGRALS ......

                         TIMING STATISTICS ON RANK 0:
 CPU        TIME:   STEP =      0.01 ,  TOTAL =        2.3 SECONDS (    0.0 MIN)
 WALL CLOCK TIME:   STEP =      0.01 ,  TOTAL =        3.2 SECONDS (    0.1 MIN)
 CPU UTILIZATION:   STEP =     93.00%,  TOTAL =      71.07%

 LOG10 OF CONDITION NUMBER OF OVERLAP MATRIX IS:  6.30871789E-01
 ...... END OF TWO-ELECTRON INTEGRALS .....

                         TIMING STATISTICS ON RANK 0:
 CPU        TIME:   STEP =      0.00 ,  TOTAL =        2.3 SECONDS (    0.0 MIN)
 WALL CLOCK TIME:   STEP =      0.01 ,  TOTAL =        3.2 SECONDS (    0.1 MIN)
 CPU UTILIZATION:   STEP =      0.00%,  TOTAL =      70.92%

 DIRECT SCF CALCULATION, SCHWRZ=T   FDIFF=F

                                                                                                              NONZERO    BLOCKS
 ITER EX DEM  TOTAL ENERGY      E CHANGE  DENSITY CHANGE    DIIS ERROR      VIR. SHIFT       DAMPING        INTEGRALS   SKIPPED
          * * *   INITIATING DIIS PROCEDURE   * * *
   1  0  0    -1.110850398    -1.110850398   0.000000000   0.000000000     0.000000000     1.000000000              6         0
   2  1  0    -1.110850398     0.000000000   0.000000000   0.000000000     0.000000000     1.000000000              6         0

          -----------------
          DENSITY CONVERGED
          -----------------
     TIME TO FORM FOCK OPERATORS =       0.00 SECONDS (       0.00 SEC/ITER)
     FOCK TIME ON FIRST ITERATION=       0.00, LAST ITERATION=       0.00
     TIME TO SOLVE SCF EQUATIONS =       0.01 SECONDS (       0.01 SEC/ITER)

 FINAL ENERGY IS       -1.1108503977 AFTER   2 ITERATIONS
 ...... END OF RHF CALCULATION ......

                         TIMING STATISTICS ON RANK 0:
 CPU        TIME:   STEP =      0.01 ,  TOTAL =        2.3 SECONDS (    0.0 MIN)
 WALL CLOCK TIME:   STEP =      0.01 ,  TOTAL =        3.3 SECONDS (    0.1 MIN)
 CPU UTILIZATION:   STEP =     76.21%,  TOTAL =      70.94%
 ...... END OF TWO-ELECTRON INTEGRALS .....

 CPU        TIME:   STEP =      0.00 ,  TOTAL =        2.3 SECONDS (    0.0 MIN)
 WALL CLOCK TIME:   STEP =      0.00 ,  TOTAL =        3.3 SECONDS (    0.1 MIN)
 CPU UTILIZATION:   STEP =      0.00%,  TOTAL =      70.91%

 DETERMINANT CI OPTIONS   NRNFG   NPFLG
 INTEGRAL TRANSFORMATION    1      -5
 DIAGONALIZE HAMILTONIAN    1      -5
 FORM 1E- DENSITY MATRIX    1      -5
 FORM 2E- DENSITY MATRIX    0      -5

 ---- SURFACE MAPPING GEOMETRY ----
 COORD 1=  -4.20000  COORD 2=   0.00000
 HAS ENERGY VALUES         -1.1341476668          -0.5971778086          -0.2279242431           0.3522845569 
 H             0.0000000000          0.0000000000          0.0000000000
 H             0.0000000000          0.0000000000          0.8000000000
 ----------------------------------
 ...... END OF ONE-ELECTRON INTEGRALS ......

                         TIMING STATISTICS ON RANK 0:
 CPU        TIME:   STEP =      0.01 ,  TOTAL =        2.3 SECONDS (    0.0 MIN)
 WALL CLOCK TIME:   STEP =      0.01 ,  TOTAL =        3.3 SECONDS (    0.1 MIN)
 CPU UTILIZATION:   STEP =     93.76%,  TOTAL =      70.98%

 LOG10 OF CONDITION NUMBER OF OVERLAP MATRIX IS:  6.78449038E-01
 ...... END OF TWO-ELECTRON INTEGRALS .....

                         TIMING STATISTICS ON RANK 0:
 CPU        TIME:   STEP =      0.01 ,  TOTAL =        2.3 SECONDS (    0.0 MIN)
 WALL CLOCK TIME:   STEP =      0.01 ,  TOTAL =        3.3 SECONDS (    0.1 MIN)
 CPU UTILIZATION:   STEP =    150.67%,  TOTAL =      71.15%

 DIRECT SCF CALCULATION, SCHWRZ=T   FDIFF=F

                                                                                                              NONZERO    BLOCKS
 ITER EX DEM  TOTAL ENERGY      E CHANGE  DENSITY CHANGE    DIIS ERROR      VIR. SHIFT       DAMPING        INTEGRALS   SKIPPED
          * * *   INITIATING DIIS PROCEDURE   * * *
   1  0  0    -1.116151449    -1.116151449   0.000000000   0.000000000     0.000000000     1.000000000              6         0
   2  1  0    -1.116151449     0.000000000   0.000000000   0.000000000     0.000000000     1.000000000              6         0

          -----------------
          DENSITY CONVERGED
          -----------------
     TIME TO FORM FOCK OPERATORS =       0.00 SECONDS (       0.00 SEC/ITER)
     FOCK TIME ON FIRST ITERATION=       0.00, LAST ITERATION=       0.00
     TIME TO SOLVE SCF EQUATIONS =       0.00 SECONDS (       0.00 SEC/ITER)

 FINAL ENERGY IS       -1.1161514491 AFTER   2 ITERATIONS
 ...... END OF RHF CALCULATION ......

                         TIMING STATISTICS ON RANK 0:
 CPU        TIME:   STEP =      0.01 ,  TOTAL =        2.3 SECONDS (    0.0 MIN)
 WALL CLOCK TIME:   STEP =      0.02 ,  TOTAL =        3.3 SECONDS (    0.1 MIN)
 CPU UTILIZATION:   STEP =     60.79%,  TOTAL =      71.09%
 ...... END OF TWO-ELECTRON INTEGRALS .....

 CPU        TIME:   STEP =      0.00 ,  TOTAL =        2.3 SECONDS (    0.0 MIN)
 WALL CLOCK TIME:   STEP =      0.00 ,  TOTAL =        3.3 SECONDS (    0.1 MIN)
 CPU UTILIZATION:   STEP =      0.00%,  TOTAL =      71.06%

 DETERMINANT CI OPTIONS   NRNFG   NPFLG
 INTEGRAL TRANSFORMATION    1      -5
 DIAGONALIZE HAMILTONIAN    1      -5
 FORM 1E- DENSITY MATRIX    1      -5
 FORM 2E- DENSITY MATRIX    0      -5

 ---- SURFACE MAPPING GEOMETRY ----
 COORD 1=  -4.25000  COORD 2=   0.00000
 HAS ENERGY VALUES         -1.1371170674          -0.5427821059          -0.1792390345           0.4598045060 
 H             0.0000000000          0.0000000000          0.0000000000
 H             0.0000000000          0.0000000000          0.7500000000
 ----------------------------------
 ...... END OF ONE-ELECTRON INTEGRALS ......

                         TIMING STATISTICS ON RANK 0:
 CPU        TIME:   STEP =      0.01 ,  TOTAL =        2.4 SECONDS (    0.0 MIN)
 WALL CLOCK TIME:   STEP =      0.02 ,  TOTAL =        3.3 SECONDS (    0.1 MIN)
 CPU UTILIZATION:   STEP =     63.05%,  TOTAL =      71.02%

 LOG10 OF CONDITION NUMBER OF OVERLAP MATRIX IS:  7.30074699E-01
 ...... END OF TWO-ELECTRON INTEGRALS .....

                         TIMING STATISTICS ON RANK 0:
 CPU        TIME:   STEP =      0.00 ,  TOTAL =        2.4 SECONDS (    0.0 MIN)
 WALL CLOCK TIME:   STEP =      0.01 ,  TOTAL =        3.3 SECONDS (    0.1 MIN)
 CPU UTILIZATION:   STEP =      0.00%,  TOTAL =      70.83%

 DIRECT SCF CALCULATION, SCHWRZ=T   FDIFF=F

                                                                                                              NONZERO    BLOCKS
 ITER EX DEM  TOTAL ENERGY      E CHANGE  DENSITY CHANGE    DIIS ERROR      VIR. SHIFT       DAMPING        INTEGRALS   SKIPPED
          * * *   INITIATING DIIS PROCEDURE   * * *
   1  0  0    -1.117349035    -1.117349035   0.000000000   0.000000000     0.000000000     1.000000000              6         0
          * * *    REDUCING  DIIS SUBSPACE    * * *
   2  1  0    -1.117349035     0.000000000   0.000000000   0.000000000     0.000000000     1.000000000              6         0

          -----------------
          DENSITY CONVERGED
          -----------------
     TIME TO FORM FOCK OPERATORS =       0.00 SECONDS (       0.00 SEC/ITER)
     FOCK TIME ON FIRST ITERATION=       0.00, LAST ITERATION=       0.00
     TIME TO SOLVE SCF EQUATIONS =       0.01 SECONDS (       0.00 SEC/ITER)

 FINAL ENERGY IS       -1.1173490350 AFTER   2 ITERATIONS
 ...... END OF RHF CALCULATION ......

                         TIMING STATISTICS ON RANK 0:
 CPU        TIME:   STEP =      0.02 ,  TOTAL =        2.4 SECONDS (    0.0 MIN)
 WALL CLOCK TIME:   STEP =      0.02 ,  TOTAL =        3.3 SECONDS (    0.1 MIN)
 CPU UTILIZATION:   STEP =    117.31%,  TOTAL =      71.07%
 ...... END OF TWO-ELECTRON INTEGRALS .....

 CPU        TIME:   STEP =      0.00 ,  TOTAL =        2.4 SECONDS (    0.0 MIN)
 WALL CLOCK TIME:   STEP =      0.00 ,  TOTAL =        3.3 SECONDS (    0.1 MIN)
 CPU UTILIZATION:   STEP =      0.00%,  TOTAL =      71.01%

 DETERMINANT CI OPTIONS   NRNFG   NPFLG
 INTEGRAL TRANSFORMATION    1      -5
 DIAGONALIZE HAMILTONIAN    1      -5
 FORM 1E- DENSITY MATRIX    1      -5
 FORM 2E- DENSITY MATRIX    0      -5

 ---- SURFACE MAPPING GEOMETRY ----
 COORD 1=  -4.30000  COORD 2=   0.00000
 HAS ENERGY VALUES         -1.1361894542          -0.4784530646          -0.1204519138           0.5833140903 
 H             0.0000000000          0.0000000000          0.0000000000
 H             0.0000000000          0.0000000000          0.7000000000
 ----------------------------------
 ...... END OF ONE-ELECTRON INTEGRALS ......

                         TIMING STATISTICS ON RANK 0:
 CPU        TIME:   STEP =      0.00 ,  TOTAL =        2.4 SECONDS (    0.0 MIN)
 WALL CLOCK TIME:   STEP =      0.02 ,  TOTAL =        3.4 SECONDS (    0.1 MIN)
 CPU UTILIZATION:   STEP =      0.00%,  TOTAL =      70.64%

 LOG10 OF CONDITION NUMBER OF OVERLAP MATRIX IS:  7.86316373E-01
 ...... END OF TWO-ELECTRON INTEGRALS .....

                         TIMING STATISTICS ON RANK 0:
 CPU        TIME:   STEP =      0.01 ,  TOTAL =        2.4 SECONDS (    0.0 MIN)
 WALL CLOCK TIME:   STEP =      0.01 ,  TOTAL =        3.4 SECONDS (    0.1 MIN)
 CPU UTILIZATION:   STEP =     72.47%,  TOTAL =      70.65%

 DIRECT SCF CALCULATION, SCHWRZ=T   FDIFF=F

                                                                                                              NONZERO    BLOCKS
 ITER EX DEM  TOTAL ENERGY      E CHANGE  DENSITY CHANGE    DIIS ERROR      VIR. SHIFT       DAMPING        INTEGRALS   SKIPPED
          * * *   INITIATING DIIS PROCEDURE   * * *
   1  0  0    -1.112996546    -1.112996546   0.000000000   0.000000000     0.000000000     1.000000000              6         0
   2  1  0    -1.112996546     0.000000000   0.000000000   0.000000000     0.000000000     1.000000000              6         0

          -----------------
          DENSITY CONVERGED
          -----------------
     TIME TO FORM FOCK OPERATORS =       0.02 SECONDS (       0.01 SEC/ITER)
     FOCK TIME ON FIRST ITERATION=       0.00, LAST ITERATION=       0.02
     TIME TO SOLVE SCF EQUATIONS =       0.00 SECONDS (       0.00 SEC/ITER)

 FINAL ENERGY IS       -1.1129965456 AFTER   2 ITERATIONS
 ...... END OF RHF CALCULATION ......

                         TIMING STATISTICS ON RANK 0:
 CPU        TIME:   STEP =      0.02 ,  TOTAL =        2.4 SECONDS (    0.0 MIN)
 WALL CLOCK TIME:   STEP =      0.02 ,  TOTAL =        3.4 SECONDS (    0.1 MIN)
 CPU UTILIZATION:   STEP =     87.00%,  TOTAL =      70.76%
 ...... END OF TWO-ELECTRON INTEGRALS .....

 CPU        TIME:   STEP =      0.00 ,  TOTAL =        2.4 SECONDS (    0.0 MIN)
 WALL CLOCK TIME:   STEP =      0.00 ,  TOTAL =        3.4 SECONDS (    0.1 MIN)
 CPU UTILIZATION:   STEP =      0.00%,  TOTAL =      70.72%

 DETERMINANT CI OPTIONS   NRNFG   NPFLG
 INTEGRAL TRANSFORMATION    1      -5
 DIAGONALIZE HAMILTONIAN    1      -5
 FORM 1E- DENSITY MATRIX    1      -5
 FORM 2E- DENSITY MATRIX    0      -5

 ---- SURFACE MAPPING GEOMETRY ----
 COORD 1=  -4.35000  COORD 2=   0.00000
 HAS ENERGY VALUES         -1.1299047842          -0.4020520105          -0.0494151087           0.7256453519 
 H             0.0000000000          0.0000000000          0.0000000000
 H             0.0000000000          0.0000000000          0.6500000000
 ----------------------------------
 ...... END OF ONE-ELECTRON INTEGRALS ......

                         TIMING STATISTICS ON RANK 0:
 CPU        TIME:   STEP =      0.01 ,  TOTAL =        2.4 SECONDS (    0.0 MIN)
 WALL CLOCK TIME:   STEP =      0.02 ,  TOTAL =        3.4 SECONDS (    0.1 MIN)
 CPU UTILIZATION:   STEP =     61.66%,  TOTAL =      70.68%

 LOG10 OF CONDITION NUMBER OF OVERLAP MATRIX IS:  8.47890291E-01
 ...... END OF TWO-ELECTRON INTEGRALS .....

                         TIMING STATISTICS ON RANK 0:
 CPU        TIME:   STEP =      0.00 ,  TOTAL =        2.4 SECONDS (    0.0 MIN)
 WALL CLOCK TIME:   STEP =      0.01 ,  TOTAL =        3.4 SECONDS (    0.1 MIN)
 CPU UTILIZATION:   STEP =      0.00%,  TOTAL =      70.53%

 DIRECT SCF CALCULATION, SCHWRZ=T   FDIFF=F

                                                                                                              NONZERO    BLOCKS
 ITER EX DEM  TOTAL ENERGY      E CHANGE  DENSITY CHANGE    DIIS ERROR      VIR. SHIFT       DAMPING        INTEGRALS   SKIPPED
          * * *   INITIATING DIIS PROCEDURE   * * *
   1  0  0    -1.101128242    -1.101128242   0.000000000   0.000000000     0.000000000     1.000000000              6         0
   2  1  0    -1.101128242     0.000000000   0.000000000   0.000000000     0.000000000     1.000000000              6         0

          -----------------
          DENSITY CONVERGED
          -----------------
     TIME TO FORM FOCK OPERATORS =       0.00 SECONDS (       0.00 SEC/ITER)
     FOCK TIME ON FIRST ITERATION=       0.00, LAST ITERATION=       0.00
     TIME TO SOLVE SCF EQUATIONS =       0.00 SECONDS (       0.00 SEC/ITER)

 FINAL ENERGY IS       -1.1011282421 AFTER   2 ITERATIONS
 ...... END OF RHF CALCULATION ......

                         TIMING STATISTICS ON RANK 0:
 CPU        TIME:   STEP =      0.01 ,  TOTAL =        2.4 SECONDS (    0.0 MIN)
 WALL CLOCK TIME:   STEP =      0.01 ,  TOTAL =        3.4 SECONDS (    0.1 MIN)
 CPU UTILIZATION:   STEP =     72.34%,  TOTAL =      70.53%
 ...... END OF TWO-ELECTRON INTEGRALS .....

 CPU        TIME:   STEP =      0.00 ,  TOTAL =        2.4 SECONDS (    0.0 MIN)
 WALL CLOCK TIME:   STEP =      0.00 ,  TOTAL =        3.4 SECONDS (    0.1 MIN)
 CPU UTILIZATION:   STEP =      0.00%,  TOTAL =      70.50%

 DETERMINANT CI OPTIONS   NRNFG   NPFLG
 INTEGRAL TRANSFORMATION    1      -5
 DIAGONALIZE HAMILTONIAN    1      -5
 FORM 1E- DENSITY MATRIX    1      -5
 FORM 2E- DENSITY MATRIX    0      -5

 ---- SURFACE MAPPING GEOMETRY ----
 COORD 1=  -4.40000  COORD 2=   0.00000
 HAS ENERGY VALUES         -1.1162860065          -0.3109601029           0.0365011829           0.8900846405 
 H             0.0000000000          0.0000000000          0.0000000000
 H             0.0000000000          0.0000000000          0.6000000000
 ----------------------------------
 ...... END OF ONE-ELECTRON INTEGRALS ......

                         TIMING STATISTICS ON RANK 0:
 CPU        TIME:   STEP =      0.01 ,  TOTAL =        2.4 SECONDS (    0.0 MIN)
 WALL CLOCK TIME:   STEP =      0.01 ,  TOTAL =        3.4 SECONDS (    0.1 MIN)
 CPU UTILIZATION:   STEP =     87.70%,  TOTAL =      70.56%

 LOG10 OF CONDITION NUMBER OF OVERLAP MATRIX IS:  9.15713141E-01
 ...... END OF TWO-ELECTRON INTEGRALS .....

                         TIMING STATISTICS ON RANK 0:
 CPU        TIME:   STEP =      0.01 ,  TOTAL =        2.4 SECONDS (    0.0 MIN)
 WALL CLOCK TIME:   STEP =      0.01 ,  TOTAL =        3.5 SECONDS (    0.1 MIN)
 CPU UTILIZATION:   STEP =    149.48%,  TOTAL =      70.71%

 DIRECT SCF CALCULATION, SCHWRZ=T   FDIFF=F

                                                                                                              NONZERO    BLOCKS
 ITER EX DEM  TOTAL ENERGY      E CHANGE  DENSITY CHANGE    DIIS ERROR      VIR. SHIFT       DAMPING        INTEGRALS   SKIPPED
          * * *   INITIATING DIIS PROCEDURE   * * *
   1  0  0    -1.079050736    -1.079050736   0.000000000   0.000000000     0.000000000     1.000000000              6         0
   2  1  0    -1.079050736     0.000000000   0.000000000   0.000000000     0.000000000     1.000000000              6         0

          -----------------
          DENSITY CONVERGED
          -----------------
     TIME TO FORM FOCK OPERATORS =       0.00 SECONDS (       0.00 SEC/ITER)
     FOCK TIME ON FIRST ITERATION=       0.00, LAST ITERATION=       0.00
     TIME TO SOLVE SCF EQUATIONS =       0.00 SECONDS (       0.00 SEC/ITER)

 FINAL ENERGY IS       -1.0790507358 AFTER   2 ITERATIONS
 ...... END OF RHF CALCULATION ......

                         TIMING STATISTICS ON RANK 0:
 CPU        TIME:   STEP =      0.01 ,  TOTAL =        2.4 SECONDS (    0.0 MIN)
 WALL CLOCK TIME:   STEP =      0.01 ,  TOTAL =        3.5 SECONDS (    0.1 MIN)
 CPU UTILIZATION:   STEP =     70.84%,  TOTAL =      70.71%
 ...... END OF TWO-ELECTRON INTEGRALS .....

 CPU        TIME:   STEP =      0.00 ,  TOTAL =        2.4 SECONDS (    0.0 MIN)
 WALL CLOCK TIME:   STEP =      0.00 ,  TOTAL =        3.5 SECONDS (    0.1 MIN)
 CPU UTILIZATION:   STEP =      0.00%,  TOTAL =      70.68%

 DETERMINANT CI OPTIONS   NRNFG   NPFLG
 INTEGRAL TRANSFORMATION    1      -5
 DIAGONALIZE HAMILTONIAN    1      -5
 FORM 1E- DENSITY MATRIX    1      -5
 FORM 2E- DENSITY MATRIX    0      -5

 ---- SURFACE MAPPING GEOMETRY ----
 COORD 1=  -4.45000  COORD 2=   0.00000
 HAS ENERGY VALUES         -1.0926299065          -0.2019184041           0.1405706298           1.0804835276 
 H             0.0000000000          0.0000000000          0.0000000000
 H             0.0000000000          0.0000000000          0.5500000000
 ----------------------------------
 ...... END OF ONE-ELECTRON INTEGRALS ......

                         TIMING STATISTICS ON RANK 0:
 CPU        TIME:   STEP =      0.00 ,  TOTAL =        2.4 SECONDS (    0.0 MIN)
 WALL CLOCK TIME:   STEP =      0.01 ,  TOTAL =        3.5 SECONDS (    0.1 MIN)
 CPU UTILIZATION:   STEP =      0.00%,  TOTAL =      70.45%

 LOG10 OF CONDITION NUMBER OF OVERLAP MATRIX IS:  9.90976160E-01
 ...... END OF TWO-ELECTRON INTEGRALS .....

                         TIMING STATISTICS ON RANK 0:
 CPU        TIME:   STEP =      0.01 ,  TOTAL =        2.5 SECONDS (    0.0 MIN)
 WALL CLOCK TIME:   STEP =      0.01 ,  TOTAL =        3.5 SECONDS (    0.1 MIN)
 CPU UTILIZATION:   STEP =    147.58%,  TOTAL =      70.60%

 DIRECT SCF CALCULATION, SCHWRZ=T   FDIFF=F

                                                                                                              NONZERO    BLOCKS
 ITER EX DEM  TOTAL ENERGY      E CHANGE  DENSITY CHANGE    DIIS ERROR      VIR. SHIFT       DAMPING        INTEGRALS   SKIPPED
          * * *   INITIATING DIIS PROCEDURE   * * *
   1  0  0    -1.042996274    -1.042996274   0.000000000   0.000000000     0.000000000     1.000000000              6         0
   2  1  0    -1.042996274     0.000000000   0.000000000   0.000000000     0.000000000     1.000000000              6         0

          -----------------
          DENSITY CONVERGED
          -----------------
     TIME TO FORM FOCK OPERATORS =       0.00 SECONDS (       0.00 SEC/ITER)
     FOCK TIME ON FIRST ITERATION=       0.00, LAST ITERATION=       0.00
     TIME TO SOLVE SCF EQUATIONS =       0.01 SECONDS (       0.00 SEC/ITER)

 FINAL ENERGY IS       -1.0429962740 AFTER   2 ITERATIONS
 ...... END OF RHF CALCULATION ......

                         TIMING STATISTICS ON RANK 0:
 CPU        TIME:   STEP =      0.01 ,  TOTAL =        2.5 SECONDS (    0.0 MIN)
 WALL CLOCK TIME:   STEP =      0.02 ,  TOTAL =        3.5 SECONDS (    0.1 MIN)
 CPU UTILIZATION:   STEP =     57.96%,  TOTAL =      70.54%
 ...... END OF TWO-ELECTRON INTEGRALS .....

 CPU        TIME:   STEP =      0.00 ,  TOTAL =        2.5 SECONDS (    0.0 MIN)
 WALL CLOCK TIME:   STEP =      0.00 ,  TOTAL =        3.5 SECONDS (    0.1 MIN)
 CPU UTILIZATION:   STEP =      0.00%,  TOTAL =      70.51%

 DETERMINANT CI OPTIONS   NRNFG   NPFLG
 INTEGRAL TRANSFORMATION    1      -5
 DIAGONALIZE HAMILTONIAN    1      -5
 FORM 1E- DENSITY MATRIX    1      -5
 FORM 2E- DENSITY MATRIX    0      -5

 ---- SURFACE MAPPING GEOMETRY ----
 COORD 1=  -4.50000  COORD 2=   0.00000
 HAS ENERGY VALUES         -1.0551597942          -0.0707401292           0.2670003258           1.3014857063 
 H             0.0000000000          0.0000000000          0.0000000000
 H             0.0000000000          0.0000000000          0.5000000000
 ----------------------------------
 ...... END OF ONE-ELECTRON INTEGRALS ......

                         TIMING STATISTICS ON RANK 0:
 CPU        TIME:   STEP =      0.01 ,  TOTAL =        2.5 SECONDS (    0.0 MIN)
 WALL CLOCK TIME:   STEP =      0.01 ,  TOTAL =        3.5 SECONDS (    0.1 MIN)
 CPU UTILIZATION:   STEP =     88.14%,  TOTAL =      70.56%

 LOG10 OF CONDITION NUMBER OF OVERLAP MATRIX IS:  1.07525551E+00
 ...... END OF TWO-ELECTRON INTEGRALS .....

                         TIMING STATISTICS ON RANK 0:
 CPU        TIME:   STEP =      0.00 ,  TOTAL =        2.5 SECONDS (    0.0 MIN)
 WALL CLOCK TIME:   STEP =      0.01 ,  TOTAL =        3.5 SECONDS (    0.1 MIN)
 CPU UTILIZATION:   STEP =      0.00%,  TOTAL =      70.43%

 DIRECT SCF CALCULATION, SCHWRZ=T   FDIFF=F

                                                                                                              NONZERO    BLOCKS
 ITER EX DEM  TOTAL ENERGY      E CHANGE  DENSITY CHANGE    DIIS ERROR      VIR. SHIFT       DAMPING        INTEGRALS   SKIPPED
          * * *   INITIATING DIIS PROCEDURE   * * *
   1  0  0    -0.987513137    -0.987513137   0.000000000   0.000000000     0.000000000     1.000000000              6         0
   2  1  0    -0.987513137     0.000000000   0.000000000   0.000000000     0.000000000     1.000000000              6         0

          -----------------
          DENSITY CONVERGED
          -----------------
     TIME TO FORM FOCK OPERATORS =       0.00 SECONDS (       0.00 SEC/ITER)
     FOCK TIME ON FIRST ITERATION=       0.00, LAST ITERATION=       0.00
     TIME TO SOLVE SCF EQUATIONS =       0.01 SECONDS (       0.00 SEC/ITER)

 FINAL ENERGY IS       -0.9875131370 AFTER   2 ITERATIONS
 ...... END OF RHF CALCULATION ......

                         TIMING STATISTICS ON RANK 0:
 CPU        TIME:   STEP =      0.02 ,  TOTAL =        2.5 SECONDS (    0.0 MIN)
 WALL CLOCK TIME:   STEP =      0.01 ,  TOTAL =        3.5 SECONDS (    0.1 MIN)
 CPU UTILIZATION:   STEP =    142.12%,  TOTAL =      70.71%
 ...... END OF TWO-ELECTRON INTEGRALS .....

 CPU        TIME:   STEP =      0.00 ,  TOTAL =        2.5 SECONDS (    0.0 MIN)
 WALL CLOCK TIME:   STEP =      0.00 ,  TOTAL =        3.5 SECONDS (    0.1 MIN)
 CPU UTILIZATION:   STEP =      0.00%,  TOTAL =      70.68%

 DETERMINANT CI OPTIONS   NRNFG   NPFLG
 INTEGRAL TRANSFORMATION    1      -5
 DIAGONALIZE HAMILTONIAN    1      -5
 FORM 1E- DENSITY MATRIX    1      -5
 FORM 2E- DENSITY MATRIX    0      -5

 ---- SURFACE MAPPING GEOMETRY ----
 COORD 1=  -4.55000  COORD 2=   0.00000
 HAS ENERGY VALUES         -0.9984155954           0.0882066033           0.4214494052           1.5589483992 
 H             0.0000000000          0.0000000000          0.0000000000
 H             0.0000000000          0.0000000000          0.4500000000
 ----------------------------------
 ...... END OF ONE-ELECTRON INTEGRALS ......

                         TIMING STATISTICS ON RANK 0:
 CPU        TIME:   STEP =      0.00 ,  TOTAL =        2.5 SECONDS (    0.0 MIN)
 WALL CLOCK TIME:   STEP =      0.01 ,  TOTAL =        3.5 SECONDS (    0.1 MIN)
 CPU UTILIZATION:   STEP =      0.00%,  TOTAL =      70.46%

 LOG10 OF CONDITION NUMBER OF OVERLAP MATRIX IS:  1.17068514E+00
 ...... END OF TWO-ELECTRON INTEGRALS .....

                         TIMING STATISTICS ON RANK 0:
 CPU        TIME:   STEP =      0.01 ,  TOTAL =        2.5 SECONDS (    0.0 MIN)
 WALL CLOCK TIME:   STEP =      0.01 ,  TOTAL =        3.6 SECONDS (    0.1 MIN)
 CPU UTILIZATION:   STEP =    149.59%,  TOTAL =      70.61%

 DIRECT SCF CALCULATION, SCHWRZ=T   FDIFF=F

                                                                                                              NONZERO    BLOCKS
 ITER EX DEM  TOTAL ENERGY      E CHANGE  DENSITY CHANGE    DIIS ERROR      VIR. SHIFT       DAMPING        INTEGRALS   SKIPPED
          * * *   INITIATING DIIS PROCEDURE   * * *
   1  0  0    -0.904361393    -0.904361393   0.000000000   0.000000000     0.000000000     1.000000000              6         0
   2  1  0    -0.904361393     0.000000000   0.000000000   0.000000000     0.000000000     1.000000000              6         0

          -----------------
          DENSITY CONVERGED
          -----------------
     TIME TO FORM FOCK OPERATORS =       0.00 SECONDS (       0.00 SEC/ITER)
     FOCK TIME ON FIRST ITERATION=       0.00, LAST ITERATION=       0.00
     TIME TO SOLVE SCF EQUATIONS =       0.00 SECONDS (       0.00 SEC/ITER)

 FINAL ENERGY IS       -0.9043613933 AFTER   2 ITERATIONS
 ...... END OF RHF CALCULATION ......

                         TIMING STATISTICS ON RANK 0:
 CPU        TIME:   STEP =      0.01 ,  TOTAL =        2.5 SECONDS (    0.0 MIN)
 WALL CLOCK TIME:   STEP =      0.01 ,  TOTAL =        3.6 SECONDS (    0.1 MIN)
 CPU UTILIZATION:   STEP =     71.76%,  TOTAL =      70.62%
 ...... END OF TWO-ELECTRON INTEGRALS .....

 CPU        TIME:   STEP =      0.00 ,  TOTAL =        2.5 SECONDS (    0.0 MIN)
 WALL CLOCK TIME:   STEP =      0.00 ,  TOTAL =        3.6 SECONDS (    0.1 MIN)
 CPU UTILIZATION:   STEP =      0.00%,  TOTAL =      70.59%

 DETERMINANT CI OPTIONS   NRNFG   NPFLG
 INTEGRAL TRANSFORMATION    1      -5
 DIAGONALIZE HAMILTONIAN    1      -5
 FORM 1E- DENSITY MATRIX    1      -5
 FORM 2E- DENSITY MATRIX    0      -5

 ---- SURFACE MAPPING GEOMETRY ----
 COORD 1=  -4.60000  COORD 2=   0.00000
 HAS ENERGY VALUES         -0.9141497036           0.2829340826           0.6119649295           1.8607045543 
 H             0.0000000000          0.0000000000          0.0000000000
 H             0.0000000000          0.0000000000          0.4000000000
 ----------------------------------


                    INTERSTATE MINIMUM ENERGY SEPARATION DATA

 STATES   1   2: MIN SEPARATION IS   0.0000000799 (ICOORD1=    1, ICOORD2=    1)
 STATES   1   3: MIN SEPARATION IS   0.5405762466 (ICOORD1=   64, ICOORD2=    1)
 STATES   1   4: MIN SEPARATION IS   0.5667227272 (ICOORD1=   57, ICOORD2=    1)
 STATES   2   3: MIN SEPARATION IS   0.3290308469 (ICOORD1=   93, ICOORD2=    1)
 STATES   2   4: MIN SEPARATION IS   0.5476649998 (ICOORD1=   62, ICOORD2=    1)
 STATES   3   4: MIN SEPARATION IS   0.0000001018 (ICOORD1=    1, ICOORD2=    1)


 OVERALL RESULTS OF THE POTENTIAL SURFACE SCAN


          RESULTS FOR STATE NUMBER   1

 ------------------------------------
   ICOORD1,     |
    COORD1      |       ENERGY
 ---------------+--------------------
  1 (   0.00000)|       -0.9331637636  
  2 (  -0.05000)|       -0.9331637824  
  3 (  -0.10000)|       -0.9331638066  
  4 (  -0.15000)|       -0.9331638375  
  5 (  -0.20000)|       -0.9331638771  
  6 (  -0.25000)|       -0.9331639276  
  7 (  -0.30000)|       -0.9331639918  
  8 (  -0.35000)|       -0.9331640733  
  9 (  -0.40000)|       -0.9331641766  
 10 (  -0.45000)|       -0.9331643071  
 11 (  -0.50000)|       -0.9331644717  
 12 (  -0.55000)|       -0.9331646791  
 13 (  -0.60000)|       -0.9331649396  
 14 (  -0.65000)|       -0.9331652664  
 15 (  -0.70000)|       -0.9331656756  
 16 (  -0.75000)|       -0.9331661871  
 17 (  -0.80000)|       -0.9331668255  
 18 (  -0.85000)|       -0.9331676209  
 19 (  -0.90000)|       -0.9331686103  
 20 (  -0.95000)|       -0.9331698393  
 21 (  -1.00000)|       -0.9331713635  
 22 (  -1.05000)|       -0.9331732509  
 23 (  -1.10000)|       -0.9331755847  
 24 (  -1.15000)|       -0.9331784661  
 25 (  -1.20000)|       -0.9331820184  
 26 (  -1.25000)|       -0.9331863912  
 27 (  -1.30000)|       -0.9331917658  
 28 (  -1.35000)|       -0.9331983616  
 29 (  -1.40000)|       -0.9332064436  
 30 (  -1.45000)|       -0.9332163309  
 31 (  -1.50000)|       -0.9332284072  
 32 (  -1.55000)|       -0.9332431329  
 33 (  -1.60000)|       -0.9332610591  
 34 (  -1.65000)|       -0.9332828445  
 35 (  -1.70000)|       -0.9333092741  
 36 (  -1.75000)|       -0.9333412824  
 37 (  -1.80000)|       -0.9333799790  
 38 (  -1.85000)|       -0.9334266797  
 39 (  -1.90000)|       -0.9334829420  
 40 (  -1.95000)|       -0.9335506066  
 41 (  -2.00000)|       -0.9336318462  
 42 (  -2.05000)|       -0.9337292225  
 43 (  -2.10000)|       -0.9338457524  
 44 (  -2.15000)|       -0.9339849860  
 45 (  -2.20000)|       -0.9341510973  
 46 (  -2.25000)|       -0.9343489893  
 47 (  -2.30000)|       -0.9345844175  
 48 (  -2.35000)|       -0.9348641305  
 49 (  -2.40000)|       -0.9351960324  
 50 (  -2.45000)|       -0.9355893666  
 51 (  -2.50000)|       -0.9360549215  
 52 (  -2.55000)|       -0.9366052579  
 53 (  -2.60000)|       -0.9372549545  
 54 (  -2.65000)|       -0.9380208662  
 55 (  -2.70000)|       -0.9389223875  
 56 (  -2.75000)|       -0.9399817067  
 57 (  -2.80000)|       -0.9412240351  
 58 (  -2.85000)|       -0.9426777871  
 59 (  -2.90000)|       -0.9443746825  
 60 (  -2.95000)|       -0.9463497387  
 61 (  -3.00000)|       -0.9486411135  
 62 (  -3.05000)|       -0.9512897601  
 63 (  -3.10000)|       -0.9543388552  
 64 (  -3.15000)|       -0.9578329691  
 65 (  -3.20000)|       -0.9618169540  
 66 (  -3.25000)|       -0.9663345461  
 67 (  -3.30000)|       -0.9714266896  
 68 (  -3.35000)|       -0.9771296172  
 69 (  -3.40000)|       -0.9834727301  
 70 (  -3.45000)|       -0.9904763420  
 71 (  -3.50000)|       -0.9981493544  
 72 (  -3.55000)|       -1.0064869327  
 73 (  -3.60000)|       -1.0154682502  
 74 (  -3.65000)|       -1.0250543633  
 75 (  -3.70000)|       -1.0351862672  
 76 (  -3.75000)|       -1.0457831453  
 77 (  -3.80000)|       -1.0567407468  
 78 (  -3.85000)|       -1.0679296595  
 79 (  -3.90000)|       -1.0791929454  
 80 (  -3.95000)|       -1.0903421768  
 81 (  -4.00000)|       -1.1011503307  
 82 (  -4.05000)|       -1.1113394181  
 83 (  -4.10000)|       -1.1205602818  
 84 (  -4.15000)|       -1.1283618787  
 85 (  -4.20000)|       -1.1341476668  
 86 (  -4.25000)|       -1.1371170674  
 87 (  -4.30000)|       -1.1361894542  
 88 (  -4.35000)|       -1.1299047842  
 89 (  -4.40000)|       -1.1162860065  
 90 (  -4.45000)|       -1.0926299065  
 91 (  -4.50000)|       -1.0551597942  
 92 (  -4.55000)|       -0.9984155954  
 93 (  -4.60000)|       -0.9141497036  

          RESULTS FOR STATE NUMBER   2

 ------------------------------------
   ICOORD1,     |
    COORD1      |       ENERGY
 ---------------+--------------------
  1 (   0.00000)|       -0.9331636837  
  2 (  -0.05000)|       -0.9331636783  
  3 (  -0.10000)|       -0.9331636711  
  4 (  -0.15000)|       -0.9331636618  
  5 (  -0.20000)|       -0.9331636496  
  6 (  -0.25000)|       -0.9331636339  
  7 (  -0.30000)|       -0.9331636135  
  8 (  -0.35000)|       -0.9331635872  
  9 (  -0.40000)|       -0.9331635533  
 10 (  -0.45000)|       -0.9331635098  
 11 (  -0.50000)|       -0.9331634539  
 12 (  -0.55000)|       -0.9331633823  
 13 (  -0.60000)|       -0.9331632910  
 14 (  -0.65000)|       -0.9331631745  
 15 (  -0.70000)|       -0.9331630262  
 16 (  -0.75000)|       -0.9331628379  
 17 (  -0.80000)|       -0.9331625992  
 18 (  -0.85000)|       -0.9331622971  
 19 (  -0.90000)|       -0.9331619155  
 20 (  -0.95000)|       -0.9331614343  
 21 (  -1.00000)|       -0.9331608284  
 22 (  -1.05000)|       -0.9331600670  
 23 (  -1.10000)|       -0.9331591118  
 24 (  -1.15000)|       -0.9331579153  
 25 (  -1.20000)|       -0.9331564194  
 26 (  -1.25000)|       -0.9331545521  
 27 (  -1.30000)|       -0.9331522256  
 28 (  -1.35000)|       -0.9331493317  
 29 (  -1.40000)|       -0.9331457388  
 30 (  -1.45000)|       -0.9331412860  
 31 (  -1.50000)|       -0.9331357780  
 32 (  -1.55000)|       -0.9331289776  
 33 (  -1.60000)|       -0.9331205979  
 34 (  -1.65000)|       -0.9331102925  
 35 (  -1.70000)|       -0.9330976444  
 36 (  -1.75000)|       -0.9330821529  
 37 (  -1.80000)|       -0.9330632181  
 38 (  -1.85000)|       -0.9330401232  
 39 (  -1.90000)|       -0.9330120136  
 40 (  -1.95000)|       -0.9329778729  
 41 (  -2.00000)|       -0.9329364950  
 42 (  -2.05000)|       -0.9328864510  
 43 (  -2.10000)|       -0.9328260520  
 44 (  -2.15000)|       -0.9327533048  
 45 (  -2.20000)|       -0.9326658609  
 46 (  -2.25000)|       -0.9325609570  
 47 (  -2.30000)|       -0.9324353461  
 48 (  -2.35000)|       -0.9322852171  
 49 (  -2.40000)|       -0.9321061018  
 50 (  -2.45000)|       -0.9318927667  
 51 (  -2.50000)|       -0.9316390885  
 52 (  -2.55000)|       -0.9313379098  
 53 (  -2.60000)|       -0.9309808739  
 54 (  -2.65000)|       -0.9305582347  
 55 (  -2.70000)|       -0.9300586403  
 56 (  -2.75000)|       -0.9294688866  
 57 (  -2.80000)|       -0.9287736369  
 58 (  -2.85000)|       -0.9279551044  
 59 (  -2.90000)|       -0.9269926939  
 60 (  -2.95000)|       -0.9258625947  
 61 (  -3.00000)|       -0.9245373212  
 62 (  -3.05000)|       -0.9229851912  
 63 (  -3.10000)|       -0.9211697354  
 64 (  -3.15000)|       -0.9190490248  
 65 (  -3.20000)|       -0.9165749086  
 66 (  -3.25000)|       -0.9136921478  
 67 (  -3.30000)|       -0.9103374356  
 68 (  -3.35000)|       -0.9064382916  
 69 (  -3.40000)|       -0.9019118220  
 70 (  -3.45000)|       -0.8966633332  
 71 (  -3.50000)|       -0.8905847840  
 72 (  -3.55000)|       -0.8835530501  
 73 (  -3.60000)|       -0.8754279418  
 74 (  -3.65000)|       -0.8660498681  
 75 (  -3.70000)|       -0.8552369438  
 76 (  -3.75000)|       -0.8427811995  
 77 (  -3.80000)|       -0.8284433499  
 78 (  -3.85000)|       -0.8119453505  
 79 (  -3.90000)|       -0.7929597016  
 80 (  -3.95000)|       -0.7710943208  
 81 (  -4.00000)|       -0.7458717980  
 82 (  -4.05000)|       -0.7167022111  
 83 (  -4.10000)|       -0.6828493983  
 84 (  -4.15000)|       -0.6433915547  
 85 (  -4.20000)|       -0.5971778086  
 86 (  -4.25000)|       -0.5427821059  
 87 (  -4.30000)|       -0.4784530646  
 88 (  -4.35000)|       -0.4020520105  
 89 (  -4.40000)|       -0.3109601029  
 90 (  -4.45000)|       -0.2019184041  
 91 (  -4.50000)|       -0.0707401292  
 92 (  -4.55000)|        0.0882066033  
 93 (  -4.60000)|        0.2829340826  

          RESULTS FOR STATE NUMBER   3

 ------------------------------------
   ICOORD1,     |
    COORD1      |       ENERGY
 ---------------+--------------------
  1 (   0.00000)|       -0.2643931737  
  2 (  -0.05000)|       -0.2654622103  
  3 (  -0.10000)|       -0.2665530615  
  4 (  -0.15000)|       -0.2676664013  
  5 (  -0.20000)|       -0.2688029314  
  6 (  -0.25000)|       -0.2699633831  
  7 (  -0.30000)|       -0.2711485182  
  8 (  -0.35000)|       -0.2723591311  
  9 (  -0.40000)|       -0.2735960500  
 10 (  -0.45000)|       -0.2748601390  
 11 (  -0.50000)|       -0.2761522996  
 12 (  -0.55000)|       -0.2774734731  
 13 (  -0.60000)|       -0.2788246418  
 14 (  -0.65000)|       -0.2802068320  
 15 (  -0.70000)|       -0.2816211155  
 16 (  -0.75000)|       -0.2830686117  
 17 (  -0.80000)|       -0.2845504907  
 18 (  -0.85000)|       -0.2860679745  
 19 (  -0.90000)|       -0.2876223401  
 20 (  -0.95000)|       -0.2892149216  
 21 (  -1.00000)|       -0.2908471122  
 22 (  -1.05000)|       -0.2925203665  
 23 (  -1.10000)|       -0.2942362027  
 24 (  -1.15000)|       -0.2959962039  
 25 (  -1.20000)|       -0.2978020201  
 26 (  -1.25000)|       -0.2996553688  
 27 (  -1.30000)|       -0.3015580359  
 28 (  -1.35000)|       -0.3035118754  
 29 (  -1.40000)|       -0.3055188088  
 30 (  -1.45000)|       -0.3075808227  
 31 (  -1.50000)|       -0.3096999662  
 32 (  -1.55000)|       -0.3118783461  
 33 (  -1.60000)|       -0.3141181207  
 34 (  -1.65000)|       -0.3164214915  
 35 (  -1.70000)|       -0.3187906925  
 36 (  -1.75000)|       -0.3212279768  
 37 (  -1.80000)|       -0.3237356000  
 38 (  -1.85000)|       -0.3263157995  
 39 (  -1.90000)|       -0.3289707702  
 40 (  -1.95000)|       -0.3317026346  
 41 (  -2.00000)|       -0.3345134081  
 42 (  -2.05000)|       -0.3374049570  
 43 (  -2.10000)|       -0.3403789500  
 44 (  -2.15000)|       -0.3434368011  
 45 (  -2.20000)|       -0.3465796033  
 46 (  -2.25000)|       -0.3498080512  
 47 (  -2.30000)|       -0.3531223524  
 48 (  -2.35000)|       -0.3565221248  
 49 (  -2.40000)|       -0.3600062780  
 50 (  -2.45000)|       -0.3635728788  
 51 (  -2.50000)|       -0.3672189963  
 52 (  -2.55000)|       -0.3709405255  
 53 (  -2.60000)|       -0.3747319874  
 54 (  -2.65000)|       -0.3785863021  
 55 (  -2.70000)|       -0.3824945319  
 56 (  -2.75000)|       -0.3864455922  
 57 (  -2.80000)|       -0.3904259249  
 58 (  -2.85000)|       -0.3944191319  
 59 (  -2.90000)|       -0.3984055618  
 60 (  -2.95000)|       -0.4023618452  
 61 (  -3.00000)|       -0.4062603715  
 62 (  -3.05000)|       -0.4100686973  
 63 (  -3.10000)|       -0.4137488800  
 64 (  -3.15000)|       -0.4172567225  
 65 (  -3.20000)|       -0.4205409220  
 66 (  -3.25000)|       -0.4235421073  
 67 (  -3.30000)|       -0.4261917590  
 68 (  -3.35000)|       -0.4284109999  
 69 (  -3.40000)|       -0.4301092517  
 70 (  -3.45000)|       -0.4311827505  
 71 (  -3.50000)|       -0.4315129126  
 72 (  -3.55000)|       -0.4309645322  
 73 (  -3.60000)|       -0.4293837645  
 74 (  -3.65000)|       -0.4265957974  
 75 (  -3.70000)|       -0.4224020256  
 76 (  -3.75000)|       -0.4165763977  
 77 (  -3.80000)|       -0.4088604139  
 78 (  -3.85000)|       -0.3989560019  
 79 (  -3.90000)|       -0.3865152496  
 80 (  -3.95000)|       -0.3711257890  
 81 (  -4.00000)|       -0.3522906322  
 82 (  -4.05000)|       -0.3294015782  
 83 (  -4.10000)|       -0.3017060116  
 84 (  -4.15000)|       -0.2682678600  
 85 (  -4.20000)|       -0.2279242431  
 86 (  -4.25000)|       -0.1792390345  
 87 (  -4.30000)|       -0.1204519138  
 88 (  -4.35000)|       -0.0494151087  
 89 (  -4.40000)|        0.0365011829  
 90 (  -4.45000)|        0.1405706298  
 91 (  -4.50000)|        0.2670003258  
 92 (  -4.55000)|        0.4214494052  
 93 (  -4.60000)|        0.6119649295  

          RESULTS FOR STATE NUMBER   4

 ------------------------------------
   ICOORD1,     |
    COORD1      |       ENERGY
 ---------------+--------------------
  1 (   0.00000)|       -0.2643930719  
  2 (  -0.05000)|       -0.2654620767  
  3 (  -0.10000)|       -0.2665528866  
  4 (  -0.15000)|       -0.2676661728  
  5 (  -0.20000)|       -0.2688026338  
  6 (  -0.25000)|       -0.2699629964  
  7 (  -0.30000)|       -0.2711480169  
  8 (  -0.35000)|       -0.2723584827  
  9 (  -0.40000)|       -0.2735952133  
 10 (  -0.45000)|       -0.2748590617  
 11 (  -0.50000)|       -0.2761509158  
 12 (  -0.55000)|       -0.2774716993  
 13 (  -0.60000)|       -0.2788223732  
 14 (  -0.65000)|       -0.2802039366  
 15 (  -0.70000)|       -0.2816174278  
 16 (  -0.75000)|       -0.2830639249  
 17 (  -0.80000)|       -0.2845445460  
 18 (  -0.85000)|       -0.2860604497  
 19 (  -0.90000)|       -0.2876128341  
 20 (  -0.95000)|       -0.2892029365  
 21 (  -1.00000)|       -0.2908320310  
 22 (  -1.05000)|       -0.2925014263  
 23 (  -1.10000)|       -0.2942124619  
 24 (  -1.15000)|       -0.2959665032  
 25 (  -1.20000)|       -0.2977649347  
 26 (  -1.25000)|       -0.2996091517  
 27 (  -1.30000)|       -0.3015005495  
 28 (  -1.35000)|       -0.3034405101  
 29 (  -1.40000)|       -0.3054303854  
 30 (  -1.45000)|       -0.3074714779  
 31 (  -1.50000)|       -0.3095650155  
 32 (  -1.55000)|       -0.3117121229  
 33 (  -1.60000)|       -0.3139137867  
 34 (  -1.65000)|       -0.3161708142  
 35 (  -1.70000)|       -0.3184837849  
 36 (  -1.75000)|       -0.3208529935  
 37 (  -1.80000)|       -0.3232783835  
 38 (  -1.85000)|       -0.3257594693  
 39 (  -1.90000)|       -0.3282952462  
 40 (  -1.95000)|       -0.3308840860  
 41 (  -2.00000)|       -0.3335236159  
 42 (  -2.05000)|       -0.3362105779  
 43 (  -2.10000)|       -0.3389406674  
 44 (  -2.15000)|       -0.3417083460  
 45 (  -2.20000)|       -0.3445066251  
 46 (  -2.25000)|       -0.3473268171  
 47 (  -2.30000)|       -0.3501582478  
 48 (  -2.35000)|       -0.3529879269  
 49 (  -2.40000)|       -0.3558001693  
 50 (  -2.45000)|       -0.3585761638  
 51 (  -2.50000)|       -0.3612934836  
 52 (  -2.55000)|       -0.3639255342  
 53 (  -2.60000)|       -0.3664409376  
 54 (  -2.65000)|       -0.3688028519  
 55 (  -2.70000)|       -0.3709682282  
 56 (  -2.75000)|       -0.3728870135  
 57 (  -2.80000)|       -0.3745013079  
 58 (  -2.85000)|       -0.3757444944  
 59 (  -2.90000)|       -0.3765403593  
 60 (  -2.95000)|       -0.3768022312  
 61 (  -3.00000)|       -0.3764321637  
 62 (  -3.05000)|       -0.3753201914  
 63 (  -3.10000)|       -0.3733436849  
 64 (  -3.15000)|       -0.3703668216  
 65 (  -3.20000)|       -0.3662401802  
 66 (  -3.25000)|       -0.3608004491  
 67 (  -3.30000)|       -0.3538702227  
 68 (  -3.35000)|       -0.3452578373  
 69 (  -3.40000)|       -0.3347571861  
 70 (  -3.45000)|       -0.3221474311  
 71 (  -3.50000)|       -0.3071925094  
 72 (  -3.55000)|       -0.2896403074  
 73 (  -3.60000)|       -0.2692213110  
 74 (  -3.65000)|       -0.2456464334  
 75 (  -3.70000)|       -0.2186035598  
 76 (  -3.75000)|       -0.1877520781  
 77 (  -3.80000)|       -0.1527143676  
 78 (  -3.85000)|       -0.1130628878  
 79 (  -3.90000)|       -0.0683013050  
 80 (  -3.95000)|       -0.0178381863  
 81 (  -4.00000)|        0.0390476216  
 82 (  -4.05000)|        0.1032495084  
 83 (  -4.10000)|        0.1758813040  
 84 (  -4.15000)|        0.2583267352  
 85 (  -4.20000)|        0.3522845569  
 86 (  -4.25000)|        0.4598045060  
 87 (  -4.30000)|        0.5833140903  
 88 (  -4.35000)|        0.7256453519  
 89 (  -4.40000)|        0.8900846405  
 90 (  -4.45000)|        1.0804835276  
 91 (  -4.50000)|        1.3014857063  
 92 (  -4.55000)|        1.5589483992  
 93 (  -4.60000)|        1.8607045543  


 ENERGY DELTA MAP(S) (W.R. TO THE LOWEST FOUND)


          RESULTS FOR STATE NUMBER   1

 ------------------------------------
   ICOORD1,     |         ENERGY
    COORD1      |         DELTA
 ---------------+--------------------
  1 (   0.00000)|        0.2039533038  
  2 (  -0.05000)|        0.2039532850  
  3 (  -0.10000)|        0.2039532608  
  4 (  -0.15000)|        0.2039532299  
  5 (  -0.20000)|        0.2039531903  
  6 (  -0.25000)|        0.2039531398  
  7 (  -0.30000)|        0.2039530756  
  8 (  -0.35000)|        0.2039529941  
  9 (  -0.40000)|        0.2039528908  
 10 (  -0.45000)|        0.2039527603  
 11 (  -0.50000)|        0.2039525957  
 12 (  -0.55000)|        0.2039523883  
 13 (  -0.60000)|        0.2039521278  
 14 (  -0.65000)|        0.2039518010  
 15 (  -0.70000)|        0.2039513918  
 16 (  -0.75000)|        0.2039508803  
 17 (  -0.80000)|        0.2039502419  
 18 (  -0.85000)|        0.2039494465  
 19 (  -0.90000)|        0.2039484571  
 20 (  -0.95000)|        0.2039472281  
 21 (  -1.00000)|        0.2039457039  
 22 (  -1.05000)|        0.2039438165  
 23 (  -1.10000)|        0.2039414827  
 24 (  -1.15000)|        0.2039386013  
 25 (  -1.20000)|        0.2039350490  
 26 (  -1.25000)|        0.2039306762  
 27 (  -1.30000)|        0.2039253016  
 28 (  -1.35000)|        0.2039187058  
 29 (  -1.40000)|        0.2039106238  
 30 (  -1.45000)|        0.2039007365  
 31 (  -1.50000)|        0.2038886602  
 32 (  -1.55000)|        0.2038739345  
 33 (  -1.60000)|        0.2038560083  
 34 (  -1.65000)|        0.2038342229  
 35 (  -1.70000)|        0.2038077933  
 36 (  -1.75000)|        0.2037757850  
 37 (  -1.80000)|        0.2037370884  
 38 (  -1.85000)|        0.2036903877  
 39 (  -1.90000)|        0.2036341254  
 40 (  -1.95000)|        0.2035664608  
 41 (  -2.00000)|        0.2034852212  
 42 (  -2.05000)|        0.2033878449  
 43 (  -2.10000)|        0.2032713150  
 44 (  -2.15000)|        0.2031320814  
 45 (  -2.20000)|        0.2029659701  
 46 (  -2.25000)|        0.2027680781  
 47 (  -2.30000)|        0.2025326499  
 48 (  -2.35000)|        0.2022529369  
 49 (  -2.40000)|        0.2019210350  
 50 (  -2.45000)|        0.2015277008  
 51 (  -2.50000)|        0.2010621459  
 52 (  -2.55000)|        0.2005118095  
 53 (  -2.60000)|        0.1998621129  
 54 (  -2.65000)|        0.1990962012  
 55 (  -2.70000)|        0.1981946799  
 56 (  -2.75000)|        0.1971353607  
 57 (  -2.80000)|        0.1958930323  
 58 (  -2.85000)|        0.1944392803  
 59 (  -2.90000)|        0.1927423849  
 60 (  -2.95000)|        0.1907673287  
 61 (  -3.00000)|        0.1884759539  
 62 (  -3.05000)|        0.1858273073  
 63 (  -3.10000)|        0.1827782122  
 64 (  -3.15000)|        0.1792840983  
 65 (  -3.20000)|        0.1753001134  
 66 (  -3.25000)|        0.1707825213  
 67 (  -3.30000)|        0.1656903778  
 68 (  -3.35000)|        0.1599874502  
 69 (  -3.40000)|        0.1536443373  
 70 (  -3.45000)|        0.1466407254  
 71 (  -3.50000)|        0.1389677130  
 72 (  -3.55000)|        0.1306301347  
 73 (  -3.60000)|        0.1216488172  
 74 (  -3.65000)|        0.1120627041  
 75 (  -3.70000)|        0.1019308002  
 76 (  -3.75000)|        0.0913339221  
 77 (  -3.80000)|        0.0803763206  
 78 (  -3.85000)|        0.0691874079  
 79 (  -3.90000)|        0.0579241220  
 80 (  -3.95000)|        0.0467748906  
 81 (  -4.00000)|        0.0359667367  
 82 (  -4.05000)|        0.0257776493  
 83 (  -4.10000)|        0.0165567856  
 84 (  -4.15000)|        0.0087551887  
 85 (  -4.20000)|        0.0029694006  
 86 (  -4.25000)|        0.0000000000  
 87 (  -4.30000)|        0.0009276132  
 88 (  -4.35000)|        0.0072122832  
 89 (  -4.40000)|        0.0208310609  
 90 (  -4.45000)|        0.0444871609  
 91 (  -4.50000)|        0.0819572732  
 92 (  -4.55000)|        0.1387014720  
 93 (  -4.60000)|        0.2229673638  

          RESULTS FOR STATE NUMBER   2

 ------------------------------------
   ICOORD1,     |         ENERGY
    COORD1      |         DELTA
 ---------------+--------------------
  1 (   0.00000)|        0.2039533837  
  2 (  -0.05000)|        0.2039533891  
  3 (  -0.10000)|        0.2039533963  
  4 (  -0.15000)|        0.2039534056  
  5 (  -0.20000)|        0.2039534178  
  6 (  -0.25000)|        0.2039534335  
  7 (  -0.30000)|        0.2039534539  
  8 (  -0.35000)|        0.2039534802  
  9 (  -0.40000)|        0.2039535141  
 10 (  -0.45000)|        0.2039535576  
 11 (  -0.50000)|        0.2039536135  
 12 (  -0.55000)|        0.2039536851  
 13 (  -0.60000)|        0.2039537764  
 14 (  -0.65000)|        0.2039538929  
 15 (  -0.70000)|        0.2039540412  
 16 (  -0.75000)|        0.2039542295  
 17 (  -0.80000)|        0.2039544682  
 18 (  -0.85000)|        0.2039547703  
 19 (  -0.90000)|        0.2039551519  
 20 (  -0.95000)|        0.2039556331  
 21 (  -1.00000)|        0.2039562390  
 22 (  -1.05000)|        0.2039570004  
 23 (  -1.10000)|        0.2039579556  
 24 (  -1.15000)|        0.2039591521  
 25 (  -1.20000)|        0.2039606480  
 26 (  -1.25000)|        0.2039625153  
 27 (  -1.30000)|        0.2039648418  
 28 (  -1.35000)|        0.2039677357  
 29 (  -1.40000)|        0.2039713286  
 30 (  -1.45000)|        0.2039757814  
 31 (  -1.50000)|        0.2039812894  
 32 (  -1.55000)|        0.2039880898  
 33 (  -1.60000)|        0.2039964695  
 34 (  -1.65000)|        0.2040067749  
 35 (  -1.70000)|        0.2040194230  
 36 (  -1.75000)|        0.2040349145  
 37 (  -1.80000)|        0.2040538493  
 38 (  -1.85000)|        0.2040769442  
 39 (  -1.90000)|        0.2041050538  
 40 (  -1.95000)|        0.2041391945  
 41 (  -2.00000)|        0.2041805724  
 42 (  -2.05000)|        0.2042306164  
 43 (  -2.10000)|        0.2042910154  
 44 (  -2.15000)|        0.2043637626  
 45 (  -2.20000)|        0.2044512065  
 46 (  -2.25000)|        0.2045561104  
 47 (  -2.30000)|        0.2046817213  
 48 (  -2.35000)|        0.2048318503  
 49 (  -2.40000)|        0.2050109656  
 50 (  -2.45000)|        0.2052243007  
 51 (  -2.50000)|        0.2054779789  
 52 (  -2.55000)|        0.2057791576  
 53 (  -2.60000)|        0.2061361935  
 54 (  -2.65000)|        0.2065588327  
 55 (  -2.70000)|        0.2070584271  
 56 (  -2.75000)|        0.2076481808  
 57 (  -2.80000)|        0.2083434305  
 58 (  -2.85000)|        0.2091619630  
 59 (  -2.90000)|        0.2101243735  
 60 (  -2.95000)|        0.2112544727  
 61 (  -3.00000)|        0.2125797462  
 62 (  -3.05000)|        0.2141318762  
 63 (  -3.10000)|        0.2159473320  
 64 (  -3.15000)|        0.2180680426  
 65 (  -3.20000)|        0.2205421588  
 66 (  -3.25000)|        0.2234249196  
 67 (  -3.30000)|        0.2267796318  
 68 (  -3.35000)|        0.2306787759  
 69 (  -3.40000)|        0.2352052454  
 70 (  -3.45000)|        0.2404537342  
 71 (  -3.50000)|        0.2465322834  
 72 (  -3.55000)|        0.2535640173  
 73 (  -3.60000)|        0.2616891256  
 74 (  -3.65000)|        0.2710671993  
 75 (  -3.70000)|        0.2818801236  
 76 (  -3.75000)|        0.2943358679  
 77 (  -3.80000)|        0.3086737175  
 78 (  -3.85000)|        0.3251717169  
 79 (  -3.90000)|        0.3441573658  
 80 (  -3.95000)|        0.3660227466  
 81 (  -4.00000)|        0.3912452694  
 82 (  -4.05000)|        0.4204148563  
 83 (  -4.10000)|        0.4542676691  
 84 (  -4.15000)|        0.4937255127  
 85 (  -4.20000)|        0.5399392588  
 86 (  -4.25000)|        0.5943349615  
 87 (  -4.30000)|        0.6586640028  
 88 (  -4.35000)|        0.7350650569  
 89 (  -4.40000)|        0.8261569645  
 90 (  -4.45000)|        0.9351986633  
 91 (  -4.50000)|        1.0663769382  
 92 (  -4.55000)|        1.2253236707  
 93 (  -4.60000)|        1.4200511500  

          RESULTS FOR STATE NUMBER   3

 ------------------------------------
   ICOORD1,     |         ENERGY
    COORD1      |         DELTA
 ---------------+--------------------
  1 (   0.00000)|        0.8727238937  
  2 (  -0.05000)|        0.8716548571  
  3 (  -0.10000)|        0.8705640059  
  4 (  -0.15000)|        0.8694506661  
  5 (  -0.20000)|        0.8683141360  
  6 (  -0.25000)|        0.8671536843  
  7 (  -0.30000)|        0.8659685492  
  8 (  -0.35000)|        0.8647579363  
  9 (  -0.40000)|        0.8635210174  
 10 (  -0.45000)|        0.8622569284  
 11 (  -0.50000)|        0.8609647678  
 12 (  -0.55000)|        0.8596435943  
 13 (  -0.60000)|        0.8582924256  
 14 (  -0.65000)|        0.8569102354  
 15 (  -0.70000)|        0.8554959519  
 16 (  -0.75000)|        0.8540484557  
 17 (  -0.80000)|        0.8525665767  
 18 (  -0.85000)|        0.8510490929  
 19 (  -0.90000)|        0.8494947273  
 20 (  -0.95000)|        0.8479021458  
 21 (  -1.00000)|        0.8462699552  
 22 (  -1.05000)|        0.8445967009  
 23 (  -1.10000)|        0.8428808647  
 24 (  -1.15000)|        0.8411208635  
 25 (  -1.20000)|        0.8393150473  
 26 (  -1.25000)|        0.8374616986  
 27 (  -1.30000)|        0.8355590315  
 28 (  -1.35000)|        0.8336051920  
 29 (  -1.40000)|        0.8315982586  
 30 (  -1.45000)|        0.8295362447  
 31 (  -1.50000)|        0.8274171012  
 32 (  -1.55000)|        0.8252387213  
 33 (  -1.60000)|        0.8229989467  
 34 (  -1.65000)|        0.8206955759  
 35 (  -1.70000)|        0.8183263749  
 36 (  -1.75000)|        0.8158890906  
 37 (  -1.80000)|        0.8133814674  
 38 (  -1.85000)|        0.8108012679  
 39 (  -1.90000)|        0.8081462972  
 40 (  -1.95000)|        0.8054144328  
 41 (  -2.00000)|        0.8026036593  
 42 (  -2.05000)|        0.7997121104  
 43 (  -2.10000)|        0.7967381174  
 44 (  -2.15000)|        0.7936802663  
 45 (  -2.20000)|        0.7905374641  
 46 (  -2.25000)|        0.7873090162  
 47 (  -2.30000)|        0.7839947150  
 48 (  -2.35000)|        0.7805949426  
 49 (  -2.40000)|        0.7771107894  
 50 (  -2.45000)|        0.7735441886  
 51 (  -2.50000)|        0.7698980711  
 52 (  -2.55000)|        0.7661765419  
 53 (  -2.60000)|        0.7623850800  
 54 (  -2.65000)|        0.7585307653  
 55 (  -2.70000)|        0.7546225355  
 56 (  -2.75000)|        0.7506714752  
 57 (  -2.80000)|        0.7466911425  
 58 (  -2.85000)|        0.7426979355  
 59 (  -2.90000)|        0.7387115056  
 60 (  -2.95000)|        0.7347552222  
 61 (  -3.00000)|        0.7308566959  
 62 (  -3.05000)|        0.7270483701  
 63 (  -3.10000)|        0.7233681874  
 64 (  -3.15000)|        0.7198603449  
 65 (  -3.20000)|        0.7165761454  
 66 (  -3.25000)|        0.7135749601  
 67 (  -3.30000)|        0.7109253084  
 68 (  -3.35000)|        0.7087060675  
 69 (  -3.40000)|        0.7070078157  
 70 (  -3.45000)|        0.7059343169  
 71 (  -3.50000)|        0.7056041548  
 72 (  -3.55000)|        0.7061525352  
 73 (  -3.60000)|        0.7077333029  
 74 (  -3.65000)|        0.7105212700  
 75 (  -3.70000)|        0.7147150418  
 76 (  -3.75000)|        0.7205406697  
 77 (  -3.80000)|        0.7282566535  
 78 (  -3.85000)|        0.7381610655  
 79 (  -3.90000)|        0.7506018178  
 80 (  -3.95000)|        0.7659912784  
 81 (  -4.00000)|        0.7848264352  
 82 (  -4.05000)|        0.8077154892  
 83 (  -4.10000)|        0.8354110558  
 84 (  -4.15000)|        0.8688492074  
 85 (  -4.20000)|        0.9091928243  
 86 (  -4.25000)|        0.9578780329  
 87 (  -4.30000)|        1.0166651536  
 88 (  -4.35000)|        1.0877019587  
 89 (  -4.40000)|        1.1736182503  
 90 (  -4.45000)|        1.2776876972  
 91 (  -4.50000)|        1.4041173932  
 92 (  -4.55000)|        1.5585664726  
 93 (  -4.60000)|        1.7490819969  

          RESULTS FOR STATE NUMBER   4

 ------------------------------------
   ICOORD1,     |         ENERGY
    COORD1      |         DELTA
 ---------------+--------------------
  1 (   0.00000)|        0.8727239955  
  2 (  -0.05000)|        0.8716549907  
  3 (  -0.10000)|        0.8705641808  
  4 (  -0.15000)|        0.8694508946  
  5 (  -0.20000)|        0.8683144336  
  6 (  -0.25000)|        0.8671540710  
  7 (  -0.30000)|        0.8659690505  
  8 (  -0.35000)|        0.8647585847  
  9 (  -0.40000)|        0.8635218541  
 10 (  -0.45000)|        0.8622580057  
 11 (  -0.50000)|        0.8609661516  
 12 (  -0.55000)|        0.8596453681  
 13 (  -0.60000)|        0.8582946942  
 14 (  -0.65000)|        0.8569131308  
 15 (  -0.70000)|        0.8554996396  
 16 (  -0.75000)|        0.8540531425  
 17 (  -0.80000)|        0.8525725214  
 18 (  -0.85000)|        0.8510566177  
 19 (  -0.90000)|        0.8495042333  
 20 (  -0.95000)|        0.8479141309  
 21 (  -1.00000)|        0.8462850364  
 22 (  -1.05000)|        0.8446156411  
 23 (  -1.10000)|        0.8429046055  
 24 (  -1.15000)|        0.8411505642  
 25 (  -1.20000)|        0.8393521327  
 26 (  -1.25000)|        0.8375079157  
 27 (  -1.30000)|        0.8356165179  
 28 (  -1.35000)|        0.8336765573  
 29 (  -1.40000)|        0.8316866820  
 30 (  -1.45000)|        0.8296455895  
 31 (  -1.50000)|        0.8275520519  
 32 (  -1.55000)|        0.8254049445  
 33 (  -1.60000)|        0.8232032807  
 34 (  -1.65000)|        0.8209462532  
 35 (  -1.70000)|        0.8186332825  
 36 (  -1.75000)|        0.8162640739  
 37 (  -1.80000)|        0.8138386839  
 38 (  -1.85000)|        0.8113575981  
 39 (  -1.90000)|        0.8088218212  
 40 (  -1.95000)|        0.8062329814  
 41 (  -2.00000)|        0.8035934515  
 42 (  -2.05000)|        0.8009064895  
 43 (  -2.10000)|        0.7981764000  
 44 (  -2.15000)|        0.7954087214  
 45 (  -2.20000)|        0.7926104423  
 46 (  -2.25000)|        0.7897902503  
 47 (  -2.30000)|        0.7869588196  
 48 (  -2.35000)|        0.7841291405  
 49 (  -2.40000)|        0.7813168981  
 50 (  -2.45000)|        0.7785409036  
 51 (  -2.50000)|        0.7758235838  
 52 (  -2.55000)|        0.7731915332  
 53 (  -2.60000)|        0.7706761298  
 54 (  -2.65000)|        0.7683142155  
 55 (  -2.70000)|        0.7661488392  
 56 (  -2.75000)|        0.7642300539  
 57 (  -2.80000)|        0.7626157595  
 58 (  -2.85000)|        0.7613725730  
 59 (  -2.90000)|        0.7605767081  
 60 (  -2.95000)|        0.7603148362  
 61 (  -3.00000)|        0.7606849037  
 62 (  -3.05000)|        0.7617968760  
 63 (  -3.10000)|        0.7637733825  
 64 (  -3.15000)|        0.7667502458  
 65 (  -3.20000)|        0.7708768872  
 66 (  -3.25000)|        0.7763166183  
 67 (  -3.30000)|        0.7832468447  
 68 (  -3.35000)|        0.7918592301  
 69 (  -3.40000)|        0.8023598813  
 70 (  -3.45000)|        0.8149696363  
 71 (  -3.50000)|        0.8299245580  
 72 (  -3.55000)|        0.8474767600  
 73 (  -3.60000)|        0.8678957564  
 74 (  -3.65000)|        0.8914706340  
 75 (  -3.70000)|        0.9185135076  
 76 (  -3.75000)|        0.9493649893  
 77 (  -3.80000)|        0.9844026998  
 78 (  -3.85000)|        1.0240541796  
 79 (  -3.90000)|        1.0688157624  
 80 (  -3.95000)|        1.1192788811  
 81 (  -4.00000)|        1.1761646890  
 82 (  -4.05000)|        1.2403665758  
 83 (  -4.10000)|        1.3129983714  
 84 (  -4.15000)|        1.3954438026  
 85 (  -4.20000)|        1.4894016243  
 86 (  -4.25000)|        1.5969215734  
 87 (  -4.30000)|        1.7204311577  
 88 (  -4.35000)|        1.8627624193  
 89 (  -4.40000)|        2.0272017079  
 90 (  -4.45000)|        2.2176005950  
 91 (  -4.50000)|        2.4386027737  
 92 (  -4.55000)|        2.6960654666  
 93 (  -4.60000)|        2.9978216217  


 ENERGY DELTA MAP(S): E(N) minus E(N-1)


          RESULTS FOR STATE NUMBER   2

 ------------------------------------
   ICOORD1,     |         ENERGY
    COORD1      |         DELTA
 ---------------+--------------------
  1 (   0.00000)|        0.0000000799  
  2 (  -0.05000)|        0.0000001041  
  3 (  -0.10000)|        0.0000001355  
  4 (  -0.15000)|        0.0000001758  
  5 (  -0.20000)|        0.0000002275  
  6 (  -0.25000)|        0.0000002937  
  7 (  -0.30000)|        0.0000003783  
  8 (  -0.35000)|        0.0000004861  
  9 (  -0.40000)|        0.0000006232  
 10 (  -0.45000)|        0.0000007973  
 11 (  -0.50000)|        0.0000010179  
 12 (  -0.55000)|        0.0000012967  
 13 (  -0.60000)|        0.0000016486  
 14 (  -0.65000)|        0.0000020919  
 15 (  -0.70000)|        0.0000026494  
 16 (  -0.75000)|        0.0000033492  
 17 (  -0.80000)|        0.0000042263  
 18 (  -0.85000)|        0.0000053238  
 19 (  -0.90000)|        0.0000066948  
 20 (  -0.95000)|        0.0000084051  
 21 (  -1.00000)|        0.0000105351  
 22 (  -1.05000)|        0.0000131839  
 23 (  -1.10000)|        0.0000164729  
 24 (  -1.15000)|        0.0000205508  
 25 (  -1.20000)|        0.0000255990  
 26 (  -1.25000)|        0.0000318390  
 27 (  -1.30000)|        0.0000395402  
 28 (  -1.35000)|        0.0000490299  
 29 (  -1.40000)|        0.0000607049  
 30 (  -1.45000)|        0.0000750449  
 31 (  -1.50000)|        0.0000926292  
 32 (  -1.55000)|        0.0001141552  
 33 (  -1.60000)|        0.0001404612  
 34 (  -1.65000)|        0.0001725520  
 35 (  -1.70000)|        0.0002116297  
 36 (  -1.75000)|        0.0002591295  
 37 (  -1.80000)|        0.0003167609  
 38 (  -1.85000)|        0.0003865566  
 39 (  -1.90000)|        0.0004709284  
 40 (  -1.95000)|        0.0005727336  
 41 (  -2.00000)|        0.0006953512  
 42 (  -2.05000)|        0.0008427715  
 43 (  -2.10000)|        0.0010197004  
 44 (  -2.15000)|        0.0012316812  
 45 (  -2.20000)|        0.0014852364  
 46 (  -2.25000)|        0.0017880323  
 47 (  -2.30000)|        0.0021490714  
 48 (  -2.35000)|        0.0025789134  
 49 (  -2.40000)|        0.0030899306  
 50 (  -2.45000)|        0.0036965999  
 51 (  -2.50000)|        0.0044158330  
 52 (  -2.55000)|        0.0052673481  
 53 (  -2.60000)|        0.0062740806  
 54 (  -2.65000)|        0.0074626316  
 55 (  -2.70000)|        0.0088637471  
 56 (  -2.75000)|        0.0105128200  
 57 (  -2.80000)|        0.0124503983  
 58 (  -2.85000)|        0.0147226827  
 59 (  -2.90000)|        0.0173819886  
 60 (  -2.95000)|        0.0204871440  
 61 (  -3.00000)|        0.0241037923  
 62 (  -3.05000)|        0.0283045688  
 63 (  -3.10000)|        0.0331691199  
 64 (  -3.15000)|        0.0387839443  
 65 (  -3.20000)|        0.0452420454  
 66 (  -3.25000)|        0.0526423982  
 67 (  -3.30000)|        0.0610892540  
 68 (  -3.35000)|        0.0706913257  
 69 (  -3.40000)|        0.0815609081  
 70 (  -3.45000)|        0.0938130088  
 71 (  -3.50000)|        0.1075645703  
 72 (  -3.55000)|        0.1229338826  
 73 (  -3.60000)|        0.1400403083  
 74 (  -3.65000)|        0.1590044953  
 75 (  -3.70000)|        0.1799493234  
 76 (  -3.75000)|        0.2030019458  
 77 (  -3.80000)|        0.2282973969  
 78 (  -3.85000)|        0.2559843090  
 79 (  -3.90000)|        0.2862332438  
 80 (  -3.95000)|        0.3192478560  
 81 (  -4.00000)|        0.3552785326  
 82 (  -4.05000)|        0.3946372071  
 83 (  -4.10000)|        0.4377108835  
 84 (  -4.15000)|        0.4849703240  
 85 (  -4.20000)|        0.5369698583  
 86 (  -4.25000)|        0.5943349615  
 87 (  -4.30000)|        0.6577363896  
 88 (  -4.35000)|        0.7278527738  
 89 (  -4.40000)|        0.8053259037  
 90 (  -4.45000)|        0.8907115024  
 91 (  -4.50000)|        0.9844196649  
 92 (  -4.55000)|        1.0866221987  
 93 (  -4.60000)|        1.1970837861  

          RESULTS FOR STATE NUMBER   3

 ------------------------------------
   ICOORD1,     |         ENERGY
    COORD1      |         DELTA
 ---------------+--------------------
  1 (   0.00000)|        0.6687705100  
  2 (  -0.05000)|        0.6677014679  
  3 (  -0.10000)|        0.6666106096  
  4 (  -0.15000)|        0.6654972605  
  5 (  -0.20000)|        0.6643607182  
  6 (  -0.25000)|        0.6632002508  
  7 (  -0.30000)|        0.6620150953  
  8 (  -0.35000)|        0.6608044561  
  9 (  -0.40000)|        0.6595675033  
 10 (  -0.45000)|        0.6583033708  
 11 (  -0.50000)|        0.6570111542  
 12 (  -0.55000)|        0.6556899093  
 13 (  -0.60000)|        0.6543386491  
 14 (  -0.65000)|        0.6529563424  
 15 (  -0.70000)|        0.6515419108  
 16 (  -0.75000)|        0.6500942262  
 17 (  -0.80000)|        0.6486121086  
 18 (  -0.85000)|        0.6470943227  
 19 (  -0.90000)|        0.6455395754  
 20 (  -0.95000)|        0.6439465126  
 21 (  -1.00000)|        0.6423137162  
 22 (  -1.05000)|        0.6406397005  
 23 (  -1.10000)|        0.6389229091  
 24 (  -1.15000)|        0.6371617114  
 25 (  -1.20000)|        0.6353543993  
 26 (  -1.25000)|        0.6334991834  
 27 (  -1.30000)|        0.6315941897  
 28 (  -1.35000)|        0.6296374563  
 29 (  -1.40000)|        0.6276269300  
 30 (  -1.45000)|        0.6255604633  
 31 (  -1.50000)|        0.6234358118  
 32 (  -1.55000)|        0.6212506315  
 33 (  -1.60000)|        0.6190024772  
 34 (  -1.65000)|        0.6166888010  
 35 (  -1.70000)|        0.6143069519  
 36 (  -1.75000)|        0.6118541761  
 37 (  -1.80000)|        0.6093276181  
 38 (  -1.85000)|        0.6067243237  
 39 (  -1.90000)|        0.6040412434  
 40 (  -1.95000)|        0.6012752383  
 41 (  -2.00000)|        0.5984230868  
 42 (  -2.05000)|        0.5954814940  
 43 (  -2.10000)|        0.5924471020  
 44 (  -2.15000)|        0.5893165037  
 45 (  -2.20000)|        0.5860862576  
 46 (  -2.25000)|        0.5827529058  
 47 (  -2.30000)|        0.5793129937  
 48 (  -2.35000)|        0.5757630923  
 49 (  -2.40000)|        0.5720998238  
 50 (  -2.45000)|        0.5683198878  
 51 (  -2.50000)|        0.5644200922  
 52 (  -2.55000)|        0.5603973844  
 53 (  -2.60000)|        0.5562488865  
 54 (  -2.65000)|        0.5519719326  
 55 (  -2.70000)|        0.5475641084  
 56 (  -2.75000)|        0.5430232945  
 57 (  -2.80000)|        0.5383477120  
 58 (  -2.85000)|        0.5335359725  
 59 (  -2.90000)|        0.5285871322  
 60 (  -2.95000)|        0.5235007495  
 61 (  -3.00000)|        0.5182769497  
 62 (  -3.05000)|        0.5129164939  
 63 (  -3.10000)|        0.5074208554  
 64 (  -3.15000)|        0.5017923023  
 65 (  -3.20000)|        0.4960339867  
 66 (  -3.25000)|        0.4901500406  
 67 (  -3.30000)|        0.4841456766  
 68 (  -3.35000)|        0.4780272917  
 69 (  -3.40000)|        0.4718025703  
 70 (  -3.45000)|        0.4654805827  
 71 (  -3.50000)|        0.4590718714  
 72 (  -3.55000)|        0.4525885179  
 73 (  -3.60000)|        0.4460441774  
 74 (  -3.65000)|        0.4394540706  
 75 (  -3.70000)|        0.4328349183  
 76 (  -3.75000)|        0.4262048018  
 77 (  -3.80000)|        0.4195829361  
 78 (  -3.85000)|        0.4129893486  
 79 (  -3.90000)|        0.4064444520  
 80 (  -3.95000)|        0.3999685319  
 81 (  -4.00000)|        0.3935811659  
 82 (  -4.05000)|        0.3873006329  
 83 (  -4.10000)|        0.3811433866  
 84 (  -4.15000)|        0.3751236947  
 85 (  -4.20000)|        0.3692535655  
 86 (  -4.25000)|        0.3635430714  
 87 (  -4.30000)|        0.3580011508  
 88 (  -4.35000)|        0.3526369018  
 89 (  -4.40000)|        0.3474612858  
 90 (  -4.45000)|        0.3424890339  
 91 (  -4.50000)|        0.3377404550  
 92 (  -4.55000)|        0.3332428019  
 93 (  -4.60000)|        0.3290308469  

          RESULTS FOR STATE NUMBER   4

 ------------------------------------
   ICOORD1,     |         ENERGY
    COORD1      |         DELTA
 ---------------+--------------------
  1 (   0.00000)|        0.0000001018  
  2 (  -0.05000)|        0.0000001336  
  3 (  -0.10000)|        0.0000001749  
  4 (  -0.15000)|        0.0000002284  
  5 (  -0.20000)|        0.0000002976  
  6 (  -0.25000)|        0.0000003867  
  7 (  -0.30000)|        0.0000005013  
  8 (  -0.35000)|        0.0000006484  
  9 (  -0.40000)|        0.0000008367  
 10 (  -0.45000)|        0.0000010773  
 11 (  -0.50000)|        0.0000013839  
 12 (  -0.55000)|        0.0000017738  
 13 (  -0.60000)|        0.0000022687  
 14 (  -0.65000)|        0.0000028955  
 15 (  -0.70000)|        0.0000036876  
 16 (  -0.75000)|        0.0000046868  
 17 (  -0.80000)|        0.0000059446  
 18 (  -0.85000)|        0.0000075248  
 19 (  -0.90000)|        0.0000095060  
 20 (  -0.95000)|        0.0000119851  
 21 (  -1.00000)|        0.0000150812  
 22 (  -1.05000)|        0.0000189403  
 23 (  -1.10000)|        0.0000237408  
 24 (  -1.15000)|        0.0000297007  
 25 (  -1.20000)|        0.0000370853  
 26 (  -1.25000)|        0.0000462170  
 27 (  -1.30000)|        0.0000574863  
 28 (  -1.35000)|        0.0000713654  
 29 (  -1.40000)|        0.0000884233  
 30 (  -1.45000)|        0.0001093448  
 31 (  -1.50000)|        0.0001349507  
 32 (  -1.55000)|        0.0001662232  
 33 (  -1.60000)|        0.0002043340  
 34 (  -1.65000)|        0.0002506772  
 35 (  -1.70000)|        0.0003069076  
 36 (  -1.75000)|        0.0003749833  
 37 (  -1.80000)|        0.0004572165  
 38 (  -1.85000)|        0.0005563302  
 39 (  -1.90000)|        0.0006755240  
 40 (  -1.95000)|        0.0008185486  
 41 (  -2.00000)|        0.0009897923  
 42 (  -2.05000)|        0.0011943792  
 43 (  -2.10000)|        0.0014382826  
 44 (  -2.15000)|        0.0017284552  
 45 (  -2.20000)|        0.0020729782  
 46 (  -2.25000)|        0.0024812341  
 47 (  -2.30000)|        0.0029641046  
 48 (  -2.35000)|        0.0035341979  
 49 (  -2.40000)|        0.0042061087  
 50 (  -2.45000)|        0.0049967150  
 51 (  -2.50000)|        0.0059255127  
 52 (  -2.55000)|        0.0070149913  
 53 (  -2.60000)|        0.0082910497  
 54 (  -2.65000)|        0.0097834502  
 55 (  -2.70000)|        0.0115263037  
 56 (  -2.75000)|        0.0135585787  
 57 (  -2.80000)|        0.0159246170  
 58 (  -2.85000)|        0.0186746375  
 59 (  -2.90000)|        0.0218652025  
 60 (  -2.95000)|        0.0255596140  
 61 (  -3.00000)|        0.0298282078  
 62 (  -3.05000)|        0.0347485059  
 63 (  -3.10000)|        0.0404051951  
 64 (  -3.15000)|        0.0468899009  
 65 (  -3.20000)|        0.0543007418  
 66 (  -3.25000)|        0.0627416581  
 67 (  -3.30000)|        0.0723215363  
 68 (  -3.35000)|        0.0831531626  
 69 (  -3.40000)|        0.0953520656  
 70 (  -3.45000)|        0.1090353194  
 71 (  -3.50000)|        0.1243204032  
 72 (  -3.55000)|        0.1413242248  
 73 (  -3.60000)|        0.1601624535  
 74 (  -3.65000)|        0.1809493640  
 75 (  -3.70000)|        0.2037984658  
 76 (  -3.75000)|        0.2288243196  
 77 (  -3.80000)|        0.2561460462  
 78 (  -3.85000)|        0.2858931140  
 79 (  -3.90000)|        0.3182139445  
 80 (  -3.95000)|        0.3532876027  
 81 (  -4.00000)|        0.3913382537  
 82 (  -4.05000)|        0.4326510866  
 83 (  -4.10000)|        0.4775873157  
 84 (  -4.15000)|        0.5265945952  
 85 (  -4.20000)|        0.5802087999  
 86 (  -4.25000)|        0.6390435406  
 87 (  -4.30000)|        0.7037660041  
 88 (  -4.35000)|        0.7750604606  
 89 (  -4.40000)|        0.8535834576  
 90 (  -4.45000)|        0.9399128978  
 91 (  -4.50000)|        1.0344853805  
 92 (  -4.55000)|        1.1374989941  
 93 (  -4.60000)|        1.2487396248  

 ... DONE WITH POTENTIAL SURFACE SCAN ...

                         TIMING STATISTICS ON RANK 0:
 CPU        TIME:   STEP =      0.00 ,  TOTAL =        2.5 SECONDS (    0.0 MIN)
 WALL CLOCK TIME:   STEP =      0.01 ,  TOTAL =        3.6 SECONDS (    0.1 MIN)
 CPU UTILIZATION:   STEP =      0.00%,  TOTAL =      70.33%

                         OVERALL  TIMING  STATISTICS:
 GLOBAL CPU TIME ELAPSED      =        19.9 SECONDS (     0.3 MIN)
 RANK 0 WALL CLOCK TIME       =         3.6 SECONDS (     0.1 MIN)
 JOB CPU UTILIZATION:   TOTAL =    555.95%, PER RANK AVERAGE =     69.50%

      396843 WORDS OF    DYNAMIC MEMORY USED
     5585795 BYTES OF    HEAP MEMORY    USED,      113783 BYTES REMAIN IN USE

 WARNING! THIS VERSION OF FIREFLY IS PROBABLY OUTDATED!
 PLEASE CHECK FIREFLY HOMEPAGE FOR INFORMATION ON UPDATES!

 EXECUTION OF FIREFLY TERMINATED NORMALLY 23:11:33  4-JUN-2026    
