              Grand Master is running on host yaroslavhonor
              rank #     1 is running on host yaroslavhonor
              rank #     2 is running on host yaroslavhonor
              rank #     3 is running on host yaroslavhonor
              rank #     4 is running on host yaroslavhonor
              rank #     5 is running on host yaroslavhonor
              rank #     6 is running on host yaroslavhonor
              rank #     7 is running on host yaroslavhonor

          ******************************************************
          *      Firefly version 8.2.0, build number 10203     *
          *   Compiled on    Monday,    19-09-2016, 15:30:23   *
          *Code development and Intel/AMD specific optimization*
          *  Copyright (c) 1994, 2016 by  Alex A. Granovsky,   *
          *          Firefly Project, Moscow, Russia.          *
          *   Some parts of this program include code due to   *
          * work of Jim Kress, Peter Burger, and Robert Ponec. *
          ******************************************************
          *             Firefly Project homepage:              *
          * http://classic.chem.msu.su/gran/firefly/index.html *
          *                      e-mail:                       *
          *               gran@classic.chem.msu.su             *
          *This program is not a free software and is provided *
          *exclusively to its registered users under the terms *
          *       of Firefly package license agreement         *
          * Unauthorized use of Firefly is strongly prohibited *
          *   This program may not be redistributed without    *
          * the specific, written permission of its developers.*
          ******************************************************

          ******************************************************
          *  PARTIALLY BASED ON  US GAMESS VERSION 6 JUN 1999, *
          *   US GAMESS VERSIONS  6 SEP 2001 AND 12 DEC 2003   *
          *             FROM IOWA STATE UNIVERSITY             *
          * M.W.SCHMIDT, K.K.BALDRIDGE, J.A.BOATZ, S.T.ELBERT, *
          *   M.S.GORDON, J.H.JENSEN, S.KOSEKI, N.MATSUNAGA,   *
          *          K.A.NGUYEN, S.J.SU, T.L.WINDUS,           *
          *       TOGETHER WITH M.DUPUIS, J.A.MONTGOMERY       *
          *         J.COMPUT.CHEM.  14, 1347-1363(1993)        *
          ******************************************************


 Core i7    / Linux  Firefly version running under Linux.
 Running on Intel CPU:  Brand ID  0, Family  6, Model 170, Stepping  4
 CPU Brand String    :  Intel(R) Core(TM) Ultra 5 125H                  
 CPU Features        :  x87 FPU, CMOV, MMX, SSE, SSE2, SSE3, SSSE3, SSE4.1, SSE4.2, AVX, AVX2, FMA3, HTT, MWAIT, EM64T
 Data cache size     :  L1 48 KB, L2 2048 KB, L3 18432 KB
 max    # of   cores/package :  64
 max    # of threads/package : 128
 max     cache sharing level :  64
 actual # of   cores/package :   9
 actual # of threads/package :  18
 actual # of threads/core    :   2
 Operating System successfully passed SSE support test.
 Operating System supports AVX/FMA.


 PARALLEL VERSION (MPICH) RUNNING USING    8 PROCESSES (RANKS)


 WARNING! THIS VERSION OF FIREFLY IS PROBABLY OUTDATED!
 PLEASE CHECK FIREFLY HOMEPAGE FOR INFORMATION ON UPDATES!

 EXECUTION OF FIREFLY BEGUN 23:11:20  4-JUN-2026    

            ECHO OF THE FIRST FEW INPUT CARDS -
 INPUT CARD>! H2 broken-symmetry UHF/STO-3G singlet surface with MIX                        
 INPUT CARD>! Firefly 8.2.0, one RUNTYP=SURFACE job                                         
 INPUT CARD>! Grid: R(H-H) = 5.000000 down to 0.400000 Angstrom, 93 points                  
 INPUT CARD>! $DATA starts at R=5.000000 Angstrom; $SURF moves atom 2 by DISP1.             
 INPUT CARD>                                                                                
 INPUT CARD> $CONTRL SCFTYP=UHF RUNTYP=SURFACE MULT=1 ICHARG=0 NOSYM=1                      
 INPUT CARD>      MAXIT=100 UNITS=ANGS $END                                                 
 INPUT CARD> $SYSTEM TIMLIM=600 MEMORY=1000000 $END                                         
 INPUT CARD> $BASIS GBASIS=STO NGAUSS=3 $END                                                
 INPUT CARD> $GUESS GUESS=HUCKEL MIX=.T. $END                                               
 INPUT CARD> $SCF DAMP=.T. DIIS=.T. DIRSCF=.T. FDIFF=.F. SHIFT=.T.                          
 INPUT CARD>      SOSCF=.F. DENTOL=1.0E-4 $END                                              
 INPUT CARD> $SURF                                                                          
 INPUT CARD>   IVEC1(1)=1,2                                                                 
 INPUT CARD>   IGRP1(1)=2                                                                   
 INPUT CARD>   ORIG1=0.000000                                                               
 INPUT CARD>   DISP1=-0.050000                                                              
 INPUT CARD>   NDISP1=93                                                                    
 INPUT CARD> $END                                                                           
 INPUT CARD>                                                                                
 INPUT CARD> $DATA                                                                          
 INPUT CARD>H2 broken-symmetry UHF/STO-3G singlet surface with MIX; reverse scan R_start=5.0
 INPUT CARD>C1                                                                              
 INPUT CARD>H 1.0 0.000000 0.000000 0.000000                                                
 INPUT CARD>H 1.0 0.000000 0.000000 5.000000                                                
 INPUT CARD> $END                                                                           
    1000000 WORDS OF MEMORY AVAILABLE

 This job is executing on     1 unique host(s)
 Minimum number of processes per host is:    8
 Maximum number of processes per host is:    8

 On master's host, detected   18 CPU core(s) in aggregate

 Using processor-specific dynamic link DGEMM library code.


 Warning: HTT is enabled, bitmask of physically unique cores is 0x000000B4

 SMT aware parts of program will use              2 threads.

 Creating thread pool to serve up to            128 threads.


 Loading P2P interface library... loaded successfully (version 2.4).
 Initializing global P2P interface... topology done.


     BASIS OPTIONS
     -------------
     GBASIS=STO          IGAUSS=       3      POLAR=NONE    
     NDFUNC=       0     NFFUNC=       0     DIFFSP=       F
     NPFUNC=       0      DIFFS=       F


     RUN TITLE
     ---------
 H2 broken-symmetry UHF/STO-3G singlet surface with MIX; reverse scan R_start=5.0

 THE POINT GROUP OF THE MOLECULE IS C1      
 THE ORDER OF THE PRINCIPAL AXIS IS     0

 ATOM      ATOMIC                      COORDINATES (BOHR)
           CHARGE         X                   Y                   Z
 H           1.0     0.0000000000        0.0000000000        0.0000000000
 H           1.0     0.0000000000        0.0000000000        9.4486306273

          INTERNUCLEAR DISTANCES (ANGS.)
          ------------------------------

                    H              H         

  1  H               0.0000000      5.0000000    
  2  H               5.0000000      0.0000000    

  * ... LESS THAN  3.000


     ATOMIC BASIS SET
     ----------------
 THE CONTRACTED PRIMITIVE FUNCTIONS HAVE BEEN UNNORMALIZED
 THE CONTRACTED BASIS FUNCTIONS ARE NOW NORMALIZED TO UNITY

 SHELL TYPE PRIM    EXPONENT          CONTRACTION COEFFICIENTS

 H         

   1   S    1       3.425251    0.276934 (  0.154329) 
   1   S    2       0.623914    0.267839 (  0.535328) 
   1   S    3       0.168855    0.083474 (  0.444635) 

 H         

   2   S    4       3.425251    0.276934 (  0.154329) 
   2   S    5       0.623914    0.267839 (  0.535328) 
   2   S    6       0.168855    0.083474 (  0.444635) 

 TOTAL NUMBER OF SHELLS              =    2
 TOTAL NUMBER OF BASIS FUNCTIONS     =    2
 NUMBER OF ELECTRONS                 =    2
 CHARGE OF MOLECULE                  =    0
 STATE MULTIPLICITY                  =    1
 NUMBER OF OCCUPIED ORBITALS (ALPHA) =    1
 NUMBER OF OCCUPIED ORBITALS (BETA ) =    1
 TOTAL NUMBER OF ATOMS               =    2
 THE NUCLEAR REPULSION ENERGY IS        0.1058354421

 THIS MOLECULE IS RECOGNIZED AS BEING LINEAR.

     $CONTRL OPTIONS
     ---------------
     SCFTYP=UHF          RUNTYP=SURFACE      EXETYP=RUN     
     MPLEVL=       0     LOCAL =NONE         UNITS =ANGS    
     MULT  =       1     ICHARG=       0     MAXIT =     100
     NPRINT=       7     IREST =       0     COORD =UNIQUE  
     ECP   =NONE         NORMF =       0     NORMP =       0
     ITOL  =      20     ICUT  =       9     NZVAR =       0
     NOSYM =       1     INTTYP=POPLE        GEOM  =INPUT   
     PLTORB=       F     MOLPLT=       F     RPAC  =       F
     AIMPAC=       0     FRIEND=             CITYP =NONE    
     DFTTYP=NONE    

     $SYSTEM OPTIONS
     ---------------
     KDIAG =       0     MEMORY=  1000000     TIMLIM=    36000.0 SEC.
     COREFL=       F     PTIME =        F     XDR   =       F
     BALTYP=NXTVAL       CBASE = 09001000     FBASE = F18410C0

          ----------------
          PROPERTIES INPUT
          ----------------

     MOMENTS            FIELD           POTENTIAL          DENSITY
 IEMOM =       1   IEFLD =       0   IEPOT =       0   IEDEN =       0
 WHERE =COMASS     WHERE =NUCLEI     WHERE =NUCLEI     WHERE =NUCLEI  
 OUTPUT=BOTH       OUTPUT=BOTH       OUTPUT=BOTH       OUTPUT=BOTH    
 IEMINT=       0   IEFINT=       0                     IEDINT=       0
                                                       MORB  =       0

          EXTRAPOLATION IN EFFECT
          DAMPING IN EFFECT
          LEVEL SHIFTING IN EFFECT
          DIIS IN EFFECT

          ----------------------
          INTEGRAL INPUT OPTIONS
          ----------------------
 NOPK  =       1 NORDER=       0 SCHWRZ=       T

 ATTENTION! AO INTEGRALS WILL BE PACKED.
 THRESHOLD FOR PACKING PKTHR =  0.10000000D-01

     -------------------------------
     INTEGRAL TRANSFORMATION OPTIONS
     -------------------------------
     NWORD  =       0     CUTTRF = 1.0E-09
     MPTRAN =       0     DIRTRF =       F
     AOINTS =DUP          IREST  =       0

     ------------------------------------------
     THE POINT GROUP IS C1 , NAXIS= 1, ORDER= 1
     ------------------------------------------

     DIMENSIONS OF THE SYMMETRY SUBSPACES ARE
 A   =   2

 ..... DONE SETTING UP THE RUN .....

                         TIMING STATISTICS ON RANK 0:
 CPU        TIME:   STEP =      0.15 ,  TOTAL =        0.3 SECONDS (    0.0 MIN)
 WALL CLOCK TIME:   STEP =      0.16 ,  TOTAL =        0.2 SECONDS (    0.0 MIN)
 CPU UTILIZATION:   STEP =     95.34%,  TOTAL =     165.26%

     ---------------------------
     POTENTIAL SURFACE MAP INPUT
     ---------------------------
 COORD 1 LYING ALONG ATOM PAIR    1    2
 HAS ORIGIN= 0.000, DISPLACEMENT=-0.050  AND  93 STEPS.
 GROUP 1 CONTAINS    1 ATOMS:
     2
 ...... END OF ONE-ELECTRON INTEGRALS ......

                         TIMING STATISTICS ON RANK 0:
 CPU        TIME:   STEP =      0.00 ,  TOTAL =        0.3 SECONDS (    0.0 MIN)
 WALL CLOCK TIME:   STEP =      0.00 ,  TOTAL =        0.2 SECONDS (    0.0 MIN)
 CPU UTILIZATION:   STEP =      0.00%,  TOTAL =     162.37%

          -------------
          GUESS OPTIONS
          -------------
          GUESS =HUCKEL            NORB  =       0          NORDER=       0
          MIX   =       T          PRTMO =       F          SYMDEN=       F
          TOLZ  = 0.0E+00          TOLE  = 0.0E+00

 INITIAL GUESS ORBITALS GENERATED BY HUCKEL   ROUTINE.
 HUCKEL GUESS REQUIRES      1320 WORDS.

 LOG10 OF CONDITION NUMBER OF OVERLAP MATRIX IS:  9.36630154E-05
 HOMO AND LUMO MIXED TO BREAK ALPHA-BETA SYMMETRY

 SYMMETRIES FOR INITIAL GUESS ORBITALS FOLLOW.  ALPHA SET(S).
     1 ORBITALS ARE OCCUPIED (    0 CORE ORBITALS).
     1=A        2=A   

 SYMMETRIES FOR INITIAL GUESS ORBITALS FOLLOW.   BETA SET(S).
     1 ORBITALS ARE OCCUPIED (    0 CORE ORBITALS).
     1=A        2=A   
 ...... END OF INITIAL ORBITAL SELECTION ......

                         TIMING STATISTICS ON RANK 0:
 CPU        TIME:   STEP =      0.00 ,  TOTAL =        0.3 SECONDS (    0.0 MIN)
 WALL CLOCK TIME:   STEP =      0.00 ,  TOTAL =        0.2 SECONDS (    0.0 MIN)
 CPU UTILIZATION:   STEP =      0.00%,  TOTAL =     159.37%
 ...... END OF TWO-ELECTRON INTEGRALS .....

                         TIMING STATISTICS ON RANK 0:
 CPU        TIME:   STEP =      0.00 ,  TOTAL =        0.3 SECONDS (    0.0 MIN)
 WALL CLOCK TIME:   STEP =      0.00 ,  TOTAL =        0.2 SECONDS (    0.0 MIN)
 CPU UTILIZATION:   STEP =      0.00%,  TOTAL =     157.07%

 DIRECT SCF CALCULATION, SCHWRZ=T   FDIFF=F

                                                                                                           NONZERO    BLOCKS
 ITER EX   TOTAL ENERGY      E CHANGE  DENSITY CHANGE    DIIS ERROR      VIR. SHIFT       DAMPING        INTEGRALS   SKIPPED
          * * *   INITIATING DIIS PROCEDURE   * * *
   1  0    -0.933163678    -0.933163678   0.000318168   0.000246455     0.000000000     1.000000000              6         0
   2  1    -0.933163723    -0.000000045   0.000050351   0.000033674     0.000000000     1.000000000              6         0
          * * *    REDUCING  DIIS SUBSPACE    * * *
   3  2    -0.933163724    -0.000000001   0.000000000   0.000000000     0.000000000     1.000000000              6         0

          -----------------
          DENSITY CONVERGED
          -----------------
     TIME TO FORM FOCK OPERATORS =       0.00 SECONDS (       0.00 SEC/ITER)
     FOCK TIME ON FIRST ITERATION=       0.00, LAST ITERATION=       0.00
     TIME TO SOLVE SCF EQUATIONS =       0.01 SECONDS (       0.00 SEC/ITER)

 FINAL ENERGY IS       -0.9331637237 AFTER   3 ITERATIONS

          --------------------
          SPIN SZ   =    0.000
          S-SQUARED =    1.000
          --------------------
 ...... END OF UHF CALCULATION ......

                         TIMING STATISTICS ON RANK 0:
 CPU        TIME:   STEP =      0.02 ,  TOTAL =        0.3 SECONDS (    0.0 MIN)
 WALL CLOCK TIME:   STEP =      0.02 ,  TOTAL =        0.2 SECONDS (    0.0 MIN)
 CPU UTILIZATION:   STEP =     84.42%,  TOTAL =     147.98%

 ---- SURFACE MAPPING GEOMETRY ----
 COORD 1=   0.00000  COORD 2=   0.00000
 HAS ENERGY VALUE         -0.9331637237
 H             0.0000000000          0.0000000000          0.0000000000
 H             0.0000000000          0.0000000000          5.0000000000
 ----------------------------------
 ...... END OF ONE-ELECTRON INTEGRALS ......

                         TIMING STATISTICS ON RANK 0:
 CPU        TIME:   STEP =      0.00 ,  TOTAL =        0.3 SECONDS (    0.0 MIN)
 WALL CLOCK TIME:   STEP =      0.00 ,  TOTAL =        0.2 SECONDS (    0.0 MIN)
 CPU UTILIZATION:   STEP =      0.00%,  TOTAL =     146.95%

 LOG10 OF CONDITION NUMBER OF OVERLAP MATRIX IS:  1.09048825E-04
 ...... END OF TWO-ELECTRON INTEGRALS .....

                         TIMING STATISTICS ON RANK 0:
 CPU        TIME:   STEP =      0.00 ,  TOTAL =        0.3 SECONDS (    0.0 MIN)
 WALL CLOCK TIME:   STEP =      0.01 ,  TOTAL =        0.2 SECONDS (    0.0 MIN)
 CPU UTILIZATION:   STEP =      0.00%,  TOTAL =     141.07%

 DIRECT SCF CALCULATION, SCHWRZ=T   FDIFF=F

                                                                                                           NONZERO    BLOCKS
 ITER EX   TOTAL ENERGY      E CHANGE  DENSITY CHANGE    DIIS ERROR      VIR. SHIFT       DAMPING        INTEGRALS   SKIPPED
          * * *   INITIATING DIIS PROCEDURE   * * *
   1  0    -0.933163730    -0.933163730   0.000030779   0.000023842     0.000000000     1.000000000              6         0
   2  1    -0.933163730     0.000000000   0.000004928   0.000003290     0.000000000     1.000000000              6         0
   3  2    -0.933163730     0.000000000   0.000000000   0.000000000     0.000000000     1.000000000              6         0

          -----------------
          DENSITY CONVERGED
          -----------------
     TIME TO FORM FOCK OPERATORS =       0.00 SECONDS (       0.00 SEC/ITER)
     FOCK TIME ON FIRST ITERATION=       0.00, LAST ITERATION=       0.00
     TIME TO SOLVE SCF EQUATIONS =       0.01 SECONDS (       0.00 SEC/ITER)

 FINAL ENERGY IS       -0.9331637303 AFTER   3 ITERATIONS

          --------------------
          SPIN SZ   =    0.000
          S-SQUARED =    1.000
          --------------------
 ...... END OF UHF CALCULATION ......

                         TIMING STATISTICS ON RANK 0:
 CPU        TIME:   STEP =      0.01 ,  TOTAL =        0.3 SECONDS (    0.0 MIN)
 WALL CLOCK TIME:   STEP =      0.03 ,  TOTAL =        0.2 SECONDS (    0.0 MIN)
 CPU UTILIZATION:   STEP =     33.64%,  TOTAL =     127.08%

 ---- SURFACE MAPPING GEOMETRY ----
 COORD 1=  -0.05000  COORD 2=   0.00000
 HAS ENERGY VALUE         -0.9331637303
 H             0.0000000000          0.0000000000          0.0000000000
 H             0.0000000000          0.0000000000          4.9500000000
 ----------------------------------
 ...... END OF ONE-ELECTRON INTEGRALS ......

                         TIMING STATISTICS ON RANK 0:
 CPU        TIME:   STEP =      0.00 ,  TOTAL =        0.3 SECONDS (    0.0 MIN)
 WALL CLOCK TIME:   STEP =      0.00 ,  TOTAL =        0.2 SECONDS (    0.0 MIN)
 CPU UTILIZATION:   STEP =      0.00%,  TOTAL =     126.35%

 LOG10 OF CONDITION NUMBER OF OVERLAP MATRIX IS:  1.26791229E-04
 ...... END OF TWO-ELECTRON INTEGRALS .....

                         TIMING STATISTICS ON RANK 0:
 CPU        TIME:   STEP =      0.01 ,  TOTAL =        0.3 SECONDS (    0.0 MIN)
 WALL CLOCK TIME:   STEP =      0.01 ,  TOTAL =        0.2 SECONDS (    0.0 MIN)
 CPU UTILIZATION:   STEP =    122.23%,  TOTAL =     126.21%

 DIRECT SCF CALCULATION, SCHWRZ=T   FDIFF=F

                                                                                                           NONZERO    BLOCKS
 ITER EX   TOTAL ENERGY      E CHANGE  DENSITY CHANGE    DIIS ERROR      VIR. SHIFT       DAMPING        INTEGRALS   SKIPPED
          * * *   INITIATING DIIS PROCEDURE   * * *
   1  0    -0.933163738    -0.933163738   0.000034535   0.000026751     0.000000000     1.000000000              6         0
   2  1    -0.933163739    -0.000000001   0.000005595   0.000003730     0.000000000     1.000000000              6         0
          * * *    REDUCING  DIIS SUBSPACE    * * *
   3  2    -0.933163739     0.000000000   0.000000000   0.000000000     0.000000000     1.000000000              6         0

          -----------------
          DENSITY CONVERGED
          -----------------
     TIME TO FORM FOCK OPERATORS =       0.01 SECONDS (       0.00 SEC/ITER)
     FOCK TIME ON FIRST ITERATION=       0.00, LAST ITERATION=       0.01
     TIME TO SOLVE SCF EQUATIONS =       0.00 SECONDS (       0.00 SEC/ITER)

 FINAL ENERGY IS       -0.9331637388 AFTER   3 ITERATIONS

          --------------------
          SPIN SZ   =    0.000
          S-SQUARED =    1.000
          --------------------
 ...... END OF UHF CALCULATION ......

                         TIMING STATISTICS ON RANK 0:
 CPU        TIME:   STEP =      0.02 ,  TOTAL =        0.3 SECONDS (    0.0 MIN)
 WALL CLOCK TIME:   STEP =      0.04 ,  TOTAL =        0.3 SECONDS (    0.0 MIN)
 CPU UTILIZATION:   STEP =     54.72%,  TOTAL =     116.68%

 ---- SURFACE MAPPING GEOMETRY ----
 COORD 1=  -0.10000  COORD 2=   0.00000
 HAS ENERGY VALUE         -0.9331637388
 H             0.0000000000          0.0000000000          0.0000000000
 H             0.0000000000          0.0000000000          4.9000000000
 ----------------------------------
 ...... END OF ONE-ELECTRON INTEGRALS ......

                         TIMING STATISTICS ON RANK 0:
 CPU        TIME:   STEP =      0.00 ,  TOTAL =        0.3 SECONDS (    0.0 MIN)
 WALL CLOCK TIME:   STEP =      0.00 ,  TOTAL =        0.3 SECONDS (    0.0 MIN)
 CPU UTILIZATION:   STEP =      0.00%,  TOTAL =     115.79%

 LOG10 OF CONDITION NUMBER OF OVERLAP MATRIX IS:  1.47223461E-04
 ...... END OF TWO-ELECTRON INTEGRALS .....

                         TIMING STATISTICS ON RANK 0:
 CPU        TIME:   STEP =      0.01 ,  TOTAL =        0.3 SECONDS (    0.0 MIN)
 WALL CLOCK TIME:   STEP =      0.01 ,  TOTAL =        0.3 SECONDS (    0.0 MIN)
 CPU UTILIZATION:   STEP =     76.70%,  TOTAL =     114.02%

 DIRECT SCF CALCULATION, SCHWRZ=T   FDIFF=F

                                                                                                           NONZERO    BLOCKS
 ITER EX   TOTAL ENERGY      E CHANGE  DENSITY CHANGE    DIIS ERROR      VIR. SHIFT       DAMPING        INTEGRALS   SKIPPED
          * * *   INITIATING DIIS PROCEDURE   * * *
   1  0    -0.933163749    -0.933163749   0.000038697   0.000029975     0.000000000     1.000000000              6         0
   2  1    -0.933163750    -0.000000001   0.000006344   0.000004222     0.000000000     1.000000000              6         0
   3  2    -0.933163750     0.000000000   0.000000000   0.000000000     0.000000000     1.000000000              6         0

          -----------------
          DENSITY CONVERGED
          -----------------
     TIME TO FORM FOCK OPERATORS =       0.00 SECONDS (       0.00 SEC/ITER)
     FOCK TIME ON FIRST ITERATION=       0.00, LAST ITERATION=       0.00
     TIME TO SOLVE SCF EQUATIONS =       0.00 SECONDS (       0.00 SEC/ITER)

 FINAL ENERGY IS       -0.9331637496 AFTER   3 ITERATIONS

          --------------------
          SPIN SZ   =    0.000
          S-SQUARED =    1.000
          --------------------
 ...... END OF UHF CALCULATION ......

                         TIMING STATISTICS ON RANK 0:
 CPU        TIME:   STEP =      0.01 ,  TOTAL =        0.3 SECONDS (    0.0 MIN)
 WALL CLOCK TIME:   STEP =      0.03 ,  TOTAL =        0.3 SECONDS (    0.0 MIN)
 CPU UTILIZATION:   STEP =     34.98%,  TOTAL =     106.92%

 ---- SURFACE MAPPING GEOMETRY ----
 COORD 1=  -0.15000  COORD 2=   0.00000
 HAS ENERGY VALUE         -0.9331637496
 H             0.0000000000          0.0000000000          0.0000000000
 H             0.0000000000          0.0000000000          4.8500000000
 ----------------------------------
 ...... END OF ONE-ELECTRON INTEGRALS ......

                         TIMING STATISTICS ON RANK 0:
 CPU        TIME:   STEP =      0.00 ,  TOTAL =        0.3 SECONDS (    0.0 MIN)
 WALL CLOCK TIME:   STEP =      0.00 ,  TOTAL =        0.3 SECONDS (    0.0 MIN)
 CPU UTILIZATION:   STEP =      0.00%,  TOTAL =     106.36%

 LOG10 OF CONDITION NUMBER OF OVERLAP MATRIX IS:  1.70721721E-04
 ...... END OF TWO-ELECTRON INTEGRALS .....

                         TIMING STATISTICS ON RANK 0:
 CPU        TIME:   STEP =      0.01 ,  TOTAL =        0.3 SECONDS (    0.0 MIN)
 WALL CLOCK TIME:   STEP =      0.01 ,  TOTAL =        0.3 SECONDS (    0.0 MIN)
 CPU UTILIZATION:   STEP =    147.86%,  TOTAL =     107.22%

 DIRECT SCF CALCULATION, SCHWRZ=T   FDIFF=F

                                                                                                           NONZERO    BLOCKS
 ITER EX   TOTAL ENERGY      E CHANGE  DENSITY CHANGE    DIIS ERROR      VIR. SHIFT       DAMPING        INTEGRALS   SKIPPED
          * * *   INITIATING DIIS PROCEDURE   * * *
   1  0    -0.933163763    -0.933163763   0.000043305   0.000033545     0.000000000     1.000000000              6         0
   2  1    -0.933163763    -0.000000001   0.000007186   0.000004774     0.000000000     1.000000000              6         0
          * * *    REDUCING  DIIS SUBSPACE    * * *
   3  2    -0.933163763     0.000000000   0.000000000   0.000000000     0.000000000     1.000000000              6         0

          -----------------
          DENSITY CONVERGED
          -----------------
     TIME TO FORM FOCK OPERATORS =       0.01 SECONDS (       0.00 SEC/ITER)
     FOCK TIME ON FIRST ITERATION=       0.01, LAST ITERATION=       0.00
     TIME TO SOLVE SCF EQUATIONS =       0.00 SECONDS (       0.00 SEC/ITER)

 FINAL ENERGY IS       -0.9331637634 AFTER   3 ITERATIONS

          --------------------
          SPIN SZ   =    0.000
          S-SQUARED =    1.000
          --------------------
 ...... END OF UHF CALCULATION ......

                         TIMING STATISTICS ON RANK 0:
 CPU        TIME:   STEP =      0.01 ,  TOTAL =        0.4 SECONDS (    0.0 MIN)
 WALL CLOCK TIME:   STEP =      0.03 ,  TOTAL =        0.4 SECONDS (    0.0 MIN)
 CPU UTILIZATION:   STEP =     39.80%,  TOTAL =     102.40%

 ---- SURFACE MAPPING GEOMETRY ----
 COORD 1=  -0.20000  COORD 2=   0.00000
 HAS ENERGY VALUE         -0.9331637634
 H             0.0000000000          0.0000000000          0.0000000000
 H             0.0000000000          0.0000000000          4.8000000000
 ----------------------------------
 ...... END OF ONE-ELECTRON INTEGRALS ......

                         TIMING STATISTICS ON RANK 0:
 CPU        TIME:   STEP =      0.00 ,  TOTAL =        0.4 SECONDS (    0.0 MIN)
 WALL CLOCK TIME:   STEP =      0.00 ,  TOTAL =        0.4 SECONDS (    0.0 MIN)
 CPU UTILIZATION:   STEP =      0.00%,  TOTAL =     102.07%

 LOG10 OF CONDITION NUMBER OF OVERLAP MATRIX IS:  1.97710149E-04
 ...... END OF TWO-ELECTRON INTEGRALS .....

                         TIMING STATISTICS ON RANK 0:
 CPU        TIME:   STEP =      0.01 ,  TOTAL =        0.4 SECONDS (    0.0 MIN)
 WALL CLOCK TIME:   STEP =      0.01 ,  TOTAL =        0.4 SECONDS (    0.0 MIN)
 CPU UTILIZATION:   STEP =    138.20%,  TOTAL =     102.80%

 DIRECT SCF CALCULATION, SCHWRZ=T   FDIFF=F

                                                                                                           NONZERO    BLOCKS
 ITER EX   TOTAL ENERGY      E CHANGE  DENSITY CHANGE    DIIS ERROR      VIR. SHIFT       DAMPING        INTEGRALS   SKIPPED
          * * *   INITIATING DIIS PROCEDURE   * * *
   1  0    -0.933163780    -0.933163780   0.000048402   0.000037492     0.000000000     1.000000000              6         0
   2  1    -0.933163781    -0.000000001   0.000008131   0.000005392     0.000000000     1.000000000              6         0
          * * *    REDUCING  DIIS SUBSPACE    * * *
   3  2    -0.933163781     0.000000000   0.000000000   0.000000000     0.000000000     1.000000000              6         0

          -----------------
          DENSITY CONVERGED
          -----------------
     TIME TO FORM FOCK OPERATORS =       0.00 SECONDS (       0.00 SEC/ITER)
     FOCK TIME ON FIRST ITERATION=       0.00, LAST ITERATION=       0.00
     TIME TO SOLVE SCF EQUATIONS =       0.01 SECONDS (       0.00 SEC/ITER)

 FINAL ENERGY IS       -0.9331637807 AFTER   3 ITERATIONS

          --------------------
          SPIN SZ   =    0.000
          S-SQUARED =    1.000
          --------------------
 ...... END OF UHF CALCULATION ......

                         TIMING STATISTICS ON RANK 0:
 CPU        TIME:   STEP =      0.01 ,  TOTAL =        0.4 SECONDS (    0.0 MIN)
 WALL CLOCK TIME:   STEP =      0.03 ,  TOTAL =        0.4 SECONDS (    0.0 MIN)
 CPU UTILIZATION:   STEP =     39.92%,  TOTAL =      98.70%

 ---- SURFACE MAPPING GEOMETRY ----
 COORD 1=  -0.25000  COORD 2=   0.00000
 HAS ENERGY VALUE         -0.9331637807
 H             0.0000000000          0.0000000000          0.0000000000
 H             0.0000000000          0.0000000000          4.7500000000
 ----------------------------------
 ...... END OF ONE-ELECTRON INTEGRALS ......

                         TIMING STATISTICS ON RANK 0:
 CPU        TIME:   STEP =      0.00 ,  TOTAL =        0.4 SECONDS (    0.0 MIN)
 WALL CLOCK TIME:   STEP =      0.00 ,  TOTAL =        0.4 SECONDS (    0.0 MIN)
 CPU UTILIZATION:   STEP =      0.00%,  TOTAL =      98.38%

 LOG10 OF CONDITION NUMBER OF OVERLAP MATRIX IS:  2.28666306E-04
 ...... END OF TWO-ELECTRON INTEGRALS .....

                         TIMING STATISTICS ON RANK 0:
 CPU        TIME:   STEP =      0.00 ,  TOTAL =        0.4 SECONDS (    0.0 MIN)
 WALL CLOCK TIME:   STEP =      0.01 ,  TOTAL =        0.4 SECONDS (    0.0 MIN)
 CPU UTILIZATION:   STEP =      0.00%,  TOTAL =      96.61%

 DIRECT SCF CALCULATION, SCHWRZ=T   FDIFF=F

                                                                                                           NONZERO    BLOCKS
 ITER EX   TOTAL ENERGY      E CHANGE  DENSITY CHANGE    DIIS ERROR      VIR. SHIFT       DAMPING        INTEGRALS   SKIPPED
          * * *   INITIATING DIIS PROCEDURE   * * *
   1  0    -0.933163801    -0.933163801   0.000054032   0.000041854     0.000000000     1.000000000              6         0
   2  1    -0.933163803    -0.000000001   0.000009189   0.000006084     0.000000000     1.000000000              6         0
          * * *    REDUCING  DIIS SUBSPACE    * * *
   3  2    -0.933163803     0.000000000   0.000000000   0.000000000     0.000000000     1.000000000              6         0

          -----------------
          DENSITY CONVERGED
          -----------------
     TIME TO FORM FOCK OPERATORS =       0.02 SECONDS (       0.01 SEC/ITER)
     FOCK TIME ON FIRST ITERATION=       0.02, LAST ITERATION=       0.00
     TIME TO SOLVE SCF EQUATIONS =       0.00 SECONDS (       0.00 SEC/ITER)

 FINAL ENERGY IS       -0.9331638027 AFTER   3 ITERATIONS

          --------------------
          SPIN SZ   =    0.000
          S-SQUARED =    1.000
          --------------------
 ...... END OF UHF CALCULATION ......

                         TIMING STATISTICS ON RANK 0:
 CPU        TIME:   STEP =      0.02 ,  TOTAL =        0.4 SECONDS (    0.0 MIN)
 WALL CLOCK TIME:   STEP =      0.03 ,  TOTAL =        0.4 SECONDS (    0.0 MIN)
 CPU UTILIZATION:   STEP =     78.53%,  TOTAL =      95.51%

 ---- SURFACE MAPPING GEOMETRY ----
 COORD 1=  -0.30000  COORD 2=   0.00000
 HAS ENERGY VALUE         -0.9331638027
 H             0.0000000000          0.0000000000          0.0000000000
 H             0.0000000000          0.0000000000          4.7000000000
 ----------------------------------
 ...... END OF ONE-ELECTRON INTEGRALS ......

                         TIMING STATISTICS ON RANK 0:
 CPU        TIME:   STEP =      0.00 ,  TOTAL =        0.4 SECONDS (    0.0 MIN)
 WALL CLOCK TIME:   STEP =      0.00 ,  TOTAL =        0.4 SECONDS (    0.0 MIN)
 CPU UTILIZATION:   STEP =      0.00%,  TOTAL =      95.19%

 LOG10 OF CONDITION NUMBER OF OVERLAP MATRIX IS:  2.64127201E-04
 ...... END OF TWO-ELECTRON INTEGRALS .....

                         TIMING STATISTICS ON RANK 0:
 CPU        TIME:   STEP =      0.01 ,  TOTAL =        0.4 SECONDS (    0.0 MIN)
 WALL CLOCK TIME:   STEP =      0.01 ,  TOTAL =        0.4 SECONDS (    0.0 MIN)
 CPU UTILIZATION:   STEP =    135.76%,  TOTAL =      95.89%

 DIRECT SCF CALCULATION, SCHWRZ=T   FDIFF=F

                                                                                                           NONZERO    BLOCKS
 ITER EX   TOTAL ENERGY      E CHANGE  DENSITY CHANGE    DIIS ERROR      VIR. SHIFT       DAMPING        INTEGRALS   SKIPPED
          * * *   INITIATING DIIS PROCEDURE   * * *
   1  0    -0.933163829    -0.933163829   0.000060247   0.000046668     0.000000000     1.000000000              6         0
   2  1    -0.933163830    -0.000000002   0.000010376   0.000006856     0.000000000     1.000000000              6         0
          * * *    REDUCING  DIIS SUBSPACE    * * *
   3  2    -0.933163830     0.000000000   0.000000000   0.000000000     0.000000000     1.000000000              6         0

          -----------------
          DENSITY CONVERGED
          -----------------
     TIME TO FORM FOCK OPERATORS =       0.00 SECONDS (       0.00 SEC/ITER)
     FOCK TIME ON FIRST ITERATION=       0.00, LAST ITERATION=       0.00
     TIME TO SOLVE SCF EQUATIONS =       0.00 SECONDS (       0.00 SEC/ITER)

 FINAL ENERGY IS       -0.9331638303 AFTER   3 ITERATIONS

          --------------------
          SPIN SZ   =    0.000
          S-SQUARED =    1.000
          --------------------
 ...... END OF UHF CALCULATION ......

                         TIMING STATISTICS ON RANK 0:
 CPU        TIME:   STEP =      0.01 ,  TOTAL =        0.4 SECONDS (    0.0 MIN)
 WALL CLOCK TIME:   STEP =      0.02 ,  TOTAL =        0.5 SECONDS (    0.0 MIN)
 CPU UTILIZATION:   STEP =     40.18%,  TOTAL =      92.83%

 ---- SURFACE MAPPING GEOMETRY ----
 COORD 1=  -0.35000  COORD 2=   0.00000
 HAS ENERGY VALUE         -0.9331638303
 H             0.0000000000          0.0000000000          0.0000000000
 H             0.0000000000          0.0000000000          4.6500000000
 ----------------------------------
 ...... END OF ONE-ELECTRON INTEGRALS ......

                         TIMING STATISTICS ON RANK 0:
 CPU        TIME:   STEP =      0.00 ,  TOTAL =        0.4 SECONDS (    0.0 MIN)
 WALL CLOCK TIME:   STEP =      0.00 ,  TOTAL =        0.5 SECONDS (    0.0 MIN)
 CPU UTILIZATION:   STEP =      0.00%,  TOTAL =      92.61%

 LOG10 OF CONDITION NUMBER OF OVERLAP MATRIX IS:  3.04695908E-04
 ...... END OF TWO-ELECTRON INTEGRALS .....

                         TIMING STATISTICS ON RANK 0:
 CPU        TIME:   STEP =      0.00 ,  TOTAL =        0.4 SECONDS (    0.0 MIN)
 WALL CLOCK TIME:   STEP =      0.01 ,  TOTAL =        0.5 SECONDS (    0.0 MIN)
 CPU UTILIZATION:   STEP =      0.00%,  TOTAL =      91.07%

 DIRECT SCF CALCULATION, SCHWRZ=T   FDIFF=F

                                                                                                           NONZERO    BLOCKS
 ITER EX   TOTAL ENERGY      E CHANGE  DENSITY CHANGE    DIIS ERROR      VIR. SHIFT       DAMPING        INTEGRALS   SKIPPED
          * * *   INITIATING DIIS PROCEDURE   * * *
   1  0    -0.933163863    -0.933163863   0.000067101   0.000051977     0.000000000     1.000000000              6         0
   2  1    -0.933163865    -0.000000002   0.000011703   0.000007719     0.000000000     1.000000000              6         0
          * * *    REDUCING  DIIS SUBSPACE    * * *
   3  2    -0.933163865     0.000000000   0.000000000   0.000000000     0.000000000     1.000000000              6         0

          -----------------
          DENSITY CONVERGED
          -----------------
     TIME TO FORM FOCK OPERATORS =       0.00 SECONDS (       0.00 SEC/ITER)
     FOCK TIME ON FIRST ITERATION=       0.00, LAST ITERATION=       0.00
     TIME TO SOLVE SCF EQUATIONS =       0.02 SECONDS (       0.01 SEC/ITER)

 FINAL ENERGY IS       -0.9331638649 AFTER   3 ITERATIONS

          --------------------
          SPIN SZ   =    0.000
          S-SQUARED =    1.000
          --------------------
 ...... END OF UHF CALCULATION ......

                         TIMING STATISTICS ON RANK 0:
 CPU        TIME:   STEP =      0.02 ,  TOTAL =        0.4 SECONDS (    0.0 MIN)
 WALL CLOCK TIME:   STEP =      0.02 ,  TOTAL =        0.5 SECONDS (    0.0 MIN)
 CPU UTILIZATION:   STEP =     82.70%,  TOTAL =      90.65%

 ---- SURFACE MAPPING GEOMETRY ----
 COORD 1=  -0.40000  COORD 2=   0.00000
 HAS ENERGY VALUE         -0.9331638649
 H             0.0000000000          0.0000000000          0.0000000000
 H             0.0000000000          0.0000000000          4.6000000000
 ----------------------------------
 ...... END OF ONE-ELECTRON INTEGRALS ......

                         TIMING STATISTICS ON RANK 0:
 CPU        TIME:   STEP =      0.00 ,  TOTAL =        0.4 SECONDS (    0.0 MIN)
 WALL CLOCK TIME:   STEP =      0.00 ,  TOTAL =        0.5 SECONDS (    0.0 MIN)
 CPU UTILIZATION:   STEP =      0.00%,  TOTAL =      90.44%

 LOG10 OF CONDITION NUMBER OF OVERLAP MATRIX IS:  3.51048836E-04
 ...... END OF TWO-ELECTRON INTEGRALS .....

                         TIMING STATISTICS ON RANK 0:
 CPU        TIME:   STEP =      0.00 ,  TOTAL =        0.4 SECONDS (    0.0 MIN)
 WALL CLOCK TIME:   STEP =      0.01 ,  TOTAL =        0.5 SECONDS (    0.0 MIN)
 CPU UTILIZATION:   STEP =      0.00%,  TOTAL =      89.14%

 DIRECT SCF CALCULATION, SCHWRZ=T   FDIFF=F

                                                                                                           NONZERO    BLOCKS
 ITER EX   TOTAL ENERGY      E CHANGE  DENSITY CHANGE    DIIS ERROR      VIR. SHIFT       DAMPING        INTEGRALS   SKIPPED
          * * *   INITIATING DIIS PROCEDURE   * * *
   1  0    -0.933163906    -0.933163906   0.000074652   0.000057826     0.000000000     1.000000000              6         0
   2  1    -0.933163908    -0.000000002   0.000013189   0.000008682     0.000000000     1.000000000              6         0
          * * *    REDUCING  DIIS SUBSPACE    * * *
   3  2    -0.933163908     0.000000000   0.000000000   0.000000000     0.000000000     1.000000000              6         0

          -----------------
          DENSITY CONVERGED
          -----------------
     TIME TO FORM FOCK OPERATORS =       0.00 SECONDS (       0.00 SEC/ITER)
     FOCK TIME ON FIRST ITERATION=       0.00, LAST ITERATION=       0.00
     TIME TO SOLVE SCF EQUATIONS =       0.02 SECONDS (       0.01 SEC/ITER)

 FINAL ENERGY IS       -0.9331639084 AFTER   3 ITERATIONS

          --------------------
          SPIN SZ   =    0.000
          S-SQUARED =    1.000
          --------------------
 ...... END OF UHF CALCULATION ......

                         TIMING STATISTICS ON RANK 0:
 CPU        TIME:   STEP =      0.02 ,  TOTAL =        0.5 SECONDS (    0.0 MIN)
 WALL CLOCK TIME:   STEP =      0.03 ,  TOTAL =        0.5 SECONDS (    0.0 MIN)
 CPU UTILIZATION:   STEP =     77.39%,  TOTAL =      88.56%

 ---- SURFACE MAPPING GEOMETRY ----
 COORD 1=  -0.45000  COORD 2=   0.00000
 HAS ENERGY VALUE         -0.9331639084
 H             0.0000000000          0.0000000000          0.0000000000
 H             0.0000000000          0.0000000000          4.5500000000
 ----------------------------------
 ...... END OF ONE-ELECTRON INTEGRALS ......

                         TIMING STATISTICS ON RANK 0:
 CPU        TIME:   STEP =      0.00 ,  TOTAL =        0.5 SECONDS (    0.0 MIN)
 WALL CLOCK TIME:   STEP =      0.00 ,  TOTAL =        0.5 SECONDS (    0.0 MIN)
 CPU UTILIZATION:   STEP =      0.00%,  TOTAL =      88.37%

 LOG10 OF CONDITION NUMBER OF OVERLAP MATRIX IS:  4.03943680E-04
 ...... END OF TWO-ELECTRON INTEGRALS .....

                         TIMING STATISTICS ON RANK 0:
 CPU        TIME:   STEP =      0.00 ,  TOTAL =        0.5 SECONDS (    0.0 MIN)
 WALL CLOCK TIME:   STEP =      0.01 ,  TOTAL =        0.5 SECONDS (    0.0 MIN)
 CPU UTILIZATION:   STEP =      0.00%,  TOTAL =      87.19%

 DIRECT SCF CALCULATION, SCHWRZ=T   FDIFF=F

                                                                                                           NONZERO    BLOCKS
 ITER EX   TOTAL ENERGY      E CHANGE  DENSITY CHANGE    DIIS ERROR      VIR. SHIFT       DAMPING        INTEGRALS   SKIPPED
          * * *   INITIATING DIIS PROCEDURE   * * *
   1  0    -0.933163960    -0.933163960   0.000082967   0.000064267     0.000000000     1.000000000              6         0
   2  1    -0.933163963    -0.000000003   0.000014850   0.000009757     0.000000000     1.000000000              6         0
          * * *    REDUCING  DIIS SUBSPACE    * * *
   3  2    -0.933163963     0.000000000   0.000000000   0.000000000     0.000000000     1.000000000              6         0

          -----------------
          DENSITY CONVERGED
          -----------------
     TIME TO FORM FOCK OPERATORS =       0.00 SECONDS (       0.00 SEC/ITER)
     FOCK TIME ON FIRST ITERATION=       0.00, LAST ITERATION=       0.00
     TIME TO SOLVE SCF EQUATIONS =       0.00 SECONDS (       0.00 SEC/ITER)

 FINAL ENERGY IS       -0.9331639628 AFTER   3 ITERATIONS

          --------------------
          SPIN SZ   =    0.000
          S-SQUARED =    1.000
          --------------------
 ...... END OF UHF CALCULATION ......

                         TIMING STATISTICS ON RANK 0:
 CPU        TIME:   STEP =      0.01 ,  TOTAL =        0.5 SECONDS (    0.0 MIN)
 WALL CLOCK TIME:   STEP =      0.02 ,  TOTAL =        0.6 SECONDS (    0.0 MIN)
 CPU UTILIZATION:   STEP =     40.33%,  TOTAL =      85.09%

 ---- SURFACE MAPPING GEOMETRY ----
 COORD 1=  -0.50000  COORD 2=   0.00000
 HAS ENERGY VALUE         -0.9331639628
 H             0.0000000000          0.0000000000          0.0000000000
 H             0.0000000000          0.0000000000          4.5000000000
 ----------------------------------
 ...... END OF ONE-ELECTRON INTEGRALS ......

                         TIMING STATISTICS ON RANK 0:
 CPU        TIME:   STEP =      0.00 ,  TOTAL =        0.5 SECONDS (    0.0 MIN)
 WALL CLOCK TIME:   STEP =      0.00 ,  TOTAL =        0.6 SECONDS (    0.0 MIN)
 CPU UTILIZATION:   STEP =      0.00%,  TOTAL =      84.87%

 LOG10 OF CONDITION NUMBER OF OVERLAP MATRIX IS:  4.64228128E-04
 ...... END OF TWO-ELECTRON INTEGRALS .....

                         TIMING STATISTICS ON RANK 0:
 CPU        TIME:   STEP =      0.01 ,  TOTAL =        0.5 SECONDS (    0.0 MIN)
 WALL CLOCK TIME:   STEP =      0.01 ,  TOTAL =        0.6 SECONDS (    0.0 MIN)
 CPU UTILIZATION:   STEP =     90.08%,  TOTAL =      84.97%

 DIRECT SCF CALCULATION, SCHWRZ=T   FDIFF=F

                                                                                                           NONZERO    BLOCKS
 ITER EX   TOTAL ENERGY      E CHANGE  DENSITY CHANGE    DIIS ERROR      VIR. SHIFT       DAMPING        INTEGRALS   SKIPPED
          * * *   INITIATING DIIS PROCEDURE   * * *
   1  0    -0.933164027    -0.933164027   0.000092113   0.000071352     0.000000000     1.000000000              6         0
   2  1    -0.933164031    -0.000000004   0.000016706   0.000010954     0.000000000     1.000000000              6         0
          * * *    REDUCING  DIIS SUBSPACE    * * *
   3  2    -0.933164031     0.000000000   0.000000000   0.000000000     0.000000000     1.000000000              6         0

          -----------------
          DENSITY CONVERGED
          -----------------
     TIME TO FORM FOCK OPERATORS =       0.00 SECONDS (       0.00 SEC/ITER)
     FOCK TIME ON FIRST ITERATION=       0.00, LAST ITERATION=       0.00
     TIME TO SOLVE SCF EQUATIONS =       0.02 SECONDS (       0.01 SEC/ITER)

 FINAL ENERGY IS       -0.9331640307 AFTER   3 ITERATIONS

          --------------------
          SPIN SZ   =    0.000
          S-SQUARED =    1.000
          --------------------
 ...... END OF UHF CALCULATION ......

                         TIMING STATISTICS ON RANK 0:
 CPU        TIME:   STEP =      0.02 ,  TOTAL =        0.5 SECONDS (    0.0 MIN)
 WALL CLOCK TIME:   STEP =      0.04 ,  TOTAL =        0.6 SECONDS (    0.0 MIN)
 CPU UTILIZATION:   STEP =     55.04%,  TOTAL =      83.16%

 ---- SURFACE MAPPING GEOMETRY ----
 COORD 1=  -0.55000  COORD 2=   0.00000
 HAS ENERGY VALUE         -0.9331640307
 H             0.0000000000          0.0000000000          0.0000000000
 H             0.0000000000          0.0000000000          4.4500000000
 ----------------------------------
 ...... END OF ONE-ELECTRON INTEGRALS ......

                         TIMING STATISTICS ON RANK 0:
 CPU        TIME:   STEP =      0.00 ,  TOTAL =        0.5 SECONDS (    0.0 MIN)
 WALL CLOCK TIME:   STEP =      0.00 ,  TOTAL =        0.6 SECONDS (    0.0 MIN)
 CPU UTILIZATION:   STEP =      0.00%,  TOTAL =      82.86%

 LOG10 OF CONDITION NUMBER OF OVERLAP MATRIX IS:  5.32849356E-04
 ...... END OF TWO-ELECTRON INTEGRALS .....

                         TIMING STATISTICS ON RANK 0:
 CPU        TIME:   STEP =      0.01 ,  TOTAL =        0.5 SECONDS (    0.0 MIN)
 WALL CLOCK TIME:   STEP =      0.01 ,  TOTAL =        0.6 SECONDS (    0.0 MIN)
 CPU UTILIZATION:   STEP =    145.22%,  TOTAL =      83.56%

 DIRECT SCF CALCULATION, SCHWRZ=T   FDIFF=F

                                                                                                           NONZERO    BLOCKS
 ITER EX   TOTAL ENERGY      E CHANGE  DENSITY CHANGE    DIIS ERROR      VIR. SHIFT       DAMPING        INTEGRALS   SKIPPED
          * * *   INITIATING DIIS PROCEDURE   * * *
   1  0    -0.933164110    -0.933164110   0.000102168   0.000079140     0.000000000     1.000000000              6         0
   2  1    -0.933164115    -0.000000005   0.000018779   0.000012288     0.000000000     1.000000000              6         0
          * * *    REDUCING  DIIS SUBSPACE    * * *
   3  2    -0.933164115     0.000000000   0.000000000   0.000000000     0.000000000     1.000000000              6         0

          -----------------
          DENSITY CONVERGED
          -----------------
     TIME TO FORM FOCK OPERATORS =       0.01 SECONDS (       0.00 SEC/ITER)
     FOCK TIME ON FIRST ITERATION=       0.00, LAST ITERATION=       0.01
     TIME TO SOLVE SCF EQUATIONS =       0.00 SECONDS (       0.00 SEC/ITER)

 FINAL ENERGY IS       -0.9331641153 AFTER   3 ITERATIONS

          --------------------
          SPIN SZ   =    0.000
          S-SQUARED =    1.000
          --------------------
 ...... END OF UHF CALCULATION ......

                         TIMING STATISTICS ON RANK 0:
 CPU        TIME:   STEP =      0.02 ,  TOTAL =        0.5 SECONDS (    0.0 MIN)
 WALL CLOCK TIME:   STEP =      0.03 ,  TOTAL =        0.6 SECONDS (    0.0 MIN)
 CPU UTILIZATION:   STEP =     77.71%,  TOTAL =      83.33%

 ---- SURFACE MAPPING GEOMETRY ----
 COORD 1=  -0.60000  COORD 2=   0.00000
 HAS ENERGY VALUE         -0.9331641153
 H             0.0000000000          0.0000000000          0.0000000000
 H             0.0000000000          0.0000000000          4.4000000000
 ----------------------------------
 ...... END OF ONE-ELECTRON INTEGRALS ......

                         TIMING STATISTICS ON RANK 0:
 CPU        TIME:   STEP =      0.00 ,  TOTAL =        0.5 SECONDS (    0.0 MIN)
 WALL CLOCK TIME:   STEP =      0.00 ,  TOTAL =        0.6 SECONDS (    0.0 MIN)
 CPU UTILIZATION:   STEP =      0.00%,  TOTAL =      83.14%

 LOG10 OF CONDITION NUMBER OF OVERLAP MATRIX IS:  6.10864389E-04
 ...... END OF TWO-ELECTRON INTEGRALS .....

                         TIMING STATISTICS ON RANK 0:
 CPU        TIME:   STEP =      0.00 ,  TOTAL =        0.5 SECONDS (    0.0 MIN)
 WALL CLOCK TIME:   STEP =      0.01 ,  TOTAL =        0.6 SECONDS (    0.0 MIN)
 CPU UTILIZATION:   STEP =      0.00%,  TOTAL =      82.20%

 DIRECT SCF CALCULATION, SCHWRZ=T   FDIFF=F

                                                                                                           NONZERO    BLOCKS
 ITER EX   TOTAL ENERGY      E CHANGE  DENSITY CHANGE    DIIS ERROR      VIR. SHIFT       DAMPING        INTEGRALS   SKIPPED
          * * *   INITIATING DIIS PROCEDURE   * * *
   1  0    -0.933164215    -0.933164215   0.000113212   0.000087695     0.000000000     1.000000000              6         0
   2  1    -0.933164220    -0.000000006   0.000021093   0.000013773     0.000000000     1.000000000              6         0
          * * *    REDUCING  DIIS SUBSPACE    * * *
   3  2    -0.933164220     0.000000000   0.000000000   0.000000000     0.000000000     1.000000000              6         0

          -----------------
          DENSITY CONVERGED
          -----------------
     TIME TO FORM FOCK OPERATORS =       0.00 SECONDS (       0.00 SEC/ITER)
     FOCK TIME ON FIRST ITERATION=       0.00, LAST ITERATION=       0.00
     TIME TO SOLVE SCF EQUATIONS =       0.01 SECONDS (       0.00 SEC/ITER)

 FINAL ENERGY IS       -0.9331642204 AFTER   3 ITERATIONS

          --------------------
          SPIN SZ   =    0.000
          S-SQUARED =    1.000
          --------------------
 ...... END OF UHF CALCULATION ......

                         TIMING STATISTICS ON RANK 0:
 CPU        TIME:   STEP =      0.02 ,  TOTAL =        0.5 SECONDS (    0.0 MIN)
 WALL CLOCK TIME:   STEP =      0.02 ,  TOTAL =        0.7 SECONDS (    0.0 MIN)
 CPU UTILIZATION:   STEP =     83.04%,  TOTAL =      82.23%

 ---- SURFACE MAPPING GEOMETRY ----
 COORD 1=  -0.65000  COORD 2=   0.00000
 HAS ENERGY VALUE         -0.9331642204
 H             0.0000000000          0.0000000000          0.0000000000
 H             0.0000000000          0.0000000000          4.3500000000
 ----------------------------------
 ...... END OF ONE-ELECTRON INTEGRALS ......

                         TIMING STATISTICS ON RANK 0:
 CPU        TIME:   STEP =      0.00 ,  TOTAL =        0.5 SECONDS (    0.0 MIN)
 WALL CLOCK TIME:   STEP =      0.00 ,  TOTAL =        0.7 SECONDS (    0.0 MIN)
 CPU UTILIZATION:   STEP =      0.00%,  TOTAL =      82.09%

 LOG10 OF CONDITION NUMBER OF OVERLAP MATRIX IS:  6.99451372E-04
 ...... END OF TWO-ELECTRON INTEGRALS .....

                         TIMING STATISTICS ON RANK 0:
 CPU        TIME:   STEP =      0.00 ,  TOTAL =        0.5 SECONDS (    0.0 MIN)
 WALL CLOCK TIME:   STEP =      0.01 ,  TOTAL =        0.7 SECONDS (    0.0 MIN)
 CPU UTILIZATION:   STEP =      0.00%,  TOTAL =      81.14%

 DIRECT SCF CALCULATION, SCHWRZ=T   FDIFF=F

                                                                                                           NONZERO    BLOCKS
 ITER EX   TOTAL ENERGY      E CHANGE  DENSITY CHANGE    DIIS ERROR      VIR. SHIFT       DAMPING        INTEGRALS   SKIPPED
          * * *   INITIATING DIIS PROCEDURE   * * *
   1  0    -0.933164344    -0.933164344   0.000125336   0.000097086     0.000000000     1.000000000              6         0
   2  1    -0.933164351    -0.000000007   0.000023674   0.000015425     0.000000000     1.000000000              6         0
          * * *    REDUCING  DIIS SUBSPACE    * * *
   3  2    -0.933164351     0.000000000   0.000000000   0.000000000     0.000000000     1.000000000              6         0

          -----------------
          DENSITY CONVERGED
          -----------------
     TIME TO FORM FOCK OPERATORS =       0.01 SECONDS (       0.00 SEC/ITER)
     FOCK TIME ON FIRST ITERATION=       0.00, LAST ITERATION=       0.00
     TIME TO SOLVE SCF EQUATIONS =       0.00 SECONDS (       0.00 SEC/ITER)

 FINAL ENERGY IS       -0.9331643509 AFTER   3 ITERATIONS

          --------------------
          SPIN SZ   =    0.000
          S-SQUARED =    1.000
          --------------------
 ...... END OF UHF CALCULATION ......

                         TIMING STATISTICS ON RANK 0:
 CPU        TIME:   STEP =      0.01 ,  TOTAL =        0.6 SECONDS (    0.0 MIN)
 WALL CLOCK TIME:   STEP =      0.03 ,  TOTAL =        0.7 SECONDS (    0.0 MIN)
 CPU UTILIZATION:   STEP =     34.33%,  TOTAL =      79.22%

 ---- SURFACE MAPPING GEOMETRY ----
 COORD 1=  -0.70000  COORD 2=   0.00000
 HAS ENERGY VALUE         -0.9331643509
 H             0.0000000000          0.0000000000          0.0000000000
 H             0.0000000000          0.0000000000          4.3000000000
 ----------------------------------
 ...... END OF ONE-ELECTRON INTEGRALS ......

                         TIMING STATISTICS ON RANK 0:
 CPU        TIME:   STEP =      0.00 ,  TOTAL =        0.6 SECONDS (    0.0 MIN)
 WALL CLOCK TIME:   STEP =      0.00 ,  TOTAL =        0.7 SECONDS (    0.0 MIN)
 CPU UTILIZATION:   STEP =      0.00%,  TOTAL =      79.06%

 LOG10 OF CONDITION NUMBER OF OVERLAP MATRIX IS:  7.99921800E-04
 ...... END OF TWO-ELECTRON INTEGRALS .....

                         TIMING STATISTICS ON RANK 0:
 CPU        TIME:   STEP =      0.01 ,  TOTAL =        0.6 SECONDS (    0.0 MIN)
 WALL CLOCK TIME:   STEP =      0.01 ,  TOTAL =        0.7 SECONDS (    0.0 MIN)
 CPU UTILIZATION:   STEP =    134.19%,  TOTAL =      79.63%

 DIRECT SCF CALCULATION, SCHWRZ=T   FDIFF=F

                                                                                                           NONZERO    BLOCKS
 ITER EX   TOTAL ENERGY      E CHANGE  DENSITY CHANGE    DIIS ERROR      VIR. SHIFT       DAMPING        INTEGRALS   SKIPPED
          * * *   INITIATING DIIS PROCEDURE   * * *
   1  0    -0.933164504    -0.933164504   0.000138633   0.000107387     0.000000000     1.000000000              6         0
   2  1    -0.933164512    -0.000000009   0.000026553   0.000017262     0.000000000     1.000000000              6         0
   3  2    -0.933164513     0.000000000   0.000000000   0.000000000     0.000000000     1.000000000              6         0

          -----------------
          DENSITY CONVERGED
          -----------------
     TIME TO FORM FOCK OPERATORS =       0.01 SECONDS (       0.00 SEC/ITER)
     FOCK TIME ON FIRST ITERATION=       0.00, LAST ITERATION=       0.01
     TIME TO SOLVE SCF EQUATIONS =       0.00 SECONDS (       0.00 SEC/ITER)

 FINAL ENERGY IS       -0.9331645125 AFTER   3 ITERATIONS

          --------------------
          SPIN SZ   =    0.000
          S-SQUARED =    1.000
          --------------------
 ...... END OF UHF CALCULATION ......

                         TIMING STATISTICS ON RANK 0:
 CPU        TIME:   STEP =      0.01 ,  TOTAL =        0.6 SECONDS (    0.0 MIN)
 WALL CLOCK TIME:   STEP =      0.02 ,  TOTAL =        0.7 SECONDS (    0.0 MIN)
 CPU UTILIZATION:   STEP =     40.51%,  TOTAL =      78.33%

 ---- SURFACE MAPPING GEOMETRY ----
 COORD 1=  -0.75000  COORD 2=   0.00000
 HAS ENERGY VALUE         -0.9331645125
 H             0.0000000000          0.0000000000          0.0000000000
 H             0.0000000000          0.0000000000          4.2500000000
 ----------------------------------
 ...... END OF ONE-ELECTRON INTEGRALS ......

                         TIMING STATISTICS ON RANK 0:
 CPU        TIME:   STEP =      0.00 ,  TOTAL =        0.6 SECONDS (    0.0 MIN)
 WALL CLOCK TIME:   STEP =      0.00 ,  TOTAL =        0.7 SECONDS (    0.0 MIN)
 CPU UTILIZATION:   STEP =      0.00%,  TOTAL =      78.21%

 LOG10 OF CONDITION NUMBER OF OVERLAP MATRIX IS:  9.13733790E-04
 ...... END OF TWO-ELECTRON INTEGRALS .....

                         TIMING STATISTICS ON RANK 0:
 CPU        TIME:   STEP =      0.01 ,  TOTAL =        0.6 SECONDS (    0.0 MIN)
 WALL CLOCK TIME:   STEP =      0.01 ,  TOTAL =        0.7 SECONDS (    0.0 MIN)
 CPU UTILIZATION:   STEP =    138.56%,  TOTAL =      78.79%

 DIRECT SCF CALCULATION, SCHWRZ=T   FDIFF=F

                                                                                                           NONZERO    BLOCKS
 ITER EX   TOTAL ENERGY      E CHANGE  DENSITY CHANGE    DIIS ERROR      VIR. SHIFT       DAMPING        INTEGRALS   SKIPPED
          * * *   INITIATING DIIS PROCEDURE   * * *
   1  0    -0.933164702    -0.933164702   0.000153209   0.000118677     0.000000000     1.000000000              6         0
   2  1    -0.933164712    -0.000000011   0.000029762   0.000019304     0.000000000     1.000000000              6         0
          * * *    REDUCING  DIIS SUBSPACE    * * *
   3  2    -0.933164712     0.000000000   0.000000000   0.000000000     0.000000000     1.000000000              6         0

          -----------------
          DENSITY CONVERGED
          -----------------
     TIME TO FORM FOCK OPERATORS =       0.00 SECONDS (       0.00 SEC/ITER)
     FOCK TIME ON FIRST ITERATION=       0.00, LAST ITERATION=       0.00
     TIME TO SOLVE SCF EQUATIONS =       0.00 SECONDS (       0.00 SEC/ITER)

 FINAL ENERGY IS       -0.9331647124 AFTER   3 ITERATIONS

          --------------------
          SPIN SZ   =    0.000
          S-SQUARED =    1.000
          --------------------
 ...... END OF UHF CALCULATION ......

                         TIMING STATISTICS ON RANK 0:
 CPU        TIME:   STEP =      0.01 ,  TOTAL =        0.6 SECONDS (    0.0 MIN)
 WALL CLOCK TIME:   STEP =      0.02 ,  TOTAL =        0.8 SECONDS (    0.0 MIN)
 CPU UTILIZATION:   STEP =     41.32%,  TOTAL =      77.62%

 ---- SURFACE MAPPING GEOMETRY ----
 COORD 1=  -0.80000  COORD 2=   0.00000
 HAS ENERGY VALUE         -0.9331647124
 H             0.0000000000          0.0000000000          0.0000000000
 H             0.0000000000          0.0000000000          4.2000000000
 ----------------------------------
 ...... END OF ONE-ELECTRON INTEGRALS ......

                         TIMING STATISTICS ON RANK 0:
 CPU        TIME:   STEP =      0.00 ,  TOTAL =        0.6 SECONDS (    0.0 MIN)
 WALL CLOCK TIME:   STEP =      0.00 ,  TOTAL =        0.8 SECONDS (    0.0 MIN)
 CPU UTILIZATION:   STEP =      0.00%,  TOTAL =      77.51%

 LOG10 OF CONDITION NUMBER OF OVERLAP MATRIX IS:  1.04250641E-03
 ...... END OF TWO-ELECTRON INTEGRALS .....

                         TIMING STATISTICS ON RANK 0:
 CPU        TIME:   STEP =      0.00 ,  TOTAL =        0.6 SECONDS (    0.0 MIN)
 WALL CLOCK TIME:   STEP =      0.01 ,  TOTAL =        0.8 SECONDS (    0.0 MIN)
 CPU UTILIZATION:   STEP =      0.00%,  TOTAL =      76.81%

 DIRECT SCF CALCULATION, SCHWRZ=T   FDIFF=F

                                                                                                           NONZERO    BLOCKS
 ITER EX   TOTAL ENERGY      E CHANGE  DENSITY CHANGE    DIIS ERROR      VIR. SHIFT       DAMPING        INTEGRALS   SKIPPED
          * * *   INITIATING DIIS PROCEDURE   * * *
   1  0    -0.933164946    -0.933164946   0.000169172   0.000131042     0.000000000     1.000000000              6         0
   2  1    -0.933164959    -0.000000013   0.000033337   0.000021572     0.000000000     1.000000000              6         0
          * * *    REDUCING  DIIS SUBSPACE    * * *
   3  2    -0.933164959     0.000000000   0.000000000   0.000000000     0.000000000     1.000000000              6         0

          -----------------
          DENSITY CONVERGED
          -----------------
     TIME TO FORM FOCK OPERATORS =       0.00 SECONDS (       0.00 SEC/ITER)
     FOCK TIME ON FIRST ITERATION=       0.00, LAST ITERATION=       0.00
     TIME TO SOLVE SCF EQUATIONS =       0.02 SECONDS (       0.01 SEC/ITER)

 FINAL ENERGY IS       -0.9331649590 AFTER   3 ITERATIONS

          --------------------
          SPIN SZ   =    0.000
          S-SQUARED =    1.000
          --------------------
 ...... END OF UHF CALCULATION ......

                         TIMING STATISTICS ON RANK 0:
 CPU        TIME:   STEP =      0.02 ,  TOTAL =        0.6 SECONDS (    0.0 MIN)
 WALL CLOCK TIME:   STEP =      0.03 ,  TOTAL =        0.8 SECONDS (    0.0 MIN)
 CPU UTILIZATION:   STEP =     78.86%,  TOTAL =      76.87%

 ---- SURFACE MAPPING GEOMETRY ----
 COORD 1=  -0.85000  COORD 2=   0.00000
 HAS ENERGY VALUE         -0.9331649590
 H             0.0000000000          0.0000000000          0.0000000000
 H             0.0000000000          0.0000000000          4.1500000000
 ----------------------------------
 ...... END OF ONE-ELECTRON INTEGRALS ......

                         TIMING STATISTICS ON RANK 0:
 CPU        TIME:   STEP =      0.00 ,  TOTAL =        0.6 SECONDS (    0.0 MIN)
 WALL CLOCK TIME:   STEP =      0.00 ,  TOTAL =        0.8 SECONDS (    0.0 MIN)
 CPU UTILIZATION:   STEP =      0.00%,  TOTAL =      76.76%

 LOG10 OF CONDITION NUMBER OF OVERLAP MATRIX IS:  1.18803516E-03
 ...... END OF TWO-ELECTRON INTEGRALS .....

                         TIMING STATISTICS ON RANK 0:
 CPU        TIME:   STEP =      0.01 ,  TOTAL =        0.6 SECONDS (    0.0 MIN)
 WALL CLOCK TIME:   STEP =      0.01 ,  TOTAL =        0.8 SECONDS (    0.0 MIN)
 CPU UTILIZATION:   STEP =     88.11%,  TOTAL =      76.91%

 DIRECT SCF CALCULATION, SCHWRZ=T   FDIFF=F

                                                                                                           NONZERO    BLOCKS
 ITER EX   TOTAL ENERGY      E CHANGE  DENSITY CHANGE    DIIS ERROR      VIR. SHIFT       DAMPING        INTEGRALS   SKIPPED
          * * *   INITIATING DIIS PROCEDURE   * * *
   1  0    -0.933165247    -0.933165247   0.000186642   0.000144575     0.000000000     1.000000000              6         0
   2  1    -0.933165263    -0.000000016   0.000037319   0.000024091     0.000000000     1.000000000              6         0
          * * *    REDUCING  DIIS SUBSPACE    * * *
   3  2    -0.933165263     0.000000000   0.000000000   0.000000000     0.000000000     1.000000000              6         0

          -----------------
          DENSITY CONVERGED
          -----------------
     TIME TO FORM FOCK OPERATORS =       0.00 SECONDS (       0.00 SEC/ITER)
     FOCK TIME ON FIRST ITERATION=       0.00, LAST ITERATION=       0.00
     TIME TO SOLVE SCF EQUATIONS =       0.01 SECONDS (       0.00 SEC/ITER)

 FINAL ENERGY IS       -0.9331652630 AFTER   3 ITERATIONS

          --------------------
          SPIN SZ   =    0.000
          S-SQUARED =    1.000
          --------------------
 ...... END OF UHF CALCULATION ......

                         TIMING STATISTICS ON RANK 0:
 CPU        TIME:   STEP =      0.02 ,  TOTAL =        0.7 SECONDS (    0.0 MIN)
 WALL CLOCK TIME:   STEP =      0.03 ,  TOTAL =        0.8 SECONDS (    0.0 MIN)
 CPU UTILIZATION:   STEP =     77.32%,  TOTAL =      76.93%

 ---- SURFACE MAPPING GEOMETRY ----
 COORD 1=  -0.90000  COORD 2=   0.00000
 HAS ENERGY VALUE         -0.9331652630
 H             0.0000000000          0.0000000000          0.0000000000
 H             0.0000000000          0.0000000000          4.1000000000
 ----------------------------------
 ...... END OF ONE-ELECTRON INTEGRALS ......

                         TIMING STATISTICS ON RANK 0:
 CPU        TIME:   STEP =      0.00 ,  TOTAL =        0.7 SECONDS (    0.0 MIN)
 WALL CLOCK TIME:   STEP =      0.00 ,  TOTAL =        0.8 SECONDS (    0.0 MIN)
 CPU UTILIZATION:   STEP =      0.00%,  TOTAL =      76.82%

 LOG10 OF CONDITION NUMBER OF OVERLAP MATRIX IS:  1.35230861E-03
 ...... END OF TWO-ELECTRON INTEGRALS .....

                         TIMING STATISTICS ON RANK 0:
 CPU        TIME:   STEP =      0.00 ,  TOTAL =        0.7 SECONDS (    0.0 MIN)
 WALL CLOCK TIME:   STEP =      0.01 ,  TOTAL =        0.9 SECONDS (    0.0 MIN)
 CPU UTILIZATION:   STEP =      0.00%,  TOTAL =      76.20%

 DIRECT SCF CALCULATION, SCHWRZ=T   FDIFF=F

                                                                                                           NONZERO    BLOCKS
 ITER EX   TOTAL ENERGY      E CHANGE  DENSITY CHANGE    DIIS ERROR      VIR. SHIFT       DAMPING        INTEGRALS   SKIPPED
          * * *   INITIATING DIIS PROCEDURE   * * *
   1  0    -0.933165617    -0.933165617   0.000205746   0.000159373     0.000000000     1.000000000              6         0
   2  1    -0.933165636    -0.000000019   0.000041750   0.000026885     0.000000000     1.000000000              6         0
          * * *    REDUCING  DIIS SUBSPACE    * * *
   3  2    -0.933165637    -0.000000001   0.000000000   0.000000000     0.000000000     1.000000000              6         0

          -----------------
          DENSITY CONVERGED
          -----------------
     TIME TO FORM FOCK OPERATORS =       0.01 SECONDS (       0.00 SEC/ITER)
     FOCK TIME ON FIRST ITERATION=       0.01, LAST ITERATION=       0.00
     TIME TO SOLVE SCF EQUATIONS =       0.00 SECONDS (       0.00 SEC/ITER)

 FINAL ENERGY IS       -0.9331656369 AFTER   3 ITERATIONS

          --------------------
          SPIN SZ   =    0.000
          S-SQUARED =    1.000
          --------------------
 ...... END OF UHF CALCULATION ......

                         TIMING STATISTICS ON RANK 0:
 CPU        TIME:   STEP =      0.01 ,  TOTAL =        0.7 SECONDS (    0.0 MIN)
 WALL CLOCK TIME:   STEP =      0.02 ,  TOTAL =        0.9 SECONDS (    0.0 MIN)
 CPU UTILIZATION:   STEP =     44.76%,  TOTAL =      75.40%

 ---- SURFACE MAPPING GEOMETRY ----
 COORD 1=  -0.95000  COORD 2=   0.00000
 HAS ENERGY VALUE         -0.9331656369
 H             0.0000000000          0.0000000000          0.0000000000
 H             0.0000000000          0.0000000000          4.0500000000
 ----------------------------------
 ...... END OF ONE-ELECTRON INTEGRALS ......

                         TIMING STATISTICS ON RANK 0:
 CPU        TIME:   STEP =      0.00 ,  TOTAL =        0.7 SECONDS (    0.0 MIN)
 WALL CLOCK TIME:   STEP =      0.00 ,  TOTAL =        0.9 SECONDS (    0.0 MIN)
 CPU UTILIZATION:   STEP =      0.00%,  TOTAL =      75.32%

 LOG10 OF CONDITION NUMBER OF OVERLAP MATRIX IS:  1.53752624E-03
 ...... END OF TWO-ELECTRON INTEGRALS .....

                         TIMING STATISTICS ON RANK 0:
 CPU        TIME:   STEP =      0.01 ,  TOTAL =        0.7 SECONDS (    0.0 MIN)
 WALL CLOCK TIME:   STEP =      0.01 ,  TOTAL =        0.9 SECONDS (    0.0 MIN)
 CPU UTILIZATION:   STEP =    141.00%,  TOTAL =      75.84%

 DIRECT SCF CALCULATION, SCHWRZ=T   FDIFF=F

                                                                                                           NONZERO    BLOCKS
 ITER EX   TOTAL ENERGY      E CHANGE  DENSITY CHANGE    DIIS ERROR      VIR. SHIFT       DAMPING        INTEGRALS   SKIPPED
          * * *   INITIATING DIIS PROCEDURE   * * *
   1  0    -0.933166072    -0.933166072   0.000226618   0.000175541     0.000000000     1.000000000              6         0
   2  1    -0.933166095    -0.000000023   0.000046679   0.000029983     0.000000000     1.000000000              6         0
          * * *    REDUCING  DIIS SUBSPACE    * * *
   3  2    -0.933166096    -0.000000001   0.000000000   0.000000000     0.000000000     1.000000000              6         0

          -----------------
          DENSITY CONVERGED
          -----------------
     TIME TO FORM FOCK OPERATORS =       0.01 SECONDS (       0.00 SEC/ITER)
     FOCK TIME ON FIRST ITERATION=       0.00, LAST ITERATION=       0.01
     TIME TO SOLVE SCF EQUATIONS =       0.00 SECONDS (       0.00 SEC/ITER)

 FINAL ENERGY IS       -0.9331660961 AFTER   3 ITERATIONS

          --------------------
          SPIN SZ   =    0.000
          S-SQUARED =    1.000
          --------------------
 ...... END OF UHF CALCULATION ......

                         TIMING STATISTICS ON RANK 0:
 CPU        TIME:   STEP =      0.01 ,  TOTAL =        0.7 SECONDS (    0.0 MIN)
 WALL CLOCK TIME:   STEP =      0.02 ,  TOTAL =        0.9 SECONDS (    0.0 MIN)
 CPU UTILIZATION:   STEP =     45.24%,  TOTAL =      75.10%

 ---- SURFACE MAPPING GEOMETRY ----
 COORD 1=  -1.00000  COORD 2=   0.00000
 HAS ENERGY VALUE         -0.9331660961
 H             0.0000000000          0.0000000000          0.0000000000
 H             0.0000000000          0.0000000000          4.0000000000
 ----------------------------------
 ...... END OF ONE-ELECTRON INTEGRALS ......

                         TIMING STATISTICS ON RANK 0:
 CPU        TIME:   STEP =      0.00 ,  TOTAL =        0.7 SECONDS (    0.0 MIN)
 WALL CLOCK TIME:   STEP =      0.00 ,  TOTAL =        0.9 SECONDS (    0.0 MIN)
 CPU UTILIZATION:   STEP =      0.00%,  TOTAL =      75.01%

 LOG10 OF CONDITION NUMBER OF OVERLAP MATRIX IS:  1.74611758E-03
 ...... END OF TWO-ELECTRON INTEGRALS .....

                         TIMING STATISTICS ON RANK 0:
 CPU        TIME:   STEP =      0.01 ,  TOTAL =        0.7 SECONDS (    0.0 MIN)
 WALL CLOCK TIME:   STEP =      0.01 ,  TOTAL =        0.9 SECONDS (    0.0 MIN)
 CPU UTILIZATION:   STEP =    134.52%,  TOTAL =      75.49%

 DIRECT SCF CALCULATION, SCHWRZ=T   FDIFF=F

                                                                                                           NONZERO    BLOCKS
 ITER EX   TOTAL ENERGY      E CHANGE  DENSITY CHANGE    DIIS ERROR      VIR. SHIFT       DAMPING        INTEGRALS   SKIPPED
          * * *   INITIATING DIIS PROCEDURE   * * *
   1  0    -0.933166630    -0.933166630   0.000249402   0.000193191     0.000000000     1.000000000              6         0
   2  1    -0.933166658    -0.000000028   0.000052160   0.000033415     0.000000000     1.000000000              6         0
   3  2    -0.933166659    -0.000000001   0.000000000   0.000000000     0.000000000     1.000000000              6         0

          -----------------
          DENSITY CONVERGED
          -----------------
     TIME TO FORM FOCK OPERATORS =       0.00 SECONDS (       0.00 SEC/ITER)
     FOCK TIME ON FIRST ITERATION=       0.00, LAST ITERATION=       0.00
     TIME TO SOLVE SCF EQUATIONS =       0.00 SECONDS (       0.00 SEC/ITER)

 FINAL ENERGY IS       -0.9331666591 AFTER   3 ITERATIONS

          --------------------
          SPIN SZ   =    0.000
          S-SQUARED =    1.000
          --------------------
 ...... END OF UHF CALCULATION ......

                         TIMING STATISTICS ON RANK 0:
 CPU        TIME:   STEP =      0.01 ,  TOTAL =        0.7 SECONDS (    0.0 MIN)
 WALL CLOCK TIME:   STEP =      0.03 ,  TOTAL =        0.9 SECONDS (    0.0 MIN)
 CPU UTILIZATION:   STEP =     39.90%,  TOTAL =      74.54%

 ---- SURFACE MAPPING GEOMETRY ----
 COORD 1=  -1.05000  COORD 2=   0.00000
 HAS ENERGY VALUE         -0.9331666591
 H             0.0000000000          0.0000000000          0.0000000000
 H             0.0000000000          0.0000000000          3.9500000000
 ----------------------------------
 ...... END OF ONE-ELECTRON INTEGRALS ......

                         TIMING STATISTICS ON RANK 0:
 CPU        TIME:   STEP =      0.00 ,  TOTAL =        0.7 SECONDS (    0.0 MIN)
 WALL CLOCK TIME:   STEP =      0.00 ,  TOTAL =        0.9 SECONDS (    0.0 MIN)
 CPU UTILIZATION:   STEP =      0.00%,  TOTAL =      74.43%

 LOG10 OF CONDITION NUMBER OF OVERLAP MATRIX IS:  1.98076253E-03
 ...... END OF TWO-ELECTRON INTEGRALS .....

                         TIMING STATISTICS ON RANK 0:
 CPU        TIME:   STEP =      0.01 ,  TOTAL =        0.7 SECONDS (    0.0 MIN)
 WALL CLOCK TIME:   STEP =      0.01 ,  TOTAL =        1.0 SECONDS (    0.0 MIN)
 CPU UTILIZATION:   STEP =     91.95%,  TOTAL =      74.63%

 DIRECT SCF CALCULATION, SCHWRZ=T   FDIFF=F

                                                                                                           NONZERO    BLOCKS
 ITER EX   TOTAL ENERGY      E CHANGE  DENSITY CHANGE    DIIS ERROR      VIR. SHIFT       DAMPING        INTEGRALS   SKIPPED
          * * *   INITIATING DIIS PROCEDURE   * * *
   1  0    -0.933167313    -0.933167313   0.000274249   0.000212438     0.000000000     1.000000000              6         0
   2  1    -0.933167347    -0.000000034   0.000058249   0.000037216     0.000000000     1.000000000              6         0
          * * *    REDUCING  DIIS SUBSPACE    * * *
   3  2    -0.933167349    -0.000000001   0.000000000   0.000000000     0.000000000     1.000000000              6         0

          -----------------
          DENSITY CONVERGED
          -----------------
     TIME TO FORM FOCK OPERATORS =       0.01 SECONDS (       0.00 SEC/ITER)
     FOCK TIME ON FIRST ITERATION=       0.00, LAST ITERATION=       0.00
     TIME TO SOLVE SCF EQUATIONS =       0.00 SECONDS (       0.00 SEC/ITER)

 FINAL ENERGY IS       -0.9331673485 AFTER   3 ITERATIONS

          --------------------
          SPIN SZ   =    0.000
          S-SQUARED =    1.000
          --------------------
 ...... END OF UHF CALCULATION ......

                         TIMING STATISTICS ON RANK 0:
 CPU        TIME:   STEP =      0.01 ,  TOTAL =        0.7 SECONDS (    0.0 MIN)
 WALL CLOCK TIME:   STEP =      0.03 ,  TOTAL =        1.0 SECONDS (    0.0 MIN)
 CPU UTILIZATION:   STEP =     38.87%,  TOTAL =      73.69%

 ---- SURFACE MAPPING GEOMETRY ----
 COORD 1=  -1.10000  COORD 2=   0.00000
 HAS ENERGY VALUE         -0.9331673485
 H             0.0000000000          0.0000000000          0.0000000000
 H             0.0000000000          0.0000000000          3.9000000000
 ----------------------------------
 ...... END OF ONE-ELECTRON INTEGRALS ......

                         TIMING STATISTICS ON RANK 0:
 CPU        TIME:   STEP =      0.00 ,  TOTAL =        0.7 SECONDS (    0.0 MIN)
 WALL CLOCK TIME:   STEP =      0.00 ,  TOTAL =        1.0 SECONDS (    0.0 MIN)
 CPU UTILIZATION:   STEP =      0.00%,  TOTAL =      73.58%

 LOG10 OF CONDITION NUMBER OF OVERLAP MATRIX IS:  2.24441301E-03
 ...... END OF TWO-ELECTRON INTEGRALS .....

                         TIMING STATISTICS ON RANK 0:
 CPU        TIME:   STEP =      0.01 ,  TOTAL =        0.7 SECONDS (    0.0 MIN)
 WALL CLOCK TIME:   STEP =      0.01 ,  TOTAL =        1.0 SECONDS (    0.0 MIN)
 CPU UTILIZATION:   STEP =     82.55%,  TOTAL =      73.69%

 DIRECT SCF CALCULATION, SCHWRZ=T   FDIFF=F

                                                                                                           NONZERO    BLOCKS
 ITER EX   TOTAL ENERGY      E CHANGE  DENSITY CHANGE    DIIS ERROR      VIR. SHIFT       DAMPING        INTEGRALS   SKIPPED
          * * *   INITIATING DIIS PROCEDURE   * * *
   1  0    -0.933168148    -0.933168148   0.000301317   0.000233406     0.000000000     1.000000000              6         0
   2  1    -0.933168190    -0.000000041   0.000065010   0.000041421     0.000000000     1.000000000              6         0
   3  2    -0.933168191    -0.000000001   0.000000000   0.000000000     0.000000000     1.000000000              6         0

          -----------------
          DENSITY CONVERGED
          -----------------
     TIME TO FORM FOCK OPERATORS =       0.02 SECONDS (       0.01 SEC/ITER)
     FOCK TIME ON FIRST ITERATION=       0.01, LAST ITERATION=       0.01
     TIME TO SOLVE SCF EQUATIONS =       0.00 SECONDS (       0.00 SEC/ITER)

 FINAL ENERGY IS       -0.9331681911 AFTER   3 ITERATIONS

          --------------------
          SPIN SZ   =    0.000
          S-SQUARED =    1.000
          --------------------
 ...... END OF UHF CALCULATION ......

                         TIMING STATISTICS ON RANK 0:
 CPU        TIME:   STEP =      0.02 ,  TOTAL =        0.8 SECONDS (    0.0 MIN)
 WALL CLOCK TIME:   STEP =      0.03 ,  TOTAL =        1.0 SECONDS (    0.0 MIN)
 CPU UTILIZATION:   STEP =     79.14%,  TOTAL =      73.82%

 ---- SURFACE MAPPING GEOMETRY ----
 COORD 1=  -1.15000  COORD 2=   0.00000
 HAS ENERGY VALUE         -0.9331681911
 H             0.0000000000          0.0000000000          0.0000000000
 H             0.0000000000          0.0000000000          3.8500000000
 ----------------------------------
 ...... END OF ONE-ELECTRON INTEGRALS ......

                         TIMING STATISTICS ON RANK 0:
 CPU        TIME:   STEP =      0.00 ,  TOTAL =        0.8 SECONDS (    0.0 MIN)
 WALL CLOCK TIME:   STEP =      0.00 ,  TOTAL =        1.0 SECONDS (    0.0 MIN)
 CPU UTILIZATION:   STEP =      0.00%,  TOTAL =      73.75%

 LOG10 OF CONDITION NUMBER OF OVERLAP MATRIX IS:  2.54031589E-03
 ...... END OF TWO-ELECTRON INTEGRALS .....

                         TIMING STATISTICS ON RANK 0:
 CPU        TIME:   STEP =      0.00 ,  TOTAL =        0.8 SECONDS (    0.0 MIN)
 WALL CLOCK TIME:   STEP =      0.01 ,  TOTAL =        1.0 SECONDS (    0.0 MIN)
 CPU UTILIZATION:   STEP =      0.00%,  TOTAL =      73.24%

 DIRECT SCF CALCULATION, SCHWRZ=T   FDIFF=F

                                                                                                           NONZERO    BLOCKS
 ITER EX   TOTAL ENERGY      E CHANGE  DENSITY CHANGE    DIIS ERROR      VIR. SHIFT       DAMPING        INTEGRALS   SKIPPED
          * * *   INITIATING DIIS PROCEDURE   * * *
   1  0    -0.933169168    -0.933169168   0.000330774   0.000256225     0.000000000     1.000000000              6         0
   2  1    -0.933169218    -0.000000050   0.000072513   0.000046070     0.000000000     1.000000000              6         0
   3  2    -0.933169220    -0.000000002   0.000000000   0.000000000     0.000000000     1.000000000              6         0

          -----------------
          DENSITY CONVERGED
          -----------------
     TIME TO FORM FOCK OPERATORS =       0.01 SECONDS (       0.00 SEC/ITER)
     FOCK TIME ON FIRST ITERATION=       0.00, LAST ITERATION=       0.01
     TIME TO SOLVE SCF EQUATIONS =       0.00 SECONDS (       0.00 SEC/ITER)

 FINAL ENERGY IS       -0.9331692195 AFTER   3 ITERATIONS

          --------------------
          SPIN SZ   =    0.000
          S-SQUARED =    1.000
          --------------------
 ...... END OF UHF CALCULATION ......

                         TIMING STATISTICS ON RANK 0:
 CPU        TIME:   STEP =      0.02 ,  TOTAL =        0.8 SECONDS (    0.0 MIN)
 WALL CLOCK TIME:   STEP =      0.03 ,  TOTAL =        1.1 SECONDS (    0.0 MIN)
 CPU UTILIZATION:   STEP =     71.36%,  TOTAL =      73.19%

 ---- SURFACE MAPPING GEOMETRY ----
 COORD 1=  -1.20000  COORD 2=   0.00000
 HAS ENERGY VALUE         -0.9331692195
 H             0.0000000000          0.0000000000          0.0000000000
 H             0.0000000000          0.0000000000          3.8000000000
 ----------------------------------
 ...... END OF ONE-ELECTRON INTEGRALS ......

                         TIMING STATISTICS ON RANK 0:
 CPU        TIME:   STEP =      0.00 ,  TOTAL =        0.8 SECONDS (    0.0 MIN)
 WALL CLOCK TIME:   STEP =      0.00 ,  TOTAL =        1.1 SECONDS (    0.0 MIN)
 CPU UTILIZATION:   STEP =      0.00%,  TOTAL =      73.10%

 LOG10 OF CONDITION NUMBER OF OVERLAP MATRIX IS:  2.87203704E-03
 ...... END OF TWO-ELECTRON INTEGRALS .....

                         TIMING STATISTICS ON RANK 0:
 CPU        TIME:   STEP =      0.01 ,  TOTAL =        0.8 SECONDS (    0.0 MIN)
 WALL CLOCK TIME:   STEP =      0.01 ,  TOTAL =        1.1 SECONDS (    0.0 MIN)
 CPU UTILIZATION:   STEP =    143.53%,  TOTAL =      73.56%

 DIRECT SCF CALCULATION, SCHWRZ=T   FDIFF=F

                                                                                                           NONZERO    BLOCKS
 ITER EX   TOTAL ENERGY      E CHANGE  DENSITY CHANGE    DIIS ERROR      VIR. SHIFT       DAMPING        INTEGRALS   SKIPPED
          * * *   INITIATING DIIS PROCEDURE   * * *
   1  0    -0.933170410    -0.933170410   0.000362794   0.000281030     0.000000000     1.000000000              6         0
   2  1    -0.933170471    -0.000000060   0.000080832   0.000051206     0.000000000     1.000000000              6         0
          * * *    REDUCING  DIIS SUBSPACE    * * *
   3  2    -0.933170473    -0.000000002   0.000000000   0.000000000     0.000000000     1.000000000              6         0

          -----------------
          DENSITY CONVERGED
          -----------------
     TIME TO FORM FOCK OPERATORS =       0.00 SECONDS (       0.00 SEC/ITER)
     FOCK TIME ON FIRST ITERATION=       0.00, LAST ITERATION=       0.00
     TIME TO SOLVE SCF EQUATIONS =       0.00 SECONDS (       0.00 SEC/ITER)

 FINAL ENERGY IS       -0.9331704726 AFTER   3 ITERATIONS

          --------------------
          SPIN SZ   =    0.000
          S-SQUARED =    1.000
          --------------------
 ...... END OF UHF CALCULATION ......

                         TIMING STATISTICS ON RANK 0:
 CPU        TIME:   STEP =      0.01 ,  TOTAL =        0.8 SECONDS (    0.0 MIN)
 WALL CLOCK TIME:   STEP =      0.03 ,  TOTAL =        1.1 SECONDS (    0.0 MIN)
 CPU UTILIZATION:   STEP =     34.46%,  TOTAL =      72.52%

 ---- SURFACE MAPPING GEOMETRY ----
 COORD 1=  -1.25000  COORD 2=   0.00000
 HAS ENERGY VALUE         -0.9331704726
 H             0.0000000000          0.0000000000          0.0000000000
 H             0.0000000000          0.0000000000          3.7500000000
 ----------------------------------
 ...... END OF ONE-ELECTRON INTEGRALS ......

                         TIMING STATISTICS ON RANK 0:
 CPU        TIME:   STEP =      0.00 ,  TOTAL =        0.8 SECONDS (    0.0 MIN)
 WALL CLOCK TIME:   STEP =      0.00 ,  TOTAL =        1.1 SECONDS (    0.0 MIN)
 CPU UTILIZATION:   STEP =      0.00%,  TOTAL =      72.43%

 LOG10 OF CONDITION NUMBER OF OVERLAP MATRIX IS:  3.24348672E-03
 ...... END OF TWO-ELECTRON INTEGRALS .....

                         TIMING STATISTICS ON RANK 0:
 CPU        TIME:   STEP =      0.00 ,  TOTAL =        0.8 SECONDS (    0.0 MIN)
 WALL CLOCK TIME:   STEP =      0.01 ,  TOTAL =        1.1 SECONDS (    0.0 MIN)
 CPU UTILIZATION:   STEP =      0.00%,  TOTAL =      71.77%

 DIRECT SCF CALCULATION, SCHWRZ=T   FDIFF=F

                                                                                                           NONZERO    BLOCKS
 ITER EX   TOTAL ENERGY      E CHANGE  DENSITY CHANGE    DIIS ERROR      VIR. SHIFT       DAMPING        INTEGRALS   SKIPPED
          * * *   INITIATING DIIS PROCEDURE   * * *
   1  0    -0.933171922    -0.933171922   0.000397558   0.000307961     0.000000000     1.000000000              6         0
   2  1    -0.933171995    -0.000000073   0.000090051   0.000056873     0.000000000     1.000000000              6         0
   3  2    -0.933171997    -0.000000003   0.000000000   0.000000000     0.000000000     1.000000000              6         0

          -----------------
          DENSITY CONVERGED
          -----------------
     TIME TO FORM FOCK OPERATORS =       0.01 SECONDS (       0.00 SEC/ITER)
     FOCK TIME ON FIRST ITERATION=       0.00, LAST ITERATION=       0.00
     TIME TO SOLVE SCF EQUATIONS =       0.00 SECONDS (       0.00 SEC/ITER)

 FINAL ENERGY IS       -0.9331719972 AFTER   3 ITERATIONS

          --------------------
          SPIN SZ   =    0.000
          S-SQUARED =    1.000
          --------------------
 ...... END OF UHF CALCULATION ......

                         TIMING STATISTICS ON RANK 0:
 CPU        TIME:   STEP =      0.02 ,  TOTAL =        0.8 SECONDS (    0.0 MIN)
 WALL CLOCK TIME:   STEP =      0.02 ,  TOTAL =        1.1 SECONDS (    0.0 MIN)
 CPU UTILIZATION:   STEP =     84.89%,  TOTAL =      72.04%

 ---- SURFACE MAPPING GEOMETRY ----
 COORD 1=  -1.30000  COORD 2=   0.00000
 HAS ENERGY VALUE         -0.9331719972
 H             0.0000000000          0.0000000000          0.0000000000
 H             0.0000000000          0.0000000000          3.7000000000
 ----------------------------------
 ...... END OF ONE-ELECTRON INTEGRALS ......

                         TIMING STATISTICS ON RANK 0:
 CPU        TIME:   STEP =      0.00 ,  TOTAL =        0.8 SECONDS (    0.0 MIN)
 WALL CLOCK TIME:   STEP =      0.00 ,  TOTAL =        1.1 SECONDS (    0.0 MIN)
 CPU UTILIZATION:   STEP =      0.00%,  TOTAL =      71.94%

 LOG10 OF CONDITION NUMBER OF OVERLAP MATRIX IS:  3.65894594E-03
 ...... END OF TWO-ELECTRON INTEGRALS .....

                         TIMING STATISTICS ON RANK 0:
 CPU        TIME:   STEP =      0.01 ,  TOTAL =        0.8 SECONDS (    0.0 MIN)
 WALL CLOCK TIME:   STEP =      0.01 ,  TOTAL =        1.1 SECONDS (    0.0 MIN)
 CPU UTILIZATION:   STEP =     90.99%,  TOTAL =      72.13%

 DIRECT SCF CALCULATION, SCHWRZ=T   FDIFF=F

                                                                                                           NONZERO    BLOCKS
 ITER EX   TOTAL ENERGY      E CHANGE  DENSITY CHANGE    DIIS ERROR      VIR. SHIFT       DAMPING        INTEGRALS   SKIPPED
          * * *   INITIATING DIIS PROCEDURE   * * *
   1  0    -0.933173759    -0.933173759   0.000435254   0.000337163     0.000000000     1.000000000              6         0
   2  1    -0.933173846    -0.000000087   0.000100257   0.000063123     0.000000000     1.000000000              6         0
          * * *    REDUCING  DIIS SUBSPACE    * * *
   3  2    -0.933173849    -0.000000003   0.000000000   0.000000000     0.000000000     1.000000000              6         0
   4  3    -0.933173849     0.000000000   0.000000000   0.000000000     0.000000000     1.000000000              6         0

          -----------------
          DENSITY CONVERGED
          -----------------
     TIME TO FORM FOCK OPERATORS =       0.01 SECONDS (       0.00 SEC/ITER)
     FOCK TIME ON FIRST ITERATION=       0.00, LAST ITERATION=       0.00
     TIME TO SOLVE SCF EQUATIONS =       0.00 SECONDS (       0.00 SEC/ITER)

 FINAL ENERGY IS       -0.9331738490 AFTER   4 ITERATIONS

          --------------------
          SPIN SZ   =    0.000
          S-SQUARED =    1.000
          --------------------
 ...... END OF UHF CALCULATION ......

                         TIMING STATISTICS ON RANK 0:
 CPU        TIME:   STEP =      0.01 ,  TOTAL =        0.8 SECONDS (    0.0 MIN)
 WALL CLOCK TIME:   STEP =      0.03 ,  TOTAL =        1.2 SECONDS (    0.0 MIN)
 CPU UTILIZATION:   STEP =     32.60%,  TOTAL =      71.09%

 ---- SURFACE MAPPING GEOMETRY ----
 COORD 1=  -1.35000  COORD 2=   0.00000
 HAS ENERGY VALUE         -0.9331738490
 H             0.0000000000          0.0000000000          0.0000000000
 H             0.0000000000          0.0000000000          3.6500000000
 ----------------------------------
 ...... END OF ONE-ELECTRON INTEGRALS ......

                         TIMING STATISTICS ON RANK 0:
 CPU        TIME:   STEP =      0.00 ,  TOTAL =        0.8 SECONDS (    0.0 MIN)
 WALL CLOCK TIME:   STEP =      0.00 ,  TOTAL =        1.2 SECONDS (    0.0 MIN)
 CPU UTILIZATION:   STEP =      0.00%,  TOTAL =      71.02%

 LOG10 OF CONDITION NUMBER OF OVERLAP MATRIX IS:  4.12309392E-03
 ...... END OF TWO-ELECTRON INTEGRALS .....

                         TIMING STATISTICS ON RANK 0:
 CPU        TIME:   STEP =      0.01 ,  TOTAL =        0.8 SECONDS (    0.0 MIN)
 WALL CLOCK TIME:   STEP =      0.01 ,  TOTAL =        1.2 SECONDS (    0.0 MIN)
 CPU UTILIZATION:   STEP =    143.10%,  TOTAL =      71.45%

 DIRECT SCF CALCULATION, SCHWRZ=T   FDIFF=F

                                                                                                           NONZERO    BLOCKS
 ITER EX   TOTAL ENERGY      E CHANGE  DENSITY CHANGE    DIIS ERROR      VIR. SHIFT       DAMPING        INTEGRALS   SKIPPED
          * * *   INITIATING DIIS PROCEDURE   * * *
   1  0    -0.933175986    -0.933175986   0.000476076   0.000368789     0.000000000     1.000000000              6         0
   2  1    -0.933176091    -0.000000104   0.000111547   0.000070006     0.000000000     1.000000000              6         0
   3  2    -0.933176095    -0.000000004   0.000000000   0.000000000     0.000000000     1.000000000              6         0
          * * *    REDUCING  DIIS SUBSPACE    * * *
   4  3    -0.933176095     0.000000000   0.000000000   0.000000000     0.000000000     1.000000000              6         0

          -----------------
          DENSITY CONVERGED
          -----------------
     TIME TO FORM FOCK OPERATORS =       0.00 SECONDS (       0.00 SEC/ITER)
     FOCK TIME ON FIRST ITERATION=       0.00, LAST ITERATION=       0.00
     TIME TO SOLVE SCF EQUATIONS =       0.00 SECONDS (       0.00 SEC/ITER)

 FINAL ENERGY IS       -0.9331760948 AFTER   4 ITERATIONS

          --------------------
          SPIN SZ   =    0.000
          S-SQUARED =    1.000
          --------------------
 ...... END OF UHF CALCULATION ......

                         TIMING STATISTICS ON RANK 0:
 CPU        TIME:   STEP =      0.02 ,  TOTAL =        0.9 SECONDS (    0.0 MIN)
 WALL CLOCK TIME:   STEP =      0.03 ,  TOTAL =        1.2 SECONDS (    0.0 MIN)
 CPU UTILIZATION:   STEP =     70.13%,  TOTAL =      71.41%

 ---- SURFACE MAPPING GEOMETRY ----
 COORD 1=  -1.40000  COORD 2=   0.00000
 HAS ENERGY VALUE         -0.9331760948
 H             0.0000000000          0.0000000000          0.0000000000
 H             0.0000000000          0.0000000000          3.6000000000
 ----------------------------------
 ...... END OF ONE-ELECTRON INTEGRALS ......

                         TIMING STATISTICS ON RANK 0:
 CPU        TIME:   STEP =      0.00 ,  TOTAL =        0.9 SECONDS (    0.0 MIN)
 WALL CLOCK TIME:   STEP =      0.00 ,  TOTAL =        1.2 SECONDS (    0.0 MIN)
 CPU UTILIZATION:   STEP =      0.00%,  TOTAL =      71.34%

 LOG10 OF CONDITION NUMBER OF OVERLAP MATRIX IS:  4.64103640E-03
 ...... END OF TWO-ELECTRON INTEGRALS .....

                         TIMING STATISTICS ON RANK 0:
 CPU        TIME:   STEP =      0.00 ,  TOTAL =        0.9 SECONDS (    0.0 MIN)
 WALL CLOCK TIME:   STEP =      0.01 ,  TOTAL =        1.2 SECONDS (    0.0 MIN)
 CPU UTILIZATION:   STEP =      0.00%,  TOTAL =      70.91%

 DIRECT SCF CALCULATION, SCHWRZ=T   FDIFF=F

                                                                                                           NONZERO    BLOCKS
 ITER EX   TOTAL ENERGY      E CHANGE  DENSITY CHANGE    DIIS ERROR      VIR. SHIFT       DAMPING        INTEGRALS   SKIPPED
          * * *   INITIATING DIIS PROCEDURE   * * *
   1  0    -0.933178684    -0.933178684   0.000520225   0.000402993     0.000000000     1.000000000              6         0
   2  1    -0.933178809    -0.000000125   0.000124029   0.000077582     0.000000000     1.000000000              6         0
          * * *    REDUCING  DIIS SUBSPACE    * * *
   3  2    -0.933178814    -0.000000005   0.000000001   0.000000000     0.000000000     1.000000000              6         0
   4  3    -0.933178814     0.000000000   0.000000000   0.000000000     0.000000000     1.000000000              6         0

          -----------------
          DENSITY CONVERGED
          -----------------
     TIME TO FORM FOCK OPERATORS =       0.01 SECONDS (       0.00 SEC/ITER)
     FOCK TIME ON FIRST ITERATION=       0.01, LAST ITERATION=       0.00
     TIME TO SOLVE SCF EQUATIONS =       0.00 SECONDS (       0.00 SEC/ITER)

 FINAL ENERGY IS       -0.9331788140 AFTER   4 ITERATIONS

          --------------------
          SPIN SZ   =    0.000
          S-SQUARED =    1.000
          --------------------
 ...... END OF UHF CALCULATION ......

                         TIMING STATISTICS ON RANK 0:
 CPU        TIME:   STEP =      0.02 ,  TOTAL =        0.9 SECONDS (    0.0 MIN)
 WALL CLOCK TIME:   STEP =      0.03 ,  TOTAL =        1.2 SECONDS (    0.0 MIN)
 CPU UTILIZATION:   STEP =     57.67%,  TOTAL =      70.54%

 ---- SURFACE MAPPING GEOMETRY ----
 COORD 1=  -1.45000  COORD 2=   0.00000
 HAS ENERGY VALUE         -0.9331788140
 H             0.0000000000          0.0000000000          0.0000000000
 H             0.0000000000          0.0000000000          3.5500000000
 ----------------------------------
 ...... END OF ONE-ELECTRON INTEGRALS ......

                         TIMING STATISTICS ON RANK 0:
 CPU        TIME:   STEP =      0.00 ,  TOTAL =        0.9 SECONDS (    0.0 MIN)
 WALL CLOCK TIME:   STEP =      0.00 ,  TOTAL =        1.2 SECONDS (    0.0 MIN)
 CPU UTILIZATION:   STEP =      0.00%,  TOTAL =      70.47%

 LOG10 OF CONDITION NUMBER OF OVERLAP MATRIX IS:  5.21833470E-03
 ...... END OF TWO-ELECTRON INTEGRALS .....

                         TIMING STATISTICS ON RANK 0:
 CPU        TIME:   STEP =      0.01 ,  TOTAL =        0.9 SECONDS (    0.0 MIN)
 WALL CLOCK TIME:   STEP =      0.01 ,  TOTAL =        1.3 SECONDS (    0.0 MIN)
 CPU UTILIZATION:   STEP =    138.99%,  TOTAL =      70.86%

 DIRECT SCF CALCULATION, SCHWRZ=T   FDIFF=F

                                                                                                           NONZERO    BLOCKS
 ITER EX   TOTAL ENERGY      E CHANGE  DENSITY CHANGE    DIIS ERROR      VIR. SHIFT       DAMPING        INTEGRALS   SKIPPED
          * * *   INITIATING DIIS PROCEDURE   * * *
   1  0    -0.933181946    -0.933181946   0.000567909   0.000439937     0.000000000     1.000000000              6         0
   2  1    -0.933182095    -0.000000149   0.000137815   0.000085912     0.000000000     1.000000000              6         0
   3  2    -0.933182101    -0.000000006   0.000000001   0.000000001     0.000000000     1.000000000              6         0
          * * *    REDUCING  DIIS SUBSPACE    * * *
   4  3    -0.933182101     0.000000000   0.000000000   0.000000000     0.000000000     1.000000000              6         0

          -----------------
          DENSITY CONVERGED
          -----------------
     TIME TO FORM FOCK OPERATORS =       0.01 SECONDS (       0.00 SEC/ITER)
     FOCK TIME ON FIRST ITERATION=       0.00, LAST ITERATION=       0.01
     TIME TO SOLVE SCF EQUATIONS =       0.00 SECONDS (       0.00 SEC/ITER)

 FINAL ENERGY IS       -0.9331821011 AFTER   4 ITERATIONS

          --------------------
          SPIN SZ   =    0.000
          S-SQUARED =    1.000
          --------------------
 ...... END OF UHF CALCULATION ......

                         TIMING STATISTICS ON RANK 0:
 CPU        TIME:   STEP =      0.01 ,  TOTAL =        0.9 SECONDS (    0.0 MIN)
 WALL CLOCK TIME:   STEP =      0.03 ,  TOTAL =        1.3 SECONDS (    0.0 MIN)
 CPU UTILIZATION:   STEP =     33.28%,  TOTAL =      69.98%

 ---- SURFACE MAPPING GEOMETRY ----
 COORD 1=  -1.50000  COORD 2=   0.00000
 HAS ENERGY VALUE         -0.9331821011
 H             0.0000000000          0.0000000000          0.0000000000
 H             0.0000000000          0.0000000000          3.5000000000
 ----------------------------------
 ...... END OF ONE-ELECTRON INTEGRALS ......

                         TIMING STATISTICS ON RANK 0:
 CPU        TIME:   STEP =      0.00 ,  TOTAL =        0.9 SECONDS (    0.0 MIN)
 WALL CLOCK TIME:   STEP =      0.00 ,  TOTAL =        1.3 SECONDS (    0.0 MIN)
 CPU UTILIZATION:   STEP =      0.00%,  TOTAL =      69.91%

 LOG10 OF CONDITION NUMBER OF OVERLAP MATRIX IS:  5.86103530E-03
 ...... END OF TWO-ELECTRON INTEGRALS .....

                         TIMING STATISTICS ON RANK 0:
 CPU        TIME:   STEP =      0.01 ,  TOTAL =        0.9 SECONDS (    0.0 MIN)
 WALL CLOCK TIME:   STEP =      0.01 ,  TOTAL =        1.3 SECONDS (    0.0 MIN)
 CPU UTILIZATION:   STEP =    140.61%,  TOTAL =      70.30%

 DIRECT SCF CALCULATION, SCHWRZ=T   FDIFF=F

                                                                                                           NONZERO    BLOCKS
 ITER EX   TOTAL ENERGY      E CHANGE  DENSITY CHANGE    DIIS ERROR      VIR. SHIFT       DAMPING        INTEGRALS   SKIPPED
          * * *   INITIATING DIIS PROCEDURE   * * *
   1  0    -0.933185883    -0.933185883   0.000619342   0.000479789     0.000000000     1.000000000              6         0
   2  1    -0.933186061    -0.000000178   0.000153033   0.000095061     0.000000000     1.000000000              6         0
   3  2    -0.933186068    -0.000000007   0.000000001   0.000000001     0.000000000     1.000000000              6         0
          * * *    REDUCING  DIIS SUBSPACE    * * *
          * * *    REDUCING  DIIS SUBSPACE    * * *
   4  3    -0.933186068     0.000000000   0.000000000   0.000000000     0.000000000     1.000000000              6         0

          -----------------
          DENSITY CONVERGED
          -----------------
     TIME TO FORM FOCK OPERATORS =       0.00 SECONDS (       0.00 SEC/ITER)
     FOCK TIME ON FIRST ITERATION=       0.00, LAST ITERATION=       0.00
     TIME TO SOLVE SCF EQUATIONS =       0.01 SECONDS (       0.00 SEC/ITER)

 FINAL ENERGY IS       -0.9331860681 AFTER   4 ITERATIONS

          --------------------
          SPIN SZ   =    0.000
          S-SQUARED =    1.000
          --------------------
 ...... END OF UHF CALCULATION ......

                         TIMING STATISTICS ON RANK 0:
 CPU        TIME:   STEP =      0.01 ,  TOTAL =        0.9 SECONDS (    0.0 MIN)
 WALL CLOCK TIME:   STEP =      0.03 ,  TOTAL =        1.3 SECONDS (    0.0 MIN)
 CPU UTILIZATION:   STEP =     34.62%,  TOTAL =      69.52%

 ---- SURFACE MAPPING GEOMETRY ----
 COORD 1=  -1.55000  COORD 2=   0.00000
 HAS ENERGY VALUE         -0.9331860681
 H             0.0000000000          0.0000000000          0.0000000000
 H             0.0000000000          0.0000000000          3.4500000000
 ----------------------------------
 ...... END OF ONE-ELECTRON INTEGRALS ......

                         TIMING STATISTICS ON RANK 0:
 CPU        TIME:   STEP =      0.00 ,  TOTAL =        0.9 SECONDS (    0.0 MIN)
 WALL CLOCK TIME:   STEP =      0.00 ,  TOTAL =        1.3 SECONDS (    0.0 MIN)
 CPU UTILIZATION:   STEP =      0.00%,  TOTAL =      69.47%

 LOG10 OF CONDITION NUMBER OF OVERLAP MATRIX IS:  6.57569974E-03
 ...... END OF TWO-ELECTRON INTEGRALS .....

                         TIMING STATISTICS ON RANK 0:
 CPU        TIME:   STEP =      0.01 ,  TOTAL =        0.9 SECONDS (    0.0 MIN)
 WALL CLOCK TIME:   STEP =      0.01 ,  TOTAL =        1.3 SECONDS (    0.0 MIN)
 CPU UTILIZATION:   STEP =    145.10%,  TOTAL =      69.86%

 DIRECT SCF CALCULATION, SCHWRZ=T   FDIFF=F

                                                                                                           NONZERO    BLOCKS
 ITER EX   TOTAL ENERGY      E CHANGE  DENSITY CHANGE    DIIS ERROR      VIR. SHIFT       DAMPING        INTEGRALS   SKIPPED
          * * *   INITIATING DIIS PROCEDURE   * * *
   1  0    -0.933190627    -0.933190627   0.000674750   0.000522722     0.000000000     1.000000000              6         0
   2  1    -0.933190839    -0.000000212   0.000169818   0.000105104     0.000000000     1.000000000              6         0
   3  2    -0.933190848    -0.000000009   0.000000000   0.000000001     0.000000000     1.000000000              6         0
          * * *    REDUCING  DIIS SUBSPACE    * * *
          * * *    REDUCING  DIIS SUBSPACE    * * *
          * * *    REDUCING  DIIS SUBSPACE    * * *
   4  3    -0.933190848     0.000000000   0.000000001   0.000000001     0.000000000     1.000000000              6         0

          -----------------
          DENSITY CONVERGED
          -----------------
     TIME TO FORM FOCK OPERATORS =       0.01 SECONDS (       0.00 SEC/ITER)
     FOCK TIME ON FIRST ITERATION=       0.00, LAST ITERATION=       0.01
     TIME TO SOLVE SCF EQUATIONS =       0.00 SECONDS (       0.00 SEC/ITER)

 FINAL ENERGY IS       -0.9331908481 AFTER   4 ITERATIONS

          --------------------
          SPIN SZ   =    0.000
          S-SQUARED =    1.000
          --------------------
 ...... END OF UHF CALCULATION ......

                         TIMING STATISTICS ON RANK 0:
 CPU        TIME:   STEP =      0.01 ,  TOTAL =        0.9 SECONDS (    0.0 MIN)
 WALL CLOCK TIME:   STEP =      0.03 ,  TOTAL =        1.4 SECONDS (    0.0 MIN)
 CPU UTILIZATION:   STEP =     34.43%,  TOTAL =      69.10%

 ---- SURFACE MAPPING GEOMETRY ----
 COORD 1=  -1.60000  COORD 2=   0.00000
 HAS ENERGY VALUE         -0.9331908481
 H             0.0000000000          0.0000000000          0.0000000000
 H             0.0000000000          0.0000000000          3.4000000000
 ----------------------------------
 ...... END OF ONE-ELECTRON INTEGRALS ......

                         TIMING STATISTICS ON RANK 0:
 CPU        TIME:   STEP =      0.00 ,  TOTAL =        0.9 SECONDS (    0.0 MIN)
 WALL CLOCK TIME:   STEP =      0.00 ,  TOTAL =        1.4 SECONDS (    0.0 MIN)
 CPU UTILIZATION:   STEP =      0.00%,  TOTAL =      69.02%

 LOG10 OF CONDITION NUMBER OF OVERLAP MATRIX IS:  7.36943470E-03
 ...... END OF TWO-ELECTRON INTEGRALS .....

                         TIMING STATISTICS ON RANK 0:
 CPU        TIME:   STEP =      0.00 ,  TOTAL =        0.9 SECONDS (    0.0 MIN)
 WALL CLOCK TIME:   STEP =      0.01 ,  TOTAL =        1.4 SECONDS (    0.0 MIN)
 CPU UTILIZATION:   STEP =      0.00%,  TOTAL =      68.62%

 DIRECT SCF CALCULATION, SCHWRZ=T   FDIFF=F

                                                                                                           NONZERO    BLOCKS
 ITER EX   TOTAL ENERGY      E CHANGE  DENSITY CHANGE    DIIS ERROR      VIR. SHIFT       DAMPING        INTEGRALS   SKIPPED
          * * *   INITIATING DIIS PROCEDURE   * * *
   1  0    -0.933196336    -0.933196336   0.000734366   0.000568919     0.000000000     1.000000000              6         0
   2  1    -0.933196587    -0.000000252   0.000188322   0.000116117     0.000000000     1.000000000              6         0
          * * *    REDUCING  DIIS SUBSPACE    * * *
   3  2    -0.933196598    -0.000000011   0.000000002   0.000000001     0.000000000     1.000000000              6         0
          * * *    REDUCING  DIIS SUBSPACE    * * *
   4  3    -0.933196598     0.000000000   0.000000000   0.000000000     0.000000000     1.000000000              6         0

          -----------------
          DENSITY CONVERGED
          -----------------
     TIME TO FORM FOCK OPERATORS =       0.00 SECONDS (       0.00 SEC/ITER)
     FOCK TIME ON FIRST ITERATION=       0.00, LAST ITERATION=       0.00
     TIME TO SOLVE SCF EQUATIONS =       0.01 SECONDS (       0.00 SEC/ITER)

 FINAL ENERGY IS       -0.9331965981 AFTER   4 ITERATIONS

          --------------------
          SPIN SZ   =    0.000
          S-SQUARED =    1.000
          --------------------
 ...... END OF UHF CALCULATION ......

                         TIMING STATISTICS ON RANK 0:
 CPU        TIME:   STEP =      0.02 ,  TOTAL =        1.0 SECONDS (    0.0 MIN)
 WALL CLOCK TIME:   STEP =      0.03 ,  TOTAL =        1.4 SECONDS (    0.0 MIN)
 CPU UTILIZATION:   STEP =     67.08%,  TOTAL =      68.59%

 ---- SURFACE MAPPING GEOMETRY ----
 COORD 1=  -1.65000  COORD 2=   0.00000
 HAS ENERGY VALUE         -0.9331965981
 H             0.0000000000          0.0000000000          0.0000000000
 H             0.0000000000          0.0000000000          3.3500000000
 ----------------------------------
 ...... END OF ONE-ELECTRON INTEGRALS ......

                         TIMING STATISTICS ON RANK 0:
 CPU        TIME:   STEP =      0.00 ,  TOTAL =        1.0 SECONDS (    0.0 MIN)
 WALL CLOCK TIME:   STEP =      0.00 ,  TOTAL =        1.4 SECONDS (    0.0 MIN)
 CPU UTILIZATION:   STEP =      0.00%,  TOTAL =      68.53%

 LOG10 OF CONDITION NUMBER OF OVERLAP MATRIX IS:  8.24992184E-03
 ...... END OF TWO-ELECTRON INTEGRALS .....

                         TIMING STATISTICS ON RANK 0:
 CPU        TIME:   STEP =      0.01 ,  TOTAL =        1.0 SECONDS (    0.0 MIN)
 WALL CLOCK TIME:   STEP =      0.01 ,  TOTAL =        1.4 SECONDS (    0.0 MIN)
 CPU UTILIZATION:   STEP =    134.37%,  TOTAL =      68.88%

 DIRECT SCF CALCULATION, SCHWRZ=T   FDIFF=F

                                                                                                           NONZERO    BLOCKS
 ITER EX   TOTAL ENERGY      E CHANGE  DENSITY CHANGE    DIIS ERROR      VIR. SHIFT       DAMPING        INTEGRALS   SKIPPED
          * * *   INITIATING DIIS PROCEDURE   * * *
   1  0    -0.933203192    -0.933203192   0.000798438   0.000618575     0.000000000     1.000000000              6         0
   2  1    -0.933203491    -0.000000298   0.000208712   0.000128187     0.000000000     1.000000000              6         0
          * * *    REDUCING  DIIS SUBSPACE    * * *
   3  2    -0.933203504    -0.000000013   0.000000003   0.000000002     0.000000000     1.000000000              6         0
          * * *    REDUCING  DIIS SUBSPACE    * * *
   4  3    -0.933203504     0.000000000   0.000000000   0.000000000     0.000000000     1.000000000              6         0

          -----------------
          DENSITY CONVERGED
          -----------------
     TIME TO FORM FOCK OPERATORS =       0.01 SECONDS (       0.00 SEC/ITER)
     FOCK TIME ON FIRST ITERATION=       0.00, LAST ITERATION=       0.00
     TIME TO SOLVE SCF EQUATIONS =       0.01 SECONDS (       0.00 SEC/ITER)

 FINAL ENERGY IS       -0.9332035039 AFTER   4 ITERATIONS

          --------------------
          SPIN SZ   =    0.000
          S-SQUARED =    1.000
          --------------------
 ...... END OF UHF CALCULATION ......

                         TIMING STATISTICS ON RANK 0:
 CPU        TIME:   STEP =      0.02 ,  TOTAL =        1.0 SECONDS (    0.0 MIN)
 WALL CLOCK TIME:   STEP =      0.04 ,  TOTAL =        1.4 SECONDS (    0.0 MIN)
 CPU UTILIZATION:   STEP =     51.06%,  TOTAL =      68.40%

 ---- SURFACE MAPPING GEOMETRY ----
 COORD 1=  -1.70000  COORD 2=   0.00000
 HAS ENERGY VALUE         -0.9332035039
 H             0.0000000000          0.0000000000          0.0000000000
 H             0.0000000000          0.0000000000          3.3000000000
 ----------------------------------
 ...... END OF ONE-ELECTRON INTEGRALS ......

                         TIMING STATISTICS ON RANK 0:
 CPU        TIME:   STEP =      0.00 ,  TOTAL =        1.0 SECONDS (    0.0 MIN)
 WALL CLOCK TIME:   STEP =      0.00 ,  TOTAL =        1.4 SECONDS (    0.0 MIN)
 CPU UTILIZATION:   STEP =      0.00%,  TOTAL =      68.34%

 LOG10 OF CONDITION NUMBER OF OVERLAP MATRIX IS:  9.22544719E-03
 ...... END OF TWO-ELECTRON INTEGRALS .....

                         TIMING STATISTICS ON RANK 0:
 CPU        TIME:   STEP =      0.01 ,  TOTAL =        1.0 SECONDS (    0.0 MIN)
 WALL CLOCK TIME:   STEP =      0.01 ,  TOTAL =        1.5 SECONDS (    0.0 MIN)
 CPU UTILIZATION:   STEP =    141.48%,  TOTAL =      68.70%

 DIRECT SCF CALCULATION, SCHWRZ=T   FDIFF=F

                                                                                                           NONZERO    BLOCKS
 ITER EX   TOTAL ENERGY      E CHANGE  DENSITY CHANGE    DIIS ERROR      VIR. SHIFT       DAMPING        INTEGRALS   SKIPPED
          * * *   INITIATING DIIS PROCEDURE   * * *
   1  0    -0.933211416    -0.933211416   0.000867237   0.000671899     0.000000000     1.000000000              6         0
   2  1    -0.933211768    -0.000000353   0.000231173   0.000141408     0.000000000     1.000000000              6         0
   3  2    -0.933211785    -0.000000016   0.000000000   0.000000002     0.000000000     1.000000000              6         0
          * * *    REDUCING  DIIS SUBSPACE    * * *
          * * *    REDUCING  DIIS SUBSPACE    * * *
          * * *    REDUCING  DIIS SUBSPACE    * * *
   4  3    -0.933211785     0.000000000   0.000000003   0.000000002     0.000000000     1.000000000              6         0

          -----------------
          DENSITY CONVERGED
          -----------------
     TIME TO FORM FOCK OPERATORS =       0.00 SECONDS (       0.00 SEC/ITER)
     FOCK TIME ON FIRST ITERATION=       0.00, LAST ITERATION=       0.00
     TIME TO SOLVE SCF EQUATIONS =       0.00 SECONDS (       0.00 SEC/ITER)

 FINAL ENERGY IS       -0.9332117848 AFTER   4 ITERATIONS

          --------------------
          SPIN SZ   =    0.000
          S-SQUARED =    0.999
          --------------------
 ...... END OF UHF CALCULATION ......

                         TIMING STATISTICS ON RANK 0:
 CPU        TIME:   STEP =      0.00 ,  TOTAL =        1.0 SECONDS (    0.0 MIN)
 WALL CLOCK TIME:   STEP =      0.03 ,  TOTAL =        1.5 SECONDS (    0.0 MIN)
 CPU UTILIZATION:   STEP =      0.00%,  TOTAL =      67.32%

 ---- SURFACE MAPPING GEOMETRY ----
 COORD 1=  -1.75000  COORD 2=   0.00000
 HAS ENERGY VALUE         -0.9332117848
 H             0.0000000000          0.0000000000          0.0000000000
 H             0.0000000000          0.0000000000          3.2500000000
 ----------------------------------
 ...... END OF ONE-ELECTRON INTEGRALS ......

                         TIMING STATISTICS ON RANK 0:
 CPU        TIME:   STEP =      0.00 ,  TOTAL =        1.0 SECONDS (    0.0 MIN)
 WALL CLOCK TIME:   STEP =      0.00 ,  TOTAL =        1.5 SECONDS (    0.0 MIN)
 CPU UTILIZATION:   STEP =      0.00%,  TOTAL =      67.27%

 LOG10 OF CONDITION NUMBER OF OVERLAP MATRIX IS:  1.03049299E-02
 ...... END OF TWO-ELECTRON INTEGRALS .....

                         TIMING STATISTICS ON RANK 0:
 CPU        TIME:   STEP =      0.02 ,  TOTAL =        1.0 SECONDS (    0.0 MIN)
 WALL CLOCK TIME:   STEP =      0.01 ,  TOTAL =        1.5 SECONDS (    0.0 MIN)
 CPU UTILIZATION:   STEP =    256.81%,  TOTAL =      68.26%

 DIRECT SCF CALCULATION, SCHWRZ=T   FDIFF=F

                                                                                                           NONZERO    BLOCKS
 ITER EX   TOTAL ENERGY      E CHANGE  DENSITY CHANGE    DIIS ERROR      VIR. SHIFT       DAMPING        INTEGRALS   SKIPPED
          * * *   INITIATING DIIS PROCEDURE   * * *
   1  0    -0.933221263    -0.933221263   0.000941053   0.000729120     0.000000000     1.000000000              6         0
   2  1    -0.933221679    -0.000000416   0.000255915   0.000155887     0.000000000     1.000000000              6         0
   3  2    -0.933221699    -0.000000020   0.000000005   0.000000003     0.000000000     1.000000000              6         0
   4  3    -0.933221699     0.000000000   0.000000000   0.000000000     0.000000000     1.000000000              6         0

          -----------------
          DENSITY CONVERGED
          -----------------
     TIME TO FORM FOCK OPERATORS =       0.01 SECONDS (       0.00 SEC/ITER)
     FOCK TIME ON FIRST ITERATION=       0.01, LAST ITERATION=       0.00
     TIME TO SOLVE SCF EQUATIONS =       0.00 SECONDS (       0.00 SEC/ITER)

 FINAL ENERGY IS       -0.9332216991 AFTER   4 ITERATIONS

          --------------------
          SPIN SZ   =    0.000
          S-SQUARED =    0.999
          --------------------
 ...... END OF UHF CALCULATION ......

                         TIMING STATISTICS ON RANK 0:
 CPU        TIME:   STEP =      0.01 ,  TOTAL =        1.0 SECONDS (    0.0 MIN)
 WALL CLOCK TIME:   STEP =      0.04 ,  TOTAL =        1.5 SECONDS (    0.0 MIN)
 CPU UTILIZATION:   STEP =     24.37%,  TOTAL =      67.08%

 ---- SURFACE MAPPING GEOMETRY ----
 COORD 1=  -1.80000  COORD 2=   0.00000
 HAS ENERGY VALUE         -0.9332216991
 H             0.0000000000          0.0000000000          0.0000000000
 H             0.0000000000          0.0000000000          3.2000000000
 ----------------------------------
 ...... END OF ONE-ELECTRON INTEGRALS ......

                         TIMING STATISTICS ON RANK 0:
 CPU        TIME:   STEP =      0.01 ,  TOTAL =        1.0 SECONDS (    0.0 MIN)
 WALL CLOCK TIME:   STEP =      0.00 ,  TOTAL =        1.5 SECONDS (    0.0 MIN)
 CPU UTILIZATION:   STEP =    691.09%,  TOTAL =      67.67%

 LOG10 OF CONDITION NUMBER OF OVERLAP MATRIX IS:  1.14979501E-02
 ...... END OF TWO-ELECTRON INTEGRALS .....

                         TIMING STATISTICS ON RANK 0:
 CPU        TIME:   STEP =      0.01 ,  TOTAL =        1.1 SECONDS (    0.0 MIN)
 WALL CLOCK TIME:   STEP =      0.01 ,  TOTAL =        1.5 SECONDS (    0.0 MIN)
 CPU UTILIZATION:   STEP =     91.02%,  TOTAL =      67.84%

 DIRECT SCF CALCULATION, SCHWRZ=T   FDIFF=F

                                                                                                           NONZERO    BLOCKS
 ITER EX   TOTAL ENERGY      E CHANGE  DENSITY CHANGE    DIIS ERROR      VIR. SHIFT       DAMPING        INTEGRALS   SKIPPED
          * * *   INITIATING DIIS PROCEDURE   * * *
   1  0    -0.933233036    -0.933233036   0.001020211   0.000790491     0.000000000     1.000000000              6         0
   2  1    -0.933233527    -0.000000491   0.000283172   0.000171740     0.000000000     1.000000000              6         0
   3  2    -0.933233552    -0.000000024   0.000000007   0.000000004     0.000000000     1.000000000              6         0
          * * *    REDUCING  DIIS SUBSPACE    * * *
          * * *    REDUCING  DIIS SUBSPACE    * * *
   4  3    -0.933233552     0.000000000   0.000000000   0.000000000     0.000000000     1.000000000              6         0

          -----------------
          DENSITY CONVERGED
          -----------------
     TIME TO FORM FOCK OPERATORS =       0.01 SECONDS (       0.00 SEC/ITER)
     FOCK TIME ON FIRST ITERATION=       0.00, LAST ITERATION=       0.00
     TIME TO SOLVE SCF EQUATIONS =       0.00 SECONDS (       0.00 SEC/ITER)

 FINAL ENERGY IS       -0.9332335516 AFTER   4 ITERATIONS

          --------------------
          SPIN SZ   =    0.000
          S-SQUARED =    0.999
          --------------------
 ...... END OF UHF CALCULATION ......

                         TIMING STATISTICS ON RANK 0:
 CPU        TIME:   STEP =      0.01 ,  TOTAL =        1.1 SECONDS (    0.0 MIN)
 WALL CLOCK TIME:   STEP =      0.03 ,  TOTAL =        1.6 SECONDS (    0.0 MIN)
 CPU UTILIZATION:   STEP =     30.48%,  TOTAL =      67.06%

 ---- SURFACE MAPPING GEOMETRY ----
 COORD 1=  -1.85000  COORD 2=   0.00000
 HAS ENERGY VALUE         -0.9332335516
 H             0.0000000000          0.0000000000          0.0000000000
 H             0.0000000000          0.0000000000          3.1500000000
 ----------------------------------
 ...... END OF ONE-ELECTRON INTEGRALS ......

                         TIMING STATISTICS ON RANK 0:
 CPU        TIME:   STEP =      0.00 ,  TOTAL =        1.1 SECONDS (    0.0 MIN)
 WALL CLOCK TIME:   STEP =      0.00 ,  TOTAL =        1.6 SECONDS (    0.0 MIN)
 CPU UTILIZATION:   STEP =      0.00%,  TOTAL =      67.00%

 LOG10 OF CONDITION NUMBER OF OVERLAP MATRIX IS:  1.28147750E-02
 ...... END OF TWO-ELECTRON INTEGRALS .....

                         TIMING STATISTICS ON RANK 0:
 CPU        TIME:   STEP =      0.01 ,  TOTAL =        1.1 SECONDS (    0.0 MIN)
 WALL CLOCK TIME:   STEP =      0.01 ,  TOTAL =        1.6 SECONDS (    0.0 MIN)
 CPU UTILIZATION:   STEP =    136.00%,  TOTAL =      67.32%

 DIRECT SCF CALCULATION, SCHWRZ=T   FDIFF=F

                                                                                                           NONZERO    BLOCKS
 ITER EX   TOTAL ENERGY      E CHANGE  DENSITY CHANGE    DIIS ERROR      VIR. SHIFT       DAMPING        INTEGRALS   SKIPPED
          * * *   INITIATING DIIS PROCEDURE   * * *
   1  0    -0.933247094    -0.933247094   0.001105078   0.000856302     0.000000000     1.000000000              6         0
   2  1    -0.933247672    -0.000000578   0.000313215   0.000189104     0.000000000     1.000000000              6         0
   3  2    -0.933247701    -0.000000030   0.000000000   0.000000006     0.000000000     1.000000000              6         0
          * * *    REDUCING  DIIS SUBSPACE    * * *
          * * *    REDUCING  DIIS SUBSPACE    * * *
          * * *    REDUCING  DIIS SUBSPACE    * * *
   4  3    -0.933247701     0.000000000   0.000000008   0.000000006     0.000000000     1.000000000              6         0

          -----------------
          DENSITY CONVERGED
          -----------------
     TIME TO FORM FOCK OPERATORS =       0.00 SECONDS (       0.00 SEC/ITER)
     FOCK TIME ON FIRST ITERATION=       0.00, LAST ITERATION=       0.00
     TIME TO SOLVE SCF EQUATIONS =       0.00 SECONDS (       0.00 SEC/ITER)

 FINAL ENERGY IS       -0.9332477012 AFTER   4 ITERATIONS

          --------------------
          SPIN SZ   =    0.000
          S-SQUARED =    0.999
          --------------------
 ...... END OF UHF CALCULATION ......

                         TIMING STATISTICS ON RANK 0:
 CPU        TIME:   STEP =      0.01 ,  TOTAL =        1.1 SECONDS (    0.0 MIN)
 WALL CLOCK TIME:   STEP =      0.03 ,  TOTAL =        1.6 SECONDS (    0.0 MIN)
 CPU UTILIZATION:   STEP =     34.07%,  TOTAL =      66.72%

 ---- SURFACE MAPPING GEOMETRY ----
 COORD 1=  -1.90000  COORD 2=   0.00000
 HAS ENERGY VALUE         -0.9332477012
 H             0.0000000000          0.0000000000          0.0000000000
 H             0.0000000000          0.0000000000          3.1000000000
 ----------------------------------
 ...... END OF ONE-ELECTRON INTEGRALS ......

                         TIMING STATISTICS ON RANK 0:
 CPU        TIME:   STEP =      0.00 ,  TOTAL =        1.1 SECONDS (    0.0 MIN)
 WALL CLOCK TIME:   STEP =      0.00 ,  TOTAL =        1.6 SECONDS (    0.0 MIN)
 CPU UTILIZATION:   STEP =      0.00%,  TOTAL =      66.67%

 LOG10 OF CONDITION NUMBER OF OVERLAP MATRIX IS:  1.42663844E-02
 ...... END OF TWO-ELECTRON INTEGRALS .....

                         TIMING STATISTICS ON RANK 0:
 CPU        TIME:   STEP =      0.01 ,  TOTAL =        1.1 SECONDS (    0.0 MIN)
 WALL CLOCK TIME:   STEP =      0.01 ,  TOTAL =        1.6 SECONDS (    0.0 MIN)
 CPU UTILIZATION:   STEP =    140.75%,  TOTAL =      66.99%

 DIRECT SCF CALCULATION, SCHWRZ=T   FDIFF=F

                                                                                                           NONZERO    BLOCKS
 ITER EX   TOTAL ENERGY      E CHANGE  DENSITY CHANGE    DIIS ERROR      VIR. SHIFT       DAMPING        INTEGRALS   SKIPPED
          * * *   INITIATING DIIS PROCEDURE   * * *
   1  0    -0.933263856    -0.933263856   0.001196077   0.000926884     0.000000000     1.000000000              6         0
   2  1    -0.933264535    -0.000000679   0.000346355   0.000208131     0.000000000     1.000000000              6         0
          * * *    REDUCING  DIIS SUBSPACE    * * *
   3  2    -0.933264571    -0.000000036   0.000000013   0.000000008     0.000000000     1.000000000              6         0
          * * *    REDUCING  DIIS SUBSPACE    * * *
   4  3    -0.933264571     0.000000000   0.000000000   0.000000000     0.000000000     1.000000000              6         0

          -----------------
          DENSITY CONVERGED
          -----------------
     TIME TO FORM FOCK OPERATORS =       0.01 SECONDS (       0.00 SEC/ITER)
     FOCK TIME ON FIRST ITERATION=       0.00, LAST ITERATION=       0.00
     TIME TO SOLVE SCF EQUATIONS =       0.00 SECONDS (       0.00 SEC/ITER)

 FINAL ENERGY IS       -0.9332645710 AFTER   4 ITERATIONS

          --------------------
          SPIN SZ   =    0.000
          S-SQUARED =    0.999
          --------------------
 ...... END OF UHF CALCULATION ......

                         TIMING STATISTICS ON RANK 0:
 CPU        TIME:   STEP =      0.01 ,  TOTAL =        1.1 SECONDS (    0.0 MIN)
 WALL CLOCK TIME:   STEP =      0.03 ,  TOTAL =        1.7 SECONDS (    0.0 MIN)
 CPU UTILIZATION:   STEP =     35.04%,  TOTAL =      66.44%

 ---- SURFACE MAPPING GEOMETRY ----
 COORD 1=  -1.95000  COORD 2=   0.00000
 HAS ENERGY VALUE         -0.9332645710
 H             0.0000000000          0.0000000000          0.0000000000
 H             0.0000000000          0.0000000000          3.0500000000
 ----------------------------------
 ...... END OF ONE-ELECTRON INTEGRALS ......

                         TIMING STATISTICS ON RANK 0:
 CPU        TIME:   STEP =      0.00 ,  TOTAL =        1.1 SECONDS (    0.0 MIN)
 WALL CLOCK TIME:   STEP =      0.00 ,  TOTAL =        1.7 SECONDS (    0.0 MIN)
 CPU UTILIZATION:   STEP =      0.00%,  TOTAL =      66.38%

 LOG10 OF CONDITION NUMBER OF OVERLAP MATRIX IS:  1.58644941E-02
 ...... END OF TWO-ELECTRON INTEGRALS .....

                         TIMING STATISTICS ON RANK 0:
 CPU        TIME:   STEP =      0.00 ,  TOTAL =        1.1 SECONDS (    0.0 MIN)
 WALL CLOCK TIME:   STEP =      0.01 ,  TOTAL =        1.7 SECONDS (    0.0 MIN)
 CPU UTILIZATION:   STEP =      0.00%,  TOTAL =      66.10%

 DIRECT SCF CALCULATION, SCHWRZ=T   FDIFF=F

                                                                                                           NONZERO    BLOCKS
 ITER EX   TOTAL ENERGY      E CHANGE  DENSITY CHANGE    DIIS ERROR      VIR. SHIFT       DAMPING        INTEGRALS   SKIPPED
          * * *   INITIATING DIIS PROCEDURE   * * *
   1  0    -0.933283819    -0.933283819   0.001293690   0.001002617     0.000000000     1.000000000              6         0
   2  1    -0.933284616    -0.000000797   0.000382949   0.000228997     0.000000000     1.000000000              6         0
          * * *    REDUCING  DIIS SUBSPACE    * * *
   3  2    -0.933284660    -0.000000044   0.000000017   0.000000010     0.000000000     1.000000000              6         0
          * * *    REDUCING  DIIS SUBSPACE    * * *
   4  3    -0.933284660     0.000000000   0.000000000   0.000000000     0.000000000     1.000000000              6         0

          -----------------
          DENSITY CONVERGED
          -----------------
     TIME TO FORM FOCK OPERATORS =       0.00 SECONDS (       0.00 SEC/ITER)
     FOCK TIME ON FIRST ITERATION=       0.00, LAST ITERATION=       0.00
     TIME TO SOLVE SCF EQUATIONS =       0.00 SECONDS (       0.00 SEC/ITER)

 FINAL ENERGY IS       -0.9332846600 AFTER   4 ITERATIONS

          --------------------
          SPIN SZ   =    0.000
          S-SQUARED =    0.999
          --------------------
 ...... END OF UHF CALCULATION ......

                         TIMING STATISTICS ON RANK 0:
 CPU        TIME:   STEP =      0.03 ,  TOTAL =        1.1 SECONDS (    0.0 MIN)
 WALL CLOCK TIME:   STEP =      0.03 ,  TOTAL =        1.7 SECONDS (    0.0 MIN)
 CPU UTILIZATION:   STEP =     96.81%,  TOTAL =      66.66%

 ---- SURFACE MAPPING GEOMETRY ----
 COORD 1=  -2.00000  COORD 2=   0.00000
 HAS ENERGY VALUE         -0.9332846600
 H             0.0000000000          0.0000000000          0.0000000000
 H             0.0000000000          0.0000000000          3.0000000000
 ----------------------------------
 ...... END OF ONE-ELECTRON INTEGRALS ......

                         TIMING STATISTICS ON RANK 0:
 CPU        TIME:   STEP =      0.00 ,  TOTAL =        1.1 SECONDS (    0.0 MIN)
 WALL CLOCK TIME:   STEP =      0.00 ,  TOTAL =        1.7 SECONDS (    0.0 MIN)
 CPU UTILIZATION:   STEP =      0.00%,  TOTAL =      66.61%

 LOG10 OF CONDITION NUMBER OF OVERLAP MATRIX IS:  1.76215773E-02
 ...... END OF TWO-ELECTRON INTEGRALS .....

                         TIMING STATISTICS ON RANK 0:
 CPU        TIME:   STEP =      0.00 ,  TOTAL =        1.1 SECONDS (    0.0 MIN)
 WALL CLOCK TIME:   STEP =      0.01 ,  TOTAL =        1.7 SECONDS (    0.0 MIN)
 CPU UTILIZATION:   STEP =      0.00%,  TOTAL =      66.34%

 DIRECT SCF CALCULATION, SCHWRZ=T   FDIFF=F

                                                                                                           NONZERO    BLOCKS
 ITER EX   TOTAL ENERGY      E CHANGE  DENSITY CHANGE    DIIS ERROR      VIR. SHIFT       DAMPING        INTEGRALS   SKIPPED
          * * *   INITIATING DIIS PROCEDURE   * * *
   1  0    -0.933307569    -0.933307569   0.001398493   0.001083954     0.000000000     1.000000000              6         0
   2  1    -0.933308504    -0.000000934   0.000423420   0.000251912     0.000000000     1.000000000              6         0
          * * *    REDUCING  DIIS SUBSPACE    * * *
   3  2    -0.933308557    -0.000000053   0.000000023   0.000000014     0.000000000     1.000000000              6         0
          * * *    REDUCING  DIIS SUBSPACE    * * *
   4  3    -0.933308557     0.000000000   0.000000000   0.000000000     0.000000000     1.000000000              6         0

          -----------------
          DENSITY CONVERGED
          -----------------
     TIME TO FORM FOCK OPERATORS =       0.00 SECONDS (       0.00 SEC/ITER)
     FOCK TIME ON FIRST ITERATION=       0.00, LAST ITERATION=       0.00
     TIME TO SOLVE SCF EQUATIONS =       0.02 SECONDS (       0.01 SEC/ITER)

 FINAL ENERGY IS       -0.9333085573 AFTER   4 ITERATIONS

          --------------------
          SPIN SZ   =    0.000
          S-SQUARED =    0.998
          --------------------
 ...... END OF UHF CALCULATION ......

                         TIMING STATISTICS ON RANK 0:
 CPU        TIME:   STEP =      0.02 ,  TOTAL =        1.1 SECONDS (    0.0 MIN)
 WALL CLOCK TIME:   STEP =      0.03 ,  TOTAL =        1.7 SECONDS (    0.0 MIN)
 CPU UTILIZATION:   STEP =     66.96%,  TOTAL =      66.35%

 ---- SURFACE MAPPING GEOMETRY ----
 COORD 1=  -2.05000  COORD 2=   0.00000
 HAS ENERGY VALUE         -0.9333085573
 H             0.0000000000          0.0000000000          0.0000000000
 H             0.0000000000          0.0000000000          2.9500000000
 ----------------------------------
 ...... END OF ONE-ELECTRON INTEGRALS ......

                         TIMING STATISTICS ON RANK 0:
 CPU        TIME:   STEP =      0.00 ,  TOTAL =        1.1 SECONDS (    0.0 MIN)
 WALL CLOCK TIME:   STEP =      0.00 ,  TOTAL =        1.7 SECONDS (    0.0 MIN)
 CPU UTILIZATION:   STEP =      0.00%,  TOTAL =      66.30%

 LOG10 OF CONDITION NUMBER OF OVERLAP MATRIX IS:  1.95508850E-02
 ...... END OF TWO-ELECTRON INTEGRALS .....

                         TIMING STATISTICS ON RANK 0:
 CPU        TIME:   STEP =      0.01 ,  TOTAL =        1.2 SECONDS (    0.0 MIN)
 WALL CLOCK TIME:   STEP =      0.01 ,  TOTAL =        1.7 SECONDS (    0.0 MIN)
 CPU UTILIZATION:   STEP =    144.01%,  TOTAL =      66.61%

 DIRECT SCF CALCULATION, SCHWRZ=T   FDIFF=F

                                                                                                           NONZERO    BLOCKS
 ITER EX   TOTAL ENERGY      E CHANGE  DENSITY CHANGE    DIIS ERROR      VIR. SHIFT       DAMPING        INTEGRALS   SKIPPED
          * * *   INITIATING DIIS PROCEDURE   * * *
   1  0    -0.933335800    -0.933335800   0.001511157   0.001171426     0.000000000     1.000000000              6         0
   2  1    -0.933336895    -0.000001095   0.000468265   0.000277116     0.000000000     1.000000000              6         0
   3  2    -0.933336959    -0.000000065   0.000000031   0.000000018     0.000000000     1.000000000              6         0
   4  3    -0.933336959     0.000000000   0.000000000   0.000000000     0.000000000     1.000000000              6         0

          -----------------
          DENSITY CONVERGED
          -----------------
     TIME TO FORM FOCK OPERATORS =       0.00 SECONDS (       0.00 SEC/ITER)
     FOCK TIME ON FIRST ITERATION=       0.00, LAST ITERATION=       0.00
     TIME TO SOLVE SCF EQUATIONS =       0.00 SECONDS (       0.00 SEC/ITER)

 FINAL ENERGY IS       -0.9333369595 AFTER   4 ITERATIONS

          --------------------
          SPIN SZ   =    0.000
          S-SQUARED =    0.998
          --------------------
 ...... END OF UHF CALCULATION ......

                         TIMING STATISTICS ON RANK 0:
 CPU        TIME:   STEP =      0.00 ,  TOTAL =        1.2 SECONDS (    0.0 MIN)
 WALL CLOCK TIME:   STEP =      0.03 ,  TOTAL =        1.8 SECONDS (    0.0 MIN)
 CPU UTILIZATION:   STEP =      0.00%,  TOTAL =      65.48%

 ---- SURFACE MAPPING GEOMETRY ----
 COORD 1=  -2.10000  COORD 2=   0.00000
 HAS ENERGY VALUE         -0.9333369595
 H             0.0000000000          0.0000000000          0.0000000000
 H             0.0000000000          0.0000000000          2.9000000000
 ----------------------------------
 ...... END OF ONE-ELECTRON INTEGRALS ......

                         TIMING STATISTICS ON RANK 0:
 CPU        TIME:   STEP =      0.00 ,  TOTAL =        1.2 SECONDS (    0.0 MIN)
 WALL CLOCK TIME:   STEP =      0.00 ,  TOTAL =        1.8 SECONDS (    0.0 MIN)
 CPU UTILIZATION:   STEP =      0.00%,  TOTAL =      65.44%

 LOG10 OF CONDITION NUMBER OF OVERLAP MATRIX IS:  2.16664649E-02
 ...... END OF TWO-ELECTRON INTEGRALS .....

                         TIMING STATISTICS ON RANK 0:
 CPU        TIME:   STEP =      0.02 ,  TOTAL =        1.2 SECONDS (    0.0 MIN)
 WALL CLOCK TIME:   STEP =      0.01 ,  TOTAL =        1.8 SECONDS (    0.0 MIN)
 CPU UTILIZATION:   STEP =    268.13%,  TOTAL =      66.29%

 DIRECT SCF CALCULATION, SCHWRZ=T   FDIFF=F

                                                                                                           NONZERO    BLOCKS
 ITER EX   TOTAL ENERGY      E CHANGE  DENSITY CHANGE    DIIS ERROR      VIR. SHIFT       DAMPING        INTEGRALS   SKIPPED
          * * *   INITIATING DIIS PROCEDURE   * * *
   1  0    -0.933369330    -0.933369330   0.001632472   0.001265659     0.000000000     1.000000000              6         0
   2  1    -0.933370612    -0.000001283   0.000518070   0.000304894     0.000000000     1.000000000              6         0
   3  2    -0.933370691    -0.000000079   0.000000041   0.000000024     0.000000000     1.000000000              6         0
   4  3    -0.933370691     0.000000000   0.000000000   0.000000000     0.000000000     1.000000000              6         0

          -----------------
          DENSITY CONVERGED
          -----------------
     TIME TO FORM FOCK OPERATORS =       0.00 SECONDS (       0.00 SEC/ITER)
     FOCK TIME ON FIRST ITERATION=       0.00, LAST ITERATION=       0.00
     TIME TO SOLVE SCF EQUATIONS =       0.00 SECONDS (       0.00 SEC/ITER)

 FINAL ENERGY IS       -0.9333706915 AFTER   4 ITERATIONS

          --------------------
          SPIN SZ   =    0.000
          S-SQUARED =    0.997
          --------------------
 ...... END OF UHF CALCULATION ......

                         TIMING STATISTICS ON RANK 0:
 CPU        TIME:   STEP =      0.00 ,  TOTAL =        1.2 SECONDS (    0.0 MIN)
 WALL CLOCK TIME:   STEP =      0.03 ,  TOTAL =        1.8 SECONDS (    0.0 MIN)
 CPU UTILIZATION:   STEP =      0.00%,  TOTAL =      65.20%

 ---- SURFACE MAPPING GEOMETRY ----
 COORD 1=  -2.15000  COORD 2=   0.00000
 HAS ENERGY VALUE         -0.9333706915
 H             0.0000000000          0.0000000000          0.0000000000
 H             0.0000000000          0.0000000000          2.8500000000
 ----------------------------------
 ...... END OF ONE-ELECTRON INTEGRALS ......

                         TIMING STATISTICS ON RANK 0:
 CPU        TIME:   STEP =      0.00 ,  TOTAL =        1.2 SECONDS (    0.0 MIN)
 WALL CLOCK TIME:   STEP =      0.00 ,  TOTAL =        1.8 SECONDS (    0.0 MIN)
 CPU UTILIZATION:   STEP =      0.00%,  TOTAL =      65.15%

 LOG10 OF CONDITION NUMBER OF OVERLAP MATRIX IS:  2.39831784E-02
 ...... END OF TWO-ELECTRON INTEGRALS .....

                         TIMING STATISTICS ON RANK 0:
 CPU        TIME:   STEP =      0.01 ,  TOTAL =        1.2 SECONDS (    0.0 MIN)
 WALL CLOCK TIME:   STEP =      0.01 ,  TOTAL =        1.8 SECONDS (    0.0 MIN)
 CPU UTILIZATION:   STEP =    143.35%,  TOTAL =      65.45%

 DIRECT SCF CALCULATION, SCHWRZ=T   FDIFF=F

                                                                                                           NONZERO    BLOCKS
 ITER EX   TOTAL ENERGY      E CHANGE  DENSITY CHANGE    DIIS ERROR      VIR. SHIFT       DAMPING        INTEGRALS   SKIPPED
          * * *   INITIATING DIIS PROCEDURE   * * *
   1  0    -0.933409133    -0.933409133   0.001763370   0.001367390     0.000000000     1.000000000              6         0
   2  1    -0.933410636    -0.000001502   0.000573532   0.000335582     0.000000000     1.000000000              6         0
   3  2    -0.933410732    -0.000000096   0.000000055   0.000000032     0.000000000     1.000000000              6         0
          * * *    REDUCING  DIIS SUBSPACE    * * *
   4  3    -0.933410732     0.000000000   0.000000000   0.000000000     0.000000000     1.000000000              6         0

          -----------------
          DENSITY CONVERGED
          -----------------
     TIME TO FORM FOCK OPERATORS =       0.00 SECONDS (       0.00 SEC/ITER)
     FOCK TIME ON FIRST ITERATION=       0.00, LAST ITERATION=       0.00
     TIME TO SOLVE SCF EQUATIONS =       0.02 SECONDS (       0.01 SEC/ITER)

 FINAL ENERGY IS       -0.9334107322 AFTER   4 ITERATIONS

          --------------------
          SPIN SZ   =    0.000
          S-SQUARED =    0.997
          --------------------
 ...... END OF UHF CALCULATION ......

                         TIMING STATISTICS ON RANK 0:
 CPU        TIME:   STEP =      0.02 ,  TOTAL =        1.2 SECONDS (    0.0 MIN)
 WALL CLOCK TIME:   STEP =      0.03 ,  TOTAL =        1.8 SECONDS (    0.0 MIN)
 CPU UTILIZATION:   STEP =     65.30%,  TOTAL =      65.45%

 ---- SURFACE MAPPING GEOMETRY ----
 COORD 1=  -2.20000  COORD 2=   0.00000
 HAS ENERGY VALUE         -0.9334107322
 H             0.0000000000          0.0000000000          0.0000000000
 H             0.0000000000          0.0000000000          2.8000000000
 ----------------------------------
 ...... END OF ONE-ELECTRON INTEGRALS ......

                         TIMING STATISTICS ON RANK 0:
 CPU        TIME:   STEP =      0.00 ,  TOTAL =        1.2 SECONDS (    0.0 MIN)
 WALL CLOCK TIME:   STEP =      0.00 ,  TOTAL =        1.8 SECONDS (    0.0 MIN)
 CPU UTILIZATION:   STEP =      0.00%,  TOTAL =      65.41%

 LOG10 OF CONDITION NUMBER OF OVERLAP MATRIX IS:  2.65167178E-02
 ...... END OF TWO-ELECTRON INTEGRALS .....

                         TIMING STATISTICS ON RANK 0:
 CPU        TIME:   STEP =      0.00 ,  TOTAL =        1.2 SECONDS (    0.0 MIN)
 WALL CLOCK TIME:   STEP =      0.01 ,  TOTAL =        1.9 SECONDS (    0.0 MIN)
 CPU UTILIZATION:   STEP =      0.00%,  TOTAL =      65.15%

 DIRECT SCF CALCULATION, SCHWRZ=T   FDIFF=F

                                                                                                           NONZERO    BLOCKS
 ITER EX   TOTAL ENERGY      E CHANGE  DENSITY CHANGE    DIIS ERROR      VIR. SHIFT       DAMPING        INTEGRALS   SKIPPED
          * * *   INITIATING DIIS PROCEDURE   * * *
   1  0    -0.933456368    -0.933456368   0.001904942   0.001477485     0.000000000     1.000000000              6         0
   2  1    -0.933458128    -0.000001761   0.000635480   0.000369579     0.000000000     1.000000000              6         0
          * * *    REDUCING  DIIS SUBSPACE    * * *
   3  2    -0.933458246    -0.000000118   0.000000073   0.000000042     0.000000000     1.000000000              6         0
          * * *    REDUCING  DIIS SUBSPACE    * * *
   4  3    -0.933458246     0.000000000   0.000000000   0.000000000     0.000000000     1.000000000              6         0

          -----------------
          DENSITY CONVERGED
          -----------------
     TIME TO FORM FOCK OPERATORS =       0.01 SECONDS (       0.00 SEC/ITER)
     FOCK TIME ON FIRST ITERATION=       0.00, LAST ITERATION=       0.00
     TIME TO SOLVE SCF EQUATIONS =       0.01 SECONDS (       0.00 SEC/ITER)

 FINAL ENERGY IS       -0.9334582460 AFTER   4 ITERATIONS

          --------------------
          SPIN SZ   =    0.000
          S-SQUARED =    0.996
          --------------------
 ...... END OF UHF CALCULATION ......

                         TIMING STATISTICS ON RANK 0:
 CPU        TIME:   STEP =      0.02 ,  TOTAL =        1.2 SECONDS (    0.0 MIN)
 WALL CLOCK TIME:   STEP =      0.03 ,  TOTAL =        1.9 SECONDS (    0.0 MIN)
 CPU UTILIZATION:   STEP =     63.98%,  TOTAL =      65.13%

 ---- SURFACE MAPPING GEOMETRY ----
 COORD 1=  -2.25000  COORD 2=   0.00000
 HAS ENERGY VALUE         -0.9334582460
 H             0.0000000000          0.0000000000          0.0000000000
 H             0.0000000000          0.0000000000          2.7500000000
 ----------------------------------
 ...... END OF ONE-ELECTRON INTEGRALS ......

                         TIMING STATISTICS ON RANK 0:
 CPU        TIME:   STEP =      0.00 ,  TOTAL =        1.2 SECONDS (    0.0 MIN)
 WALL CLOCK TIME:   STEP =      0.00 ,  TOTAL =        1.9 SECONDS (    0.0 MIN)
 CPU UTILIZATION:   STEP =      0.00%,  TOTAL =      65.08%

 LOG10 OF CONDITION NUMBER OF OVERLAP MATRIX IS:  2.92836230E-02
 ...... END OF TWO-ELECTRON INTEGRALS .....

                         TIMING STATISTICS ON RANK 0:
 CPU        TIME:   STEP =      0.01 ,  TOTAL =        1.2 SECONDS (    0.0 MIN)
 WALL CLOCK TIME:   STEP =      0.01 ,  TOTAL =        1.9 SECONDS (    0.0 MIN)
 CPU UTILIZATION:   STEP =    138.62%,  TOTAL =      65.36%

 DIRECT SCF CALCULATION, SCHWRZ=T   FDIFF=F

                                                                                                           NONZERO    BLOCKS
 ITER EX   TOTAL ENERGY      E CHANGE  DENSITY CHANGE    DIIS ERROR      VIR. SHIFT       DAMPING        INTEGRALS   SKIPPED
          * * *   INITIATING DIIS PROCEDURE   * * *
   1  0    -0.933512412    -0.933512412   0.002058455   0.001596955     0.000000000     1.000000000              6         0
   2  1    -0.933514477    -0.000002065   0.000704904   0.000407354     0.000000000     1.000000000              6         0
   3  2    -0.933514621    -0.000000144   0.000000000   0.000000056     0.000000000     1.000000000              6         0
          * * *    REDUCING  DIIS SUBSPACE    * * *
          * * *    REDUCING  DIIS SUBSPACE    * * *
          * * *    REDUCING  DIIS SUBSPACE    * * *
   4  3    -0.933514621     0.000000000   0.000000072   0.000000056     0.000000000     1.000000000              6         0

          -----------------
          DENSITY CONVERGED
          -----------------
     TIME TO FORM FOCK OPERATORS =       0.00 SECONDS (       0.00 SEC/ITER)
     FOCK TIME ON FIRST ITERATION=       0.00, LAST ITERATION=       0.00
     TIME TO SOLVE SCF EQUATIONS =       0.01 SECONDS (       0.00 SEC/ITER)

 FINAL ENERGY IS       -0.9335146206 AFTER   4 ITERATIONS

          --------------------
          SPIN SZ   =    0.000
          S-SQUARED =    0.996
          --------------------
 ...... END OF UHF CALCULATION ......

                         TIMING STATISTICS ON RANK 0:
 CPU        TIME:   STEP =      0.01 ,  TOTAL =        1.3 SECONDS (    0.0 MIN)
 WALL CLOCK TIME:   STEP =      0.03 ,  TOTAL =        1.9 SECONDS (    0.0 MIN)
 CPU UTILIZATION:   STEP =     32.41%,  TOTAL =      64.83%

 ---- SURFACE MAPPING GEOMETRY ----
 COORD 1=  -2.30000  COORD 2=   0.00000
 HAS ENERGY VALUE         -0.9335146206
 H             0.0000000000          0.0000000000          0.0000000000
 H             0.0000000000          0.0000000000          2.7000000000
 ----------------------------------
 ...... END OF ONE-ELECTRON INTEGRALS ......

                         TIMING STATISTICS ON RANK 0:
 CPU        TIME:   STEP =      0.00 ,  TOTAL =        1.3 SECONDS (    0.0 MIN)
 WALL CLOCK TIME:   STEP =      0.00 ,  TOTAL =        1.9 SECONDS (    0.0 MIN)
 CPU UTILIZATION:   STEP =      0.00%,  TOTAL =      64.79%

 LOG10 OF CONDITION NUMBER OF OVERLAP MATRIX IS:  3.23012993E-02
 ...... END OF TWO-ELECTRON INTEGRALS .....

                         TIMING STATISTICS ON RANK 0:
 CPU        TIME:   STEP =      0.01 ,  TOTAL =        1.3 SECONDS (    0.0 MIN)
 WALL CLOCK TIME:   STEP =      0.01 ,  TOTAL =        1.9 SECONDS (    0.0 MIN)
 CPU UTILIZATION:   STEP =    132.38%,  TOTAL =      65.05%

 DIRECT SCF CALCULATION, SCHWRZ=T   FDIFF=F

                                                                                                           NONZERO    BLOCKS
 ITER EX   TOTAL ENERGY      E CHANGE  DENSITY CHANGE    DIIS ERROR      VIR. SHIFT       DAMPING        INTEGRALS   SKIPPED
          * * *   INITIATING DIIS PROCEDURE   * * *
   1  0    -0.933578913    -0.933578913   0.002225392   0.001726986     0.000000000     1.000000000              6         0
   2  1    -0.933581337    -0.000002424   0.000782988   0.000449465     0.000000000     1.000000000              6         0
          * * *    REDUCING  DIIS SUBSPACE    * * *
   3  2    -0.933581513    -0.000000176   0.000000130   0.000000075     0.000000000     1.000000000              6         0
          * * *    REDUCING  DIIS SUBSPACE    * * *
   4  3    -0.933581513     0.000000000   0.000000000   0.000000000     0.000000000     1.000000000              6         0

          -----------------
          DENSITY CONVERGED
          -----------------
     TIME TO FORM FOCK OPERATORS =       0.00 SECONDS (       0.00 SEC/ITER)
     FOCK TIME ON FIRST ITERATION=       0.00, LAST ITERATION=       0.00
     TIME TO SOLVE SCF EQUATIONS =       0.00 SECONDS (       0.00 SEC/ITER)

 FINAL ENERGY IS       -0.9335815135 AFTER   4 ITERATIONS

          --------------------
          SPIN SZ   =    0.000
          S-SQUARED =    0.995
          --------------------
 ...... END OF UHF CALCULATION ......

                         TIMING STATISTICS ON RANK 0:
 CPU        TIME:   STEP =      0.02 ,  TOTAL =        1.3 SECONDS (    0.0 MIN)
 WALL CLOCK TIME:   STEP =      0.03 ,  TOTAL =        2.0 SECONDS (    0.0 MIN)
 CPU UTILIZATION:   STEP =     68.43%,  TOTAL =      65.10%

 ---- SURFACE MAPPING GEOMETRY ----
 COORD 1=  -2.35000  COORD 2=   0.00000
 HAS ENERGY VALUE         -0.9335815135
 H             0.0000000000          0.0000000000          0.0000000000
 H             0.0000000000          0.0000000000          2.6500000000
 ----------------------------------
 ...... END OF ONE-ELECTRON INTEGRALS ......

                         TIMING STATISTICS ON RANK 0:
 CPU        TIME:   STEP =      0.00 ,  TOTAL =        1.3 SECONDS (    0.0 MIN)
 WALL CLOCK TIME:   STEP =      0.00 ,  TOTAL =        2.0 SECONDS (    0.0 MIN)
 CPU UTILIZATION:   STEP =      0.00%,  TOTAL =      65.05%

 LOG10 OF CONDITION NUMBER OF OVERLAP MATRIX IS:  3.55880371E-02
 ...... END OF TWO-ELECTRON INTEGRALS .....

                         TIMING STATISTICS ON RANK 0:
 CPU        TIME:   STEP =      0.01 ,  TOTAL =        1.3 SECONDS (    0.0 MIN)
 WALL CLOCK TIME:   STEP =      0.01 ,  TOTAL =        2.0 SECONDS (    0.0 MIN)
 CPU UTILIZATION:   STEP =     83.56%,  TOTAL =      65.17%

 DIRECT SCF CALCULATION, SCHWRZ=T   FDIFF=F

                                                                                                           NONZERO    BLOCKS
 ITER EX   TOTAL ENERGY      E CHANGE  DENSITY CHANGE    DIIS ERROR      VIR. SHIFT       DAMPING        INTEGRALS   SKIPPED
          * * *   INITIATING DIIS PROCEDURE   * * *
   1  0    -0.933657841    -0.933657841   0.002407370   0.001868875     0.000000000     1.000000000              6         0
   2  1    -0.933660692    -0.000002851   0.000871120   0.000496554     0.000000000     1.000000000              6         0
   3  2    -0.933660909    -0.000000217   0.000000000   0.000000099     0.000000000     1.000000000              6         0
          * * *    REDUCING  DIIS SUBSPACE    * * *
          * * *    REDUCING  DIIS SUBSPACE    * * *
          * * *    REDUCING  DIIS SUBSPACE    * * *
   4  3    -0.933660909     0.000000000   0.000000128   0.000000099     0.000000000     1.000000000              6         0

          -----------------
          DENSITY CONVERGED
          -----------------
     TIME TO FORM FOCK OPERATORS =       0.00 SECONDS (       0.00 SEC/ITER)
     FOCK TIME ON FIRST ITERATION=       0.00, LAST ITERATION=       0.00
     TIME TO SOLVE SCF EQUATIONS =       0.01 SECONDS (       0.00 SEC/ITER)

 FINAL ENERGY IS       -0.9336609090 AFTER   4 ITERATIONS

          --------------------
          SPIN SZ   =    0.000
          S-SQUARED =    0.994
          --------------------
 ...... END OF UHF CALCULATION ......

                         TIMING STATISTICS ON RANK 0:
 CPU        TIME:   STEP =      0.01 ,  TOTAL =        1.3 SECONDS (    0.0 MIN)
 WALL CLOCK TIME:   STEP =      0.03 ,  TOTAL =        2.0 SECONDS (    0.0 MIN)
 CPU UTILIZATION:   STEP =     30.63%,  TOTAL =      64.61%

 ---- SURFACE MAPPING GEOMETRY ----
 COORD 1=  -2.40000  COORD 2=   0.00000
 HAS ENERGY VALUE         -0.9336609090
 H             0.0000000000          0.0000000000          0.0000000000
 H             0.0000000000          0.0000000000          2.6000000000
 ----------------------------------
 ...... END OF ONE-ELECTRON INTEGRALS ......

                         TIMING STATISTICS ON RANK 0:
 CPU        TIME:   STEP =      0.00 ,  TOTAL =        1.3 SECONDS (    0.0 MIN)
 WALL CLOCK TIME:   STEP =      0.00 ,  TOTAL =        2.0 SECONDS (    0.0 MIN)
 CPU UTILIZATION:   STEP =      0.00%,  TOTAL =      64.55%

 LOG10 OF CONDITION NUMBER OF OVERLAP MATRIX IS:  3.91630354E-02
 ...... END OF TWO-ELECTRON INTEGRALS .....

                         TIMING STATISTICS ON RANK 0:
 CPU        TIME:   STEP =      0.02 ,  TOTAL =        1.3 SECONDS (    0.0 MIN)
 WALL CLOCK TIME:   STEP =      0.01 ,  TOTAL =        2.0 SECONDS (    0.0 MIN)
 CPU UTILIZATION:   STEP =    194.78%,  TOTAL =      65.21%

 DIRECT SCF CALCULATION, SCHWRZ=T   FDIFF=F

                                                                                                           NONZERO    BLOCKS
 ITER EX   TOTAL ENERGY      E CHANGE  DENSITY CHANGE    DIIS ERROR      VIR. SHIFT       DAMPING        INTEGRALS   SKIPPED
          * * *   INITIATING DIIS PROCEDURE   * * *
   1  0    -0.933751560    -0.933751560   0.002606369   0.002024220     0.000000000     1.000000000              6         0
   2  1    -0.933754919    -0.000003359   0.000971006   0.000549407     0.000000000     1.000000000              6         0
   3  2    -0.933755187    -0.000000267   0.000000000   0.000000132     0.000000000     1.000000000              6         0
          * * *    REDUCING  DIIS SUBSPACE    * * *
          * * *    REDUCING  DIIS SUBSPACE    * * *
          * * *    REDUCING  DIIS SUBSPACE    * * *
   4  3    -0.933755187     0.000000000   0.000000171   0.000000132     0.000000000     1.000000000              6         0

          -----------------
          DENSITY CONVERGED
          -----------------
     TIME TO FORM FOCK OPERATORS =       0.00 SECONDS (       0.00 SEC/ITER)
     FOCK TIME ON FIRST ITERATION=       0.00, LAST ITERATION=       0.00
     TIME TO SOLVE SCF EQUATIONS =       0.01 SECONDS (       0.00 SEC/ITER)

 FINAL ENERGY IS       -0.9337551868 AFTER   4 ITERATIONS

          --------------------
          SPIN SZ   =    0.000
          S-SQUARED =    0.992
          --------------------
 ...... END OF UHF CALCULATION ......

                         TIMING STATISTICS ON RANK 0:
 CPU        TIME:   STEP =      0.01 ,  TOTAL =        1.3 SECONDS (    0.0 MIN)
 WALL CLOCK TIME:   STEP =      0.04 ,  TOTAL =        2.1 SECONDS (    0.0 MIN)
 CPU UTILIZATION:   STEP =     25.90%,  TOTAL =      64.48%

 ---- SURFACE MAPPING GEOMETRY ----
 COORD 1=  -2.45000  COORD 2=   0.00000
 HAS ENERGY VALUE         -0.9337551868
 H             0.0000000000          0.0000000000          0.0000000000
 H             0.0000000000          0.0000000000          2.5500000000
 ----------------------------------
 ...... END OF ONE-ELECTRON INTEGRALS ......

                         TIMING STATISTICS ON RANK 0:
 CPU        TIME:   STEP =      0.00 ,  TOTAL =        1.3 SECONDS (    0.0 MIN)
 WALL CLOCK TIME:   STEP =      0.00 ,  TOTAL =        2.1 SECONDS (    0.0 MIN)
 CPU UTILIZATION:   STEP =      0.00%,  TOTAL =      64.44%

 LOG10 OF CONDITION NUMBER OF OVERLAP MATRIX IS:  4.30464296E-02
 ...... END OF TWO-ELECTRON INTEGRALS .....

                         TIMING STATISTICS ON RANK 0:
 CPU        TIME:   STEP =      0.01 ,  TOTAL =        1.3 SECONDS (    0.0 MIN)
 WALL CLOCK TIME:   STEP =      0.01 ,  TOTAL =        2.1 SECONDS (    0.0 MIN)
 CPU UTILIZATION:   STEP =    137.49%,  TOTAL =      64.70%

 DIRECT SCF CALCULATION, SCHWRZ=T   FDIFF=F

                                                                                                           NONZERO    BLOCKS
 ITER EX   TOTAL ENERGY      E CHANGE  DENSITY CHANGE    DIIS ERROR      VIR. SHIFT       DAMPING        INTEGRALS   SKIPPED
          * * *   INITIATING DIIS PROCEDURE   * * *
   1  0    -0.933862907    -0.933862907   0.002824424   0.002194677     0.000000000     1.000000000              6         0
   2  1    -0.933866874    -0.000003967   0.001084611   0.000608907     0.000000000     1.000000000              6         0
          * * *    REDUCING  DIIS SUBSPACE    * * *
   3  2    -0.933867205    -0.000000331   0.000000316   0.000000177     0.000000000     1.000000000              6         0
          * * *    REDUCING  DIIS SUBSPACE    * * *
   4  3    -0.933867205     0.000000000   0.000000000   0.000000000     0.000000000     1.000000000              6         0

          -----------------
          DENSITY CONVERGED
          -----------------
     TIME TO FORM FOCK OPERATORS =       0.00 SECONDS (       0.00 SEC/ITER)
     FOCK TIME ON FIRST ITERATION=       0.00, LAST ITERATION=       0.00
     TIME TO SOLVE SCF EQUATIONS =       0.01 SECONDS (       0.00 SEC/ITER)

 FINAL ENERGY IS       -0.9338672048 AFTER   4 ITERATIONS

          --------------------
          SPIN SZ   =    0.000
          S-SQUARED =    0.991
          --------------------
 ...... END OF UHF CALCULATION ......

                         TIMING STATISTICS ON RANK 0:
 CPU        TIME:   STEP =      0.01 ,  TOTAL =        1.3 SECONDS (    0.0 MIN)
 WALL CLOCK TIME:   STEP =      0.03 ,  TOTAL =        2.1 SECONDS (    0.0 MIN)
 CPU UTILIZATION:   STEP =     31.01%,  TOTAL =      64.18%

 ---- SURFACE MAPPING GEOMETRY ----
 COORD 1=  -2.50000  COORD 2=   0.00000
 HAS ENERGY VALUE         -0.9338672048
 H             0.0000000000          0.0000000000          0.0000000000
 H             0.0000000000          0.0000000000          2.5000000000
 ----------------------------------
 ...... END OF ONE-ELECTRON INTEGRALS ......

                         TIMING STATISTICS ON RANK 0:
 CPU        TIME:   STEP =      0.00 ,  TOTAL =        1.3 SECONDS (    0.0 MIN)
 WALL CLOCK TIME:   STEP =      0.00 ,  TOTAL =        2.1 SECONDS (    0.0 MIN)
 CPU UTILIZATION:   STEP =      0.00%,  TOTAL =      64.14%

 LOG10 OF CONDITION NUMBER OF OVERLAP MATRIX IS:  4.72593268E-02
 ...... END OF TWO-ELECTRON INTEGRALS .....

                         TIMING STATISTICS ON RANK 0:
 CPU        TIME:   STEP =      0.01 ,  TOTAL =        1.4 SECONDS (    0.0 MIN)
 WALL CLOCK TIME:   STEP =      0.01 ,  TOTAL =        2.1 SECONDS (    0.0 MIN)
 CPU UTILIZATION:   STEP =    140.33%,  TOTAL =      64.40%

 DIRECT SCF CALCULATION, SCHWRZ=T   FDIFF=F

                                                                                                           NONZERO    BLOCKS
 ITER EX   TOTAL ENERGY      E CHANGE  DENSITY CHANGE    DIIS ERROR      VIR. SHIFT       DAMPING        INTEGRALS   SKIPPED
          * * *   INITIATING DIIS PROCEDURE   * * *
   1  0    -0.933995293    -0.933995293   0.003063825   0.002382126     0.000000000     1.000000000              6         0
   2  1    -0.933999989    -0.000004695   0.001214289   0.000676093     0.000000000     1.000000000              6         0
   3  2    -0.934000400    -0.000000412   0.000000000   0.000000238     0.000000000     1.000000000              6         0
          * * *    REDUCING  DIIS SUBSPACE    * * *
          * * *    REDUCING  DIIS SUBSPACE    * * *
          * * *    REDUCING  DIIS SUBSPACE    * * *
   4  3    -0.934000400     0.000000000   0.000000306   0.000000238     0.000000000     1.000000000              6         0

          -----------------
          DENSITY CONVERGED
          -----------------
     TIME TO FORM FOCK OPERATORS =       0.01 SECONDS (       0.00 SEC/ITER)
     FOCK TIME ON FIRST ITERATION=       0.00, LAST ITERATION=       0.01
     TIME TO SOLVE SCF EQUATIONS =       0.01 SECONDS (       0.00 SEC/ITER)

 FINAL ENERGY IS       -0.9340004003 AFTER   4 ITERATIONS

          --------------------
          SPIN SZ   =    0.000
          S-SQUARED =    0.989
          --------------------
 ...... END OF UHF CALCULATION ......

                         TIMING STATISTICS ON RANK 0:
 CPU        TIME:   STEP =      0.02 ,  TOTAL =        1.4 SECONDS (    0.0 MIN)
 WALL CLOCK TIME:   STEP =      0.03 ,  TOTAL =        2.1 SECONDS (    0.0 MIN)
 CPU UTILIZATION:   STEP =     65.31%,  TOTAL =      64.41%

 ---- SURFACE MAPPING GEOMETRY ----
 COORD 1=  -2.55000  COORD 2=   0.00000
 HAS ENERGY VALUE         -0.9340004003
 H             0.0000000000          0.0000000000          0.0000000000
 H             0.0000000000          0.0000000000          2.4500000000
 ----------------------------------
 ...... END OF ONE-ELECTRON INTEGRALS ......

                         TIMING STATISTICS ON RANK 0:
 CPU        TIME:   STEP =      0.00 ,  TOTAL =        1.4 SECONDS (    0.0 MIN)
 WALL CLOCK TIME:   STEP =      0.00 ,  TOTAL =        2.1 SECONDS (    0.0 MIN)
 CPU UTILIZATION:   STEP =      0.00%,  TOTAL =      64.38%

 LOG10 OF CONDITION NUMBER OF OVERLAP MATRIX IS:  5.18238494E-02
 ...... END OF TWO-ELECTRON INTEGRALS .....

                         TIMING STATISTICS ON RANK 0:
 CPU        TIME:   STEP =      0.00 ,  TOTAL =        1.4 SECONDS (    0.0 MIN)
 WALL CLOCK TIME:   STEP =      0.01 ,  TOTAL =        2.2 SECONDS (    0.0 MIN)
 CPU UTILIZATION:   STEP =      0.00%,  TOTAL =      64.15%

 DIRECT SCF CALCULATION, SCHWRZ=T   FDIFF=F

                                                                                                           NONZERO    BLOCKS
 ITER EX   TOTAL ENERGY      E CHANGE  DENSITY CHANGE    DIIS ERROR      VIR. SHIFT       DAMPING        INTEGRALS   SKIPPED
          * * *   INITIATING DIIS PROCEDURE   * * *
   1  0    -0.934152823    -0.934152823   0.003327292   0.002588814     0.000000000     1.000000000              6         0
   2  1    -0.934158397    -0.000005573   0.001362932   0.000752228     0.000000000     1.000000000              6         0
   3  2    -0.934158911    -0.000000514   0.000000581   0.000000320     0.000000000     1.000000000              6         0
          * * *    REDUCING  DIIS SUBSPACE    * * *
          * * *    REDUCING  DIIS SUBSPACE    * * *
   4  3    -0.934158911     0.000000000   0.000000000   0.000000000     0.000000000     1.000000000              6         0

          -----------------
          DENSITY CONVERGED
          -----------------
     TIME TO FORM FOCK OPERATORS =       0.01 SECONDS (       0.00 SEC/ITER)
     FOCK TIME ON FIRST ITERATION=       0.00, LAST ITERATION=       0.00
     TIME TO SOLVE SCF EQUATIONS =       0.00 SECONDS (       0.00 SEC/ITER)

 FINAL ENERGY IS       -0.9341589109 AFTER   4 ITERATIONS

          --------------------
          SPIN SZ   =    0.000
          S-SQUARED =    0.987
          --------------------
 ...... END OF UHF CALCULATION ......

                         TIMING STATISTICS ON RANK 0:
 CPU        TIME:   STEP =      0.01 ,  TOTAL =        1.4 SECONDS (    0.0 MIN)
 WALL CLOCK TIME:   STEP =      0.03 ,  TOTAL =        2.2 SECONDS (    0.0 MIN)
 CPU UTILIZATION:   STEP =     33.47%,  TOTAL =      63.73%

 ---- SURFACE MAPPING GEOMETRY ----
 COORD 1=  -2.60000  COORD 2=   0.00000
 HAS ENERGY VALUE         -0.9341589109
 H             0.0000000000          0.0000000000          0.0000000000
 H             0.0000000000          0.0000000000          2.4000000000
 ----------------------------------
 ...... END OF ONE-ELECTRON INTEGRALS ......

                         TIMING STATISTICS ON RANK 0:
 CPU        TIME:   STEP =      0.00 ,  TOTAL =        1.4 SECONDS (    0.0 MIN)
 WALL CLOCK TIME:   STEP =      0.00 ,  TOTAL =        2.2 SECONDS (    0.0 MIN)
 CPU UTILIZATION:   STEP =      0.00%,  TOTAL =      63.70%

 LOG10 OF CONDITION NUMBER OF OVERLAP MATRIX IS:  5.67631890E-02
 ...... END OF TWO-ELECTRON INTEGRALS .....

                         TIMING STATISTICS ON RANK 0:
 CPU        TIME:   STEP =      0.02 ,  TOTAL =        1.4 SECONDS (    0.0 MIN)
 WALL CLOCK TIME:   STEP =      0.01 ,  TOTAL =        2.2 SECONDS (    0.0 MIN)
 CPU UTILIZATION:   STEP =    281.49%,  TOTAL =      64.41%

 DIRECT SCF CALCULATION, SCHWRZ=T   FDIFF=F

                                                                                                           NONZERO    BLOCKS
 ITER EX   TOTAL ENERGY      E CHANGE  DENSITY CHANGE    DIIS ERROR      VIR. SHIFT       DAMPING        INTEGRALS   SKIPPED
          * * *   INITIATING DIIS PROCEDURE   * * *
   1  0    -0.934340442    -0.934340442   0.003617230   0.002816786     0.000000000     1.000000000              6         0
   2  1    -0.934347074    -0.000006632   0.001533765   0.000838658     0.000000000     1.000000000              6         0
          * * *    REDUCING  DIIS SUBSPACE    * * *
   3  2    -0.934347720    -0.000000646   0.000000793   0.000000434     0.000000000     1.000000000              6         0
          * * *    REDUCING  DIIS SUBSPACE    * * *
   4  3    -0.934347720     0.000000000   0.000000000   0.000000000     0.000000000     1.000000000              6         0

          -----------------
          DENSITY CONVERGED
          -----------------
     TIME TO FORM FOCK OPERATORS =       0.00 SECONDS (       0.00 SEC/ITER)
     FOCK TIME ON FIRST ITERATION=       0.00, LAST ITERATION=       0.00
     TIME TO SOLVE SCF EQUATIONS =       0.01 SECONDS (       0.00 SEC/ITER)

 FINAL ENERGY IS       -0.9343477197 AFTER   4 ITERATIONS

          --------------------
          SPIN SZ   =    0.000
          S-SQUARED =    0.984
          --------------------
 ...... END OF UHF CALCULATION ......

                         TIMING STATISTICS ON RANK 0:
 CPU        TIME:   STEP =      0.01 ,  TOTAL =        1.4 SECONDS (    0.0 MIN)
 WALL CLOCK TIME:   STEP =      0.03 ,  TOTAL =        2.2 SECONDS (    0.0 MIN)
 CPU UTILIZATION:   STEP =     33.57%,  TOTAL =      63.99%

 ---- SURFACE MAPPING GEOMETRY ----
 COORD 1=  -2.65000  COORD 2=   0.00000
 HAS ENERGY VALUE         -0.9343477197
 H             0.0000000000          0.0000000000          0.0000000000
 H             0.0000000000          0.0000000000          2.3500000000
 ----------------------------------
 ...... END OF ONE-ELECTRON INTEGRALS ......

                         TIMING STATISTICS ON RANK 0:
 CPU        TIME:   STEP =      0.00 ,  TOTAL =        1.4 SECONDS (    0.0 MIN)
 WALL CLOCK TIME:   STEP =      0.00 ,  TOTAL =        2.2 SECONDS (    0.0 MIN)
 CPU UTILIZATION:   STEP =      0.00%,  TOTAL =      63.95%

 LOG10 OF CONDITION NUMBER OF OVERLAP MATRIX IS:  6.21016743E-02
 ...... END OF TWO-ELECTRON INTEGRALS .....

                         TIMING STATISTICS ON RANK 0:
 CPU        TIME:   STEP =      0.00 ,  TOTAL =        1.4 SECONDS (    0.0 MIN)
 WALL CLOCK TIME:   STEP =      0.01 ,  TOTAL =        2.2 SECONDS (    0.0 MIN)
 CPU UTILIZATION:   STEP =      0.00%,  TOTAL =      63.67%

 DIRECT SCF CALCULATION, SCHWRZ=T   FDIFF=F

                                                                                                           NONZERO    BLOCKS
 ITER EX   TOTAL ENERGY      E CHANGE  DENSITY CHANGE    DIIS ERROR      VIR. SHIFT       DAMPING        INTEGRALS   SKIPPED
          * * *   INITIATING DIIS PROCEDURE   * * *
   1  0    -0.934564101    -0.934564101   0.003936757   0.003068702     0.000000000     1.000000000              6         0
   2  1    -0.934572015    -0.000007915   0.001730875   0.000937080     0.000000000     1.000000000              6         0
   3  2    -0.934572830    -0.000000815   0.000001088   0.000000589     0.000000000     1.000000000              6         0
   4  3    -0.934572830     0.000000000   0.000001089   0.000000000     0.000000000     1.000000000              6         0

          -----------------
          DENSITY CONVERGED
          -----------------
     TIME TO FORM FOCK OPERATORS =       0.01 SECONDS (       0.00 SEC/ITER)
     FOCK TIME ON FIRST ITERATION=       0.01, LAST ITERATION=       0.00
     TIME TO SOLVE SCF EQUATIONS =       0.01 SECONDS (       0.00 SEC/ITER)

 FINAL ENERGY IS       -0.9345728302 AFTER   4 ITERATIONS

          --------------------
          SPIN SZ   =    0.000
          S-SQUARED =    0.981
          --------------------
 ...... END OF UHF CALCULATION ......

                         TIMING STATISTICS ON RANK 0:
 CPU        TIME:   STEP =      0.02 ,  TOTAL =        1.4 SECONDS (    0.0 MIN)
 WALL CLOCK TIME:   STEP =      0.03 ,  TOTAL =        2.3 SECONDS (    0.0 MIN)
 CPU UTILIZATION:   STEP =     70.43%,  TOTAL =      63.75%

 ---- SURFACE MAPPING GEOMETRY ----
 COORD 1=  -2.70000  COORD 2=   0.00000
 HAS ENERGY VALUE         -0.9345728302
 H             0.0000000000          0.0000000000          0.0000000000
 H             0.0000000000          0.0000000000          2.3000000000
 ----------------------------------
 ...... END OF ONE-ELECTRON INTEGRALS ......

                         TIMING STATISTICS ON RANK 0:
 CPU        TIME:   STEP =      0.00 ,  TOTAL =        1.4 SECONDS (    0.0 MIN)
 WALL CLOCK TIME:   STEP =      0.00 ,  TOTAL =        2.3 SECONDS (    0.0 MIN)
 CPU UTILIZATION:   STEP =      0.00%,  TOTAL =      63.72%

 LOG10 OF CONDITION NUMBER OF OVERLAP MATRIX IS:  6.78648535E-02
 ...... END OF TWO-ELECTRON INTEGRALS .....

                         TIMING STATISTICS ON RANK 0:
 CPU        TIME:   STEP =      0.01 ,  TOTAL =        1.4 SECONDS (    0.0 MIN)
 WALL CLOCK TIME:   STEP =      0.01 ,  TOTAL =        2.3 SECONDS (    0.0 MIN)
 CPU UTILIZATION:   STEP =    137.29%,  TOTAL =      63.95%

 DIRECT SCF CALCULATION, SCHWRZ=T   FDIFF=F

                                                                                                           NONZERO    BLOCKS
 ITER EX   TOTAL ENERGY      E CHANGE  DENSITY CHANGE    DIIS ERROR      VIR. SHIFT       DAMPING        INTEGRALS   SKIPPED
          * * *   INITIATING DIIS PROCEDURE   * * *
   1  0    -0.934830967    -0.934830967   0.004289506   0.003347695     0.000000000     1.000000000              6         0
   2  1    -0.934840441    -0.000009474   0.001959313   0.001049553     0.000000000     1.000000000              6         0
   3  2    -0.934841475    -0.000001034   0.000001502   0.000000805     0.000000000     1.000000000              6         0
   4  3    -0.934841475     0.000000000   0.000000002   0.000000001     0.000000000     1.000000000              6         0

          -----------------
          DENSITY CONVERGED
          -----------------
     TIME TO FORM FOCK OPERATORS =       0.00 SECONDS (       0.00 SEC/ITER)
     FOCK TIME ON FIRST ITERATION=       0.00, LAST ITERATION=       0.00
     TIME TO SOLVE SCF EQUATIONS =       0.01 SECONDS (       0.00 SEC/ITER)

 FINAL ENERGY IS       -0.9348414752 AFTER   4 ITERATIONS

          --------------------
          SPIN SZ   =    0.000
          S-SQUARED =    0.977
          --------------------
 ...... END OF UHF CALCULATION ......

                         TIMING STATISTICS ON RANK 0:
 CPU        TIME:   STEP =      0.01 ,  TOTAL =        1.5 SECONDS (    0.0 MIN)
 WALL CLOCK TIME:   STEP =      0.03 ,  TOTAL =        2.3 SECONDS (    0.0 MIN)
 CPU UTILIZATION:   STEP =     33.91%,  TOTAL =      63.57%

 ---- SURFACE MAPPING GEOMETRY ----
 COORD 1=  -2.75000  COORD 2=   0.00000
 HAS ENERGY VALUE         -0.9348414752
 H             0.0000000000          0.0000000000          0.0000000000
 H             0.0000000000          0.0000000000          2.2500000000
 ----------------------------------
 ...... END OF ONE-ELECTRON INTEGRALS ......

                         TIMING STATISTICS ON RANK 0:
 CPU        TIME:   STEP =      0.00 ,  TOTAL =        1.5 SECONDS (    0.0 MIN)
 WALL CLOCK TIME:   STEP =      0.00 ,  TOTAL =        2.3 SECONDS (    0.0 MIN)
 CPU UTILIZATION:   STEP =      0.00%,  TOTAL =      63.53%

 LOG10 OF CONDITION NUMBER OF OVERLAP MATRIX IS:  7.40795935E-02
 ...... END OF TWO-ELECTRON INTEGRALS .....

                         TIMING STATISTICS ON RANK 0:
 CPU        TIME:   STEP =      0.00 ,  TOTAL =        1.5 SECONDS (    0.0 MIN)
 WALL CLOCK TIME:   STEP =      0.01 ,  TOTAL =        2.3 SECONDS (    0.0 MIN)
 CPU UTILIZATION:   STEP =      0.00%,  TOTAL =      63.33%

 DIRECT SCF CALCULATION, SCHWRZ=T   FDIFF=F

                                                                                                           NONZERO    BLOCKS
 ITER EX   TOTAL ENERGY      E CHANGE  DENSITY CHANGE    DIIS ERROR      VIR. SHIFT       DAMPING        INTEGRALS   SKIPPED
          * * *   INITIATING DIIS PROCEDURE   * * *
   1  0    -0.935149687    -0.935149687   0.004676254   0.003654779     0.000000000     1.000000000              6         0
   2  1    -0.935161047    -0.000011360   0.002223734   0.001177719     0.000000000     1.000000000              6         0
   3  2    -0.935162366    -0.000001319   0.000000000   0.000001104     0.000000000     1.000000000              6         0
          * * *    REDUCING  DIIS SUBSPACE    * * *
   4  3    -0.935162366     0.000000000   0.000002086   0.000001104     0.000000000     1.000000000              6         0

          -----------------
          DENSITY CONVERGED
          -----------------
     TIME TO FORM FOCK OPERATORS =       0.00 SECONDS (       0.00 SEC/ITER)
     FOCK TIME ON FIRST ITERATION=       0.00, LAST ITERATION=       0.00
     TIME TO SOLVE SCF EQUATIONS =       0.00 SECONDS (       0.00 SEC/ITER)

 FINAL ENERGY IS       -0.9351623660 AFTER   4 ITERATIONS

          --------------------
          SPIN SZ   =    0.000
          S-SQUARED =    0.973
          --------------------
 ...... END OF UHF CALCULATION ......

                         TIMING STATISTICS ON RANK 0:
 CPU        TIME:   STEP =      0.04 ,  TOTAL =        1.5 SECONDS (    0.0 MIN)
 WALL CLOCK TIME:   STEP =      0.05 ,  TOTAL =        2.4 SECONDS (    0.0 MIN)
 CPU UTILIZATION:   STEP =     79.85%,  TOTAL =      63.68%

 ---- SURFACE MAPPING GEOMETRY ----
 COORD 1=  -2.80000  COORD 2=   0.00000
 HAS ENERGY VALUE         -0.9351623660
 H             0.0000000000          0.0000000000          0.0000000000
 H             0.0000000000          0.0000000000          2.2000000000
 ----------------------------------
 ...... END OF ONE-ELECTRON INTEGRALS ......

                         TIMING STATISTICS ON RANK 0:
 CPU        TIME:   STEP =      0.00 ,  TOTAL =        1.5 SECONDS (    0.0 MIN)
 WALL CLOCK TIME:   STEP =      0.00 ,  TOTAL =        2.4 SECONDS (    0.0 MIN)
 CPU UTILIZATION:   STEP =      0.00%,  TOTAL =      63.62%

 LOG10 OF CONDITION NUMBER OF OVERLAP MATRIX IS:  8.07741998E-02
 ...... END OF TWO-ELECTRON INTEGRALS .....

                         TIMING STATISTICS ON RANK 0:
 CPU        TIME:   STEP =      0.01 ,  TOTAL =        1.5 SECONDS (    0.0 MIN)
 WALL CLOCK TIME:   STEP =      0.02 ,  TOTAL =        2.4 SECONDS (    0.0 MIN)
 CPU UTILIZATION:   STEP =     49.68%,  TOTAL =      63.50%

 DIRECT SCF CALCULATION, SCHWRZ=T   FDIFF=F

                                                                                                           NONZERO    BLOCKS
 ITER EX   TOTAL ENERGY      E CHANGE  DENSITY CHANGE    DIIS ERROR      VIR. SHIFT       DAMPING        INTEGRALS   SKIPPED
          * * *   INITIATING DIIS PROCEDURE   * * *
   1  0    -0.935530642    -0.935530642   0.005102262   0.003994594     0.000000000     1.000000000              6         0
   2  1    -0.935544301    -0.000013659   0.002531964   0.001324661     0.000000000     1.000000000              6         0
          * * *    REDUCING  DIIS SUBSPACE    * * *
   3  2    -0.935545992    -0.000001691   0.000002912   0.000001522     0.000000000     1.000000000              6         0
   4  3    -0.935545992     0.000000000   0.000000000   0.000000001     0.000000000     1.000000000              6         0

          -----------------
          DENSITY CONVERGED
          -----------------
     TIME TO FORM FOCK OPERATORS =       0.02 SECONDS (       0.01 SEC/ITER)
     FOCK TIME ON FIRST ITERATION=       0.01, LAST ITERATION=       0.01
     TIME TO SOLVE SCF EQUATIONS =       0.00 SECONDS (       0.00 SEC/ITER)

 FINAL ENERGY IS       -0.9355459916 AFTER   4 ITERATIONS

          --------------------
          SPIN SZ   =    0.000
          S-SQUARED =    0.968
          --------------------
 ...... END OF UHF CALCULATION ......

                         TIMING STATISTICS ON RANK 0:
 CPU        TIME:   STEP =      0.02 ,  TOTAL =        1.5 SECONDS (    0.0 MIN)
 WALL CLOCK TIME:   STEP =      0.04 ,  TOTAL =        2.4 SECONDS (    0.0 MIN)
 CPU UTILIZATION:   STEP =     52.25%,  TOTAL =      63.32%

 ---- SURFACE MAPPING GEOMETRY ----
 COORD 1=  -2.85000  COORD 2=   0.00000
 HAS ENERGY VALUE         -0.9355459916
 H             0.0000000000          0.0000000000          0.0000000000
 H             0.0000000000          0.0000000000          2.1500000000
 ----------------------------------
 ...... END OF ONE-ELECTRON INTEGRALS ......

                         TIMING STATISTICS ON RANK 0:
 CPU        TIME:   STEP =      0.00 ,  TOTAL =        1.5 SECONDS (    0.0 MIN)
 WALL CLOCK TIME:   STEP =      0.00 ,  TOTAL =        2.4 SECONDS (    0.0 MIN)
 CPU UTILIZATION:   STEP =      0.00%,  TOTAL =      63.29%

 LOG10 OF CONDITION NUMBER OF OVERLAP MATRIX IS:  8.79785562E-02
 ...... END OF TWO-ELECTRON INTEGRALS .....

                         TIMING STATISTICS ON RANK 0:
 CPU        TIME:   STEP =      0.01 ,  TOTAL =        1.5 SECONDS (    0.0 MIN)
 WALL CLOCK TIME:   STEP =      0.01 ,  TOTAL =        2.4 SECONDS (    0.0 MIN)
 CPU UTILIZATION:   STEP =    137.85%,  TOTAL =      63.51%

 DIRECT SCF CALCULATION, SCHWRZ=T   FDIFF=F

                                                                                                           NONZERO    BLOCKS
 ITER EX   TOTAL ENERGY      E CHANGE  DENSITY CHANGE    DIIS ERROR      VIR. SHIFT       DAMPING        INTEGRALS   SKIPPED
          * * *   INITIATING DIIS PROCEDURE   * * *
   1  0    -0.935986340    -0.935986340   0.005569706   0.004369555     0.000000000     1.000000000              6         0
   2  1    -0.936002795    -0.000016455   0.002891872   0.001493130     0.000000000     1.000000000              6         0
          * * *    REDUCING  DIIS SUBSPACE    * * *
   3  2    -0.936004976    -0.000002181   0.000004090   0.000002108     0.000000000     1.000000000              6         0
   4  3    -0.936004976     0.000000000   0.000000000   0.000000001     0.000000000     1.000000000              6         0

          -----------------
          DENSITY CONVERGED
          -----------------
     TIME TO FORM FOCK OPERATORS =       0.00 SECONDS (       0.00 SEC/ITER)
     FOCK TIME ON FIRST ITERATION=       0.00, LAST ITERATION=       0.00
     TIME TO SOLVE SCF EQUATIONS =       0.01 SECONDS (       0.00 SEC/ITER)

 FINAL ENERGY IS       -0.9360049756 AFTER   4 ITERATIONS

          --------------------
          SPIN SZ   =    0.000
          S-SQUARED =    0.962
          --------------------
 ...... END OF UHF CALCULATION ......

                         TIMING STATISTICS ON RANK 0:
 CPU        TIME:   STEP =      0.01 ,  TOTAL =        1.5 SECONDS (    0.0 MIN)
 WALL CLOCK TIME:   STEP =      0.03 ,  TOTAL =        2.5 SECONDS (    0.0 MIN)
 CPU UTILIZATION:   STEP =     31.44%,  TOTAL =      63.10%

 ---- SURFACE MAPPING GEOMETRY ----
 COORD 1=  -2.90000  COORD 2=   0.00000
 HAS ENERGY VALUE         -0.9360049756
 H             0.0000000000          0.0000000000          0.0000000000
 H             0.0000000000          0.0000000000          2.1000000000
 ----------------------------------
 ...... END OF ONE-ELECTRON INTEGRALS ......

                         TIMING STATISTICS ON RANK 0:
 CPU        TIME:   STEP =      0.00 ,  TOTAL =        1.5 SECONDS (    0.0 MIN)
 WALL CLOCK TIME:   STEP =      0.00 ,  TOTAL =        2.5 SECONDS (    0.0 MIN)
 CPU UTILIZATION:   STEP =      0.00%,  TOTAL =      63.07%

 LOG10 OF CONDITION NUMBER OF OVERLAP MATRIX IS:  9.57242894E-02
 ...... END OF TWO-ELECTRON INTEGRALS .....

                         TIMING STATISTICS ON RANK 0:
 CPU        TIME:   STEP =      0.01 ,  TOTAL =        1.6 SECONDS (    0.0 MIN)
 WALL CLOCK TIME:   STEP =      0.01 ,  TOTAL =        2.5 SECONDS (    0.0 MIN)
 CPU UTILIZATION:   STEP =    140.77%,  TOTAL =      63.29%

 DIRECT SCF CALCULATION, SCHWRZ=T   FDIFF=F

                                                                                                           NONZERO    BLOCKS
 ITER EX   TOTAL ENERGY      E CHANGE  DENSITY CHANGE    DIIS ERROR      VIR. SHIFT       DAMPING        INTEGRALS   SKIPPED
          * * *   INITIATING DIIS PROCEDURE   * * *
   1  0    -0.936531817    -0.936531817   0.006081320   0.004782749     0.000000000     1.000000000              6         0
   2  1    -0.936551675    -0.000019858   0.003313407   0.001686531     0.000000000     1.000000000              6         0
          * * *    REDUCING  DIIS SUBSPACE    * * *
   3  2    -0.936554503    -0.000002828   0.000005780   0.000002937     0.000000000     1.000000000              6         0
          * * *    REDUCING  DIIS SUBSPACE    * * *
   4  3    -0.936554503     0.000000000   0.000000004   0.000000002     0.000000000     1.000000000              6         0

          -----------------
          DENSITY CONVERGED
          -----------------
     TIME TO FORM FOCK OPERATORS =       0.01 SECONDS (       0.00 SEC/ITER)
     FOCK TIME ON FIRST ITERATION=       0.00, LAST ITERATION=       0.00
     TIME TO SOLVE SCF EQUATIONS =       0.00 SECONDS (       0.00 SEC/ITER)

 FINAL ENERGY IS       -0.9365545033 AFTER   4 ITERATIONS

          --------------------
          SPIN SZ   =    0.000
          S-SQUARED =    0.955
          --------------------
 ...... END OF UHF CALCULATION ......

                         TIMING STATISTICS ON RANK 0:
 CPU        TIME:   STEP =      0.01 ,  TOTAL =        1.6 SECONDS (    0.0 MIN)
 WALL CLOCK TIME:   STEP =      0.03 ,  TOTAL =        2.5 SECONDS (    0.0 MIN)
 CPU UTILIZATION:   STEP =     30.88%,  TOTAL =      62.87%

 ---- SURFACE MAPPING GEOMETRY ----
 COORD 1=  -2.95000  COORD 2=   0.00000
 HAS ENERGY VALUE         -0.9365545033
 H             0.0000000000          0.0000000000          0.0000000000
 H             0.0000000000          0.0000000000          2.0500000000
 ----------------------------------
 ...... END OF ONE-ELECTRON INTEGRALS ......

                         TIMING STATISTICS ON RANK 0:
 CPU        TIME:   STEP =      0.00 ,  TOTAL =        1.6 SECONDS (    0.0 MIN)
 WALL CLOCK TIME:   STEP =      0.00 ,  TOTAL =        2.5 SECONDS (    0.0 MIN)
 CPU UTILIZATION:   STEP =      0.00%,  TOTAL =      62.82%

 LOG10 OF CONDITION NUMBER OF OVERLAP MATRIX IS:  1.04044957E-01
 ...... END OF TWO-ELECTRON INTEGRALS .....

                         TIMING STATISTICS ON RANK 0:
 CPU        TIME:   STEP =      0.02 ,  TOTAL =        1.6 SECONDS (    0.0 MIN)
 WALL CLOCK TIME:   STEP =      0.01 ,  TOTAL =        2.5 SECONDS (    0.0 MIN)
 CPU UTILIZATION:   STEP =    169.29%,  TOTAL =      63.33%

 DIRECT SCF CALCULATION, SCHWRZ=T   FDIFF=F

                                                                                                           NONZERO    BLOCKS
 ITER EX   TOTAL ENERGY      E CHANGE  DENSITY CHANGE    DIIS ERROR      VIR. SHIFT       DAMPING        INTEGRALS   SKIPPED
          * * *   INITIATING DIIS PROCEDURE   * * *
   1  0    -0.937185149    -0.937185149   0.006639518   0.005237326     0.000000000     1.000000000              6         0
   2  1    -0.937209146    -0.000023997   0.003808706   0.001908817     0.000000000     1.000000000              6         0
   3  2    -0.937212835    -0.000003689   0.000008206   0.000004112     0.000000000     1.000000000              6         0
          * * *    REDUCING  DIIS SUBSPACE    * * *
          * * *    REDUCING  DIIS SUBSPACE    * * *
   4  3    -0.937212835     0.000000000   0.000000024   0.000000012     0.000000000     1.000000000              6         0

          -----------------
          DENSITY CONVERGED
          -----------------
     TIME TO FORM FOCK OPERATORS =       0.01 SECONDS (       0.00 SEC/ITER)
     FOCK TIME ON FIRST ITERATION=       0.00, LAST ITERATION=       0.00
     TIME TO SOLVE SCF EQUATIONS =       0.00 SECONDS (       0.00 SEC/ITER)

 FINAL ENERGY IS       -0.9372128347 AFTER   4 ITERATIONS

          --------------------
          SPIN SZ   =    0.000
          S-SQUARED =    0.946
          --------------------
 ...... END OF UHF CALCULATION ......

                         TIMING STATISTICS ON RANK 0:
 CPU        TIME:   STEP =      0.01 ,  TOTAL =        1.6 SECONDS (    0.0 MIN)
 WALL CLOCK TIME:   STEP =      0.04 ,  TOTAL =        2.6 SECONDS (    0.0 MIN)
 CPU UTILIZATION:   STEP =     24.61%,  TOTAL =      62.71%

 ---- SURFACE MAPPING GEOMETRY ----
 COORD 1=  -3.00000  COORD 2=   0.00000
 HAS ENERGY VALUE         -0.9372128347
 H             0.0000000000          0.0000000000          0.0000000000
 H             0.0000000000          0.0000000000          2.0000000000
 ----------------------------------
 ...... END OF ONE-ELECTRON INTEGRALS ......

                         TIMING STATISTICS ON RANK 0:
 CPU        TIME:   STEP =      0.00 ,  TOTAL =        1.6 SECONDS (    0.0 MIN)
 WALL CLOCK TIME:   STEP =      0.00 ,  TOTAL =        2.6 SECONDS (    0.0 MIN)
 CPU UTILIZATION:   STEP =      0.00%,  TOTAL =      62.68%

 LOG10 OF CONDITION NUMBER OF OVERLAP MATRIX IS:  1.12976260E-01
 ...... END OF TWO-ELECTRON INTEGRALS .....

                         TIMING STATISTICS ON RANK 0:
 CPU        TIME:   STEP =      0.01 ,  TOTAL =        1.6 SECONDS (    0.0 MIN)
 WALL CLOCK TIME:   STEP =      0.01 ,  TOTAL =        2.6 SECONDS (    0.0 MIN)
 CPU UTILIZATION:   STEP =    136.97%,  TOTAL =      62.89%

 DIRECT SCF CALCULATION, SCHWRZ=T   FDIFF=F

                                                                                                           NONZERO    BLOCKS
 ITER EX   TOTAL ENERGY      E CHANGE  DENSITY CHANGE    DIIS ERROR      VIR. SHIFT       DAMPING        INTEGRALS   SKIPPED
          * * *   INITIATING DIIS PROCEDURE   * * *
   1  0    -0.937968051    -0.937968051   0.007246223   0.005736466     0.000000000     1.000000000              6         0
   2  1    -0.937997079    -0.000029027   0.004392670   0.002164592     0.000000000     1.000000000              6         0
   3  2    -0.938001919    -0.000004840   0.000011754   0.000005791     0.000000000     1.000000000              6         0
          * * *    REDUCING  DIIS SUBSPACE    * * *
          * * *    REDUCING  DIIS SUBSPACE    * * *
   4  3    -0.938001919     0.000000000   0.000000044   0.000000021     0.000000000     1.000000000              6         0

          -----------------
          DENSITY CONVERGED
          -----------------
     TIME TO FORM FOCK OPERATORS =       0.00 SECONDS (       0.00 SEC/ITER)
     FOCK TIME ON FIRST ITERATION=       0.00, LAST ITERATION=       0.00
     TIME TO SOLVE SCF EQUATIONS =       0.02 SECONDS (       0.01 SEC/ITER)

 FINAL ENERGY IS       -0.9380019192 AFTER   4 ITERATIONS

          --------------------
          SPIN SZ   =    0.000
          S-SQUARED =    0.936
          --------------------
 ...... END OF UHF CALCULATION ......

                         TIMING STATISTICS ON RANK 0:
 CPU        TIME:   STEP =      0.02 ,  TOTAL =        1.6 SECONDS (    0.0 MIN)
 WALL CLOCK TIME:   STEP =      0.03 ,  TOTAL =        2.6 SECONDS (    0.0 MIN)
 CPU UTILIZATION:   STEP =     68.44%,  TOTAL =      62.96%

 ---- SURFACE MAPPING GEOMETRY ----
 COORD 1=  -3.05000  COORD 2=   0.00000
 HAS ENERGY VALUE         -0.9380019192
 H             0.0000000000          0.0000000000          0.0000000000
 H             0.0000000000          0.0000000000          1.9500000000
 ----------------------------------
 ...... END OF ONE-ELECTRON INTEGRALS ......

                         TIMING STATISTICS ON RANK 0:
 CPU        TIME:   STEP =      0.00 ,  TOTAL =        1.6 SECONDS (    0.0 MIN)
 WALL CLOCK TIME:   STEP =      0.00 ,  TOTAL =        2.6 SECONDS (    0.0 MIN)
 CPU UTILIZATION:   STEP =      0.00%,  TOTAL =      62.93%

 LOG10 OF CONDITION NUMBER OF OVERLAP MATRIX IS:  1.22556287E-01
 ...... END OF TWO-ELECTRON INTEGRALS .....

                         TIMING STATISTICS ON RANK 0:
 CPU        TIME:   STEP =      0.00 ,  TOTAL =        1.6 SECONDS (    0.0 MIN)
 WALL CLOCK TIME:   STEP =      0.01 ,  TOTAL =        2.6 SECONDS (    0.0 MIN)
 CPU UTILIZATION:   STEP =      0.00%,  TOTAL =      62.75%

 DIRECT SCF CALCULATION, SCHWRZ=T   FDIFF=F

                                                                                                           NONZERO    BLOCKS
 ITER EX   TOTAL ENERGY      E CHANGE  DENSITY CHANGE    DIIS ERROR      VIR. SHIFT       DAMPING        INTEGRALS   SKIPPED
          * * *   INITIATING DIIS PROCEDURE   * * *
   1  0    -0.938906612    -0.938906612   0.007902613   0.006283322     0.000000000     1.000000000              6         0
   2  1    -0.938941746    -0.000035135   0.005083710   0.002459213     0.000000000     1.000000000              6         0
   3  2    -0.938948136    -0.000006389   0.000016961   0.000008203     0.000000000     1.000000000              6         0
          * * *    REDUCING  DIIS SUBSPACE    * * *
          * * *    REDUCING  DIIS SUBSPACE    * * *
   4  3    -0.938948136     0.000000000   0.000000079   0.000000038     0.000000000     1.000000000              6         0

          -----------------
          DENSITY CONVERGED
          -----------------
     TIME TO FORM FOCK OPERATORS =       0.01 SECONDS (       0.00 SEC/ITER)
     FOCK TIME ON FIRST ITERATION=       0.00, LAST ITERATION=       0.01
     TIME TO SOLVE SCF EQUATIONS =       0.01 SECONDS (       0.00 SEC/ITER)

 FINAL ENERGY IS       -0.9389481356 AFTER   4 ITERATIONS

          --------------------
          SPIN SZ   =    0.000
          S-SQUARED =    0.923
          --------------------
 ...... END OF UHF CALCULATION ......

                         TIMING STATISTICS ON RANK 0:
 CPU        TIME:   STEP =      0.02 ,  TOTAL =        1.6 SECONDS (    0.0 MIN)
 WALL CLOCK TIME:   STEP =      0.03 ,  TOTAL =        2.6 SECONDS (    0.0 MIN)
 CPU UTILIZATION:   STEP =     64.85%,  TOTAL =      62.78%

 ---- SURFACE MAPPING GEOMETRY ----
 COORD 1=  -3.10000  COORD 2=   0.00000
 HAS ENERGY VALUE         -0.9389481356
 H             0.0000000000          0.0000000000          0.0000000000
 H             0.0000000000          0.0000000000          1.9000000000
 ----------------------------------
 ...... END OF ONE-ELECTRON INTEGRALS ......

                         TIMING STATISTICS ON RANK 0:
 CPU        TIME:   STEP =      0.00 ,  TOTAL =        1.6 SECONDS (    0.0 MIN)
 WALL CLOCK TIME:   STEP =      0.00 ,  TOTAL =        2.6 SECONDS (    0.0 MIN)
 CPU UTILIZATION:   STEP =      0.00%,  TOTAL =      62.75%

 LOG10 OF CONDITION NUMBER OF OVERLAP MATRIX IS:  1.32825782E-01
 ...... END OF TWO-ELECTRON INTEGRALS .....

                         TIMING STATISTICS ON RANK 0:
 CPU        TIME:   STEP =      0.01 ,  TOTAL =        1.7 SECONDS (    0.0 MIN)
 WALL CLOCK TIME:   STEP =      0.01 ,  TOTAL =        2.6 SECONDS (    0.0 MIN)
 CPU UTILIZATION:   STEP =    134.81%,  TOTAL =      62.95%

 DIRECT SCF CALCULATION, SCHWRZ=T   FDIFF=F

                                                                                                           NONZERO    BLOCKS
 ITER EX   TOTAL ENERGY      E CHANGE  DENSITY CHANGE    DIIS ERROR      VIR. SHIFT       DAMPING        INTEGRALS   SKIPPED
          * * *   INITIATING DIIS PROCEDURE   * * *
   1  0    -0.940032159    -0.940032159   0.008608784   0.006880931     0.000000000     1.000000000              6         0
   2  1    -0.940074696    -0.000042537   0.005904718   0.002798904     0.000000000     1.000000000              6         0
          * * *    REDUCING  DIIS SUBSPACE    * * *
   3  2    -0.940083184    -0.000008488   0.000024777   0.000011694     0.000000000     1.000000000              6         0
   4  3    -0.940083184     0.000000000   0.000000000   0.000000020     0.000000000     1.000000000              6         0
          * * *    REDUCING  DIIS SUBSPACE    * * *
          * * *    REDUCING  DIIS SUBSPACE    * * *
          * * *    REDUCING  DIIS SUBSPACE    * * *
   5  4    -0.940083184     0.000000000   0.000000025   0.000000020     0.000000000     1.000000000              6         0

          -----------------
          DENSITY CONVERGED
          -----------------
     TIME TO FORM FOCK OPERATORS =       0.00 SECONDS (       0.00 SEC/ITER)
     FOCK TIME ON FIRST ITERATION=       0.00, LAST ITERATION=       0.00
     TIME TO SOLVE SCF EQUATIONS =       0.01 SECONDS (       0.00 SEC/ITER)

 FINAL ENERGY IS       -0.9400831837 AFTER   5 ITERATIONS

          --------------------
          SPIN SZ   =    0.000
          S-SQUARED =    0.909
          --------------------
 ...... END OF UHF CALCULATION ......

                         TIMING STATISTICS ON RANK 0:
 CPU        TIME:   STEP =      0.01 ,  TOTAL =        1.7 SECONDS (    0.0 MIN)
 WALL CLOCK TIME:   STEP =      0.04 ,  TOTAL =        2.7 SECONDS (    0.0 MIN)
 CPU UTILIZATION:   STEP =     28.23%,  TOTAL =      62.49%

 ---- SURFACE MAPPING GEOMETRY ----
 COORD 1=  -3.15000  COORD 2=   0.00000
 HAS ENERGY VALUE         -0.9400831837
 H             0.0000000000          0.0000000000          0.0000000000
 H             0.0000000000          0.0000000000          1.8500000000
 ----------------------------------
 ...... END OF ONE-ELECTRON INTEGRALS ......

                         TIMING STATISTICS ON RANK 0:
 CPU        TIME:   STEP =      0.00 ,  TOTAL =        1.7 SECONDS (    0.0 MIN)
 WALL CLOCK TIME:   STEP =      0.00 ,  TOTAL =        2.7 SECONDS (    0.0 MIN)
 CPU UTILIZATION:   STEP =      0.00%,  TOTAL =      62.46%

 LOG10 OF CONDITION NUMBER OF OVERLAP MATRIX IS:  1.43828441E-01
 ...... END OF TWO-ELECTRON INTEGRALS .....

                         TIMING STATISTICS ON RANK 0:
 CPU        TIME:   STEP =      0.01 ,  TOTAL =        1.7 SECONDS (    0.0 MIN)
 WALL CLOCK TIME:   STEP =      0.01 ,  TOTAL =        2.7 SECONDS (    0.0 MIN)
 CPU UTILIZATION:   STEP =    142.39%,  TOTAL =      62.67%

 DIRECT SCF CALCULATION, SCHWRZ=T   FDIFF=F

                                                                                                           NONZERO    BLOCKS
 ITER EX   TOTAL ENERGY      E CHANGE  DENSITY CHANGE    DIIS ERROR      VIR. SHIFT       DAMPING        INTEGRALS   SKIPPED
          * * *   INITIATING DIIS PROCEDURE   * * *
   1  0    -0.941382315    -0.941382315   0.009363255   0.007532071     0.000000000     1.000000000              6         0
   2  1    -0.941433806    -0.000051490   0.006884309   0.003190864     0.000000000     1.000000000              6         0
          * * *    REDUCING  DIIS SUBSPACE    * * *
   3  2    -0.941445157    -0.000011351   0.000036406   0.000016783     0.000000000     1.000000000              6         0
          * * *    REDUCING  DIIS SUBSPACE    * * *
   4  3    -0.941445157     0.000000000   0.000000084   0.000000038     0.000000000     1.000000000              6         0
   5  4    -0.941445157     0.000000000   0.000000000   0.000000000     0.000000000     1.000000000              6         0

          -----------------
          DENSITY CONVERGED
          -----------------
     TIME TO FORM FOCK OPERATORS =       0.01 SECONDS (       0.00 SEC/ITER)
     FOCK TIME ON FIRST ITERATION=       0.00, LAST ITERATION=       0.00
     TIME TO SOLVE SCF EQUATIONS =       0.01 SECONDS (       0.00 SEC/ITER)

 FINAL ENERGY IS       -0.9414451568 AFTER   5 ITERATIONS

          --------------------
          SPIN SZ   =    0.000
          S-SQUARED =    0.892
          --------------------
 ...... END OF UHF CALCULATION ......

                         TIMING STATISTICS ON RANK 0:
 CPU        TIME:   STEP =      0.02 ,  TOTAL =        1.7 SECONDS (    0.0 MIN)
 WALL CLOCK TIME:   STEP =      0.04 ,  TOTAL =        2.7 SECONDS (    0.0 MIN)
 CPU UTILIZATION:   STEP =     56.19%,  TOTAL =      62.59%

 ---- SURFACE MAPPING GEOMETRY ----
 COORD 1=  -3.20000  COORD 2=   0.00000
 HAS ENERGY VALUE         -0.9414451568
 H             0.0000000000          0.0000000000          0.0000000000
 H             0.0000000000          0.0000000000          1.8000000000
 ----------------------------------
 ...... END OF ONE-ELECTRON INTEGRALS ......

                         TIMING STATISTICS ON RANK 0:
 CPU        TIME:   STEP =      0.00 ,  TOTAL =        1.7 SECONDS (    0.0 MIN)
 WALL CLOCK TIME:   STEP =      0.00 ,  TOTAL =        2.7 SECONDS (    0.0 MIN)
 CPU UTILIZATION:   STEP =      0.00%,  TOTAL =      62.56%

 LOG10 OF CONDITION NUMBER OF OVERLAP MATRIX IS:  1.55611235E-01
 ...... END OF TWO-ELECTRON INTEGRALS .....

                         TIMING STATISTICS ON RANK 0:
 CPU        TIME:   STEP =      0.00 ,  TOTAL =        1.7 SECONDS (    0.0 MIN)
 WALL CLOCK TIME:   STEP =      0.01 ,  TOTAL =        2.7 SECONDS (    0.0 MIN)
 CPU UTILIZATION:   STEP =      0.00%,  TOTAL =      62.40%

 DIRECT SCF CALCULATION, SCHWRZ=T   FDIFF=F

                                                                                                           NONZERO    BLOCKS
 ITER EX   TOTAL ENERGY      E CHANGE  DENSITY CHANGE    DIIS ERROR      VIR. SHIFT       DAMPING        INTEGRALS   SKIPPED
          * * *   INITIATING DIIS PROCEDURE   * * *
   1  0    -0.943002259    -0.943002259   0.010162186   0.008238960     0.000000000     1.000000000              6         0
   2  1    -0.943064546    -0.000062288   0.008058384   0.003643326     0.000000000     1.000000000              6         0
   3  2    -0.943079833    -0.000015287   0.000053676   0.000024264     0.000000000     1.000000000              6         0
          * * *    REDUCING  DIIS SUBSPACE    * * *
   4  3    -0.943079834    -0.000000001   0.000000523   0.000000235     0.000000000     1.000000000              6         0
   5  4    -0.943079834     0.000000000   0.000000000   0.000000001     0.000000000     1.000000000              6         0

          -----------------
          DENSITY CONVERGED
          -----------------
     TIME TO FORM FOCK OPERATORS =       0.00 SECONDS (       0.00 SEC/ITER)
     FOCK TIME ON FIRST ITERATION=       0.00, LAST ITERATION=       0.00
     TIME TO SOLVE SCF EQUATIONS =       0.00 SECONDS (       0.00 SEC/ITER)

 FINAL ENERGY IS       -0.9430798339 AFTER   5 ITERATIONS

          --------------------
          SPIN SZ   =    0.000
          S-SQUARED =    0.871
          --------------------
 ...... END OF UHF CALCULATION ......

                         TIMING STATISTICS ON RANK 0:
 CPU        TIME:   STEP =      0.02 ,  TOTAL =        1.7 SECONDS (    0.0 MIN)
 WALL CLOCK TIME:   STEP =      0.04 ,  TOTAL =        2.8 SECONDS (    0.0 MIN)
 CPU UTILIZATION:   STEP =     55.60%,  TOTAL =      62.31%

 ---- SURFACE MAPPING GEOMETRY ----
 COORD 1=  -3.25000  COORD 2=   0.00000
 HAS ENERGY VALUE         -0.9430798339
 H             0.0000000000          0.0000000000          0.0000000000
 H             0.0000000000          0.0000000000          1.7500000000
 ----------------------------------
 ...... END OF ONE-ELECTRON INTEGRALS ......

                         TIMING STATISTICS ON RANK 0:
 CPU        TIME:   STEP =      0.00 ,  TOTAL =        1.7 SECONDS (    0.0 MIN)
 WALL CLOCK TIME:   STEP =      0.00 ,  TOTAL =        2.8 SECONDS (    0.0 MIN)
 CPU UTILIZATION:   STEP =      0.00%,  TOTAL =      62.29%

 LOG10 OF CONDITION NUMBER OF OVERLAP MATRIX IS:  1.68224769E-01
 ...... END OF TWO-ELECTRON INTEGRALS .....

                         TIMING STATISTICS ON RANK 0:
 CPU        TIME:   STEP =      0.01 ,  TOTAL =        1.7 SECONDS (    0.0 MIN)
 WALL CLOCK TIME:   STEP =      0.01 ,  TOTAL =        2.8 SECONDS (    0.0 MIN)
 CPU UTILIZATION:   STEP =    136.93%,  TOTAL =      62.48%

 DIRECT SCF CALCULATION, SCHWRZ=T   FDIFF=F

                                                                                                           NONZERO    BLOCKS
 ITER EX   TOTAL ENERGY      E CHANGE  DENSITY CHANGE    DIIS ERROR      VIR. SHIFT       DAMPING        INTEGRALS   SKIPPED
          * * *   INITIATING DIIS PROCEDURE   * * *
   1  0    -0.944946227    -0.944946227   0.010998428   0.009002930     0.000000000     1.000000000              6         0
   2  1    -0.945021486    -0.000075258   0.009472192   0.004165581     0.000000000     1.000000000              6         0
   3  2    -0.945042229    -0.000020743   0.000080424   0.000035365     0.000000000     1.000000000              6         0
   4  3    -0.945042231    -0.000000002   0.000001008   0.000000443     0.000000000     1.000000000              6         0
          * * *    REDUCING  DIIS SUBSPACE    * * *
          * * *    REDUCING  DIIS SUBSPACE    * * *
   5  4    -0.945042231     0.000000000   0.000000013   0.000000006     0.000000000     1.000000000              6         0

          -----------------
          DENSITY CONVERGED
          -----------------
     TIME TO FORM FOCK OPERATORS =       0.01 SECONDS (       0.00 SEC/ITER)
     FOCK TIME ON FIRST ITERATION=       0.00, LAST ITERATION=       0.01
     TIME TO SOLVE SCF EQUATIONS =       0.00 SECONDS (       0.00 SEC/ITER)

 FINAL ENERGY IS       -0.9450422306 AFTER   5 ITERATIONS

          --------------------
          SPIN SZ   =    0.000
          S-SQUARED =    0.847
          --------------------
 ...... END OF UHF CALCULATION ......

                         TIMING STATISTICS ON RANK 0:
 CPU        TIME:   STEP =      0.02 ,  TOTAL =        1.8 SECONDS (    0.0 MIN)
 WALL CLOCK TIME:   STEP =      0.04 ,  TOTAL =        2.8 SECONDS (    0.0 MIN)
 CPU UTILIZATION:   STEP =     56.05%,  TOTAL =      62.40%

 ---- SURFACE MAPPING GEOMETRY ----
 COORD 1=  -3.30000  COORD 2=   0.00000
 HAS ENERGY VALUE         -0.9450422306
 H             0.0000000000          0.0000000000          0.0000000000
 H             0.0000000000          0.0000000000          1.7000000000
 ----------------------------------
 ...... END OF ONE-ELECTRON INTEGRALS ......

                         TIMING STATISTICS ON RANK 0:
 CPU        TIME:   STEP =      0.00 ,  TOTAL =        1.8 SECONDS (    0.0 MIN)
 WALL CLOCK TIME:   STEP =      0.00 ,  TOTAL =        2.8 SECONDS (    0.0 MIN)
 CPU UTILIZATION:   STEP =      0.00%,  TOTAL =      62.37%

 LOG10 OF CONDITION NUMBER OF OVERLAP MATRIX IS:  1.81723660E-01
 ...... END OF TWO-ELECTRON INTEGRALS .....

                         TIMING STATISTICS ON RANK 0:
 CPU        TIME:   STEP =      0.00 ,  TOTAL =        1.8 SECONDS (    0.0 MIN)
 WALL CLOCK TIME:   STEP =      0.01 ,  TOTAL =        2.8 SECONDS (    0.0 MIN)
 CPU UTILIZATION:   STEP =      0.00%,  TOTAL =      62.21%

 DIRECT SCF CALCULATION, SCHWRZ=T   FDIFF=F

                                                                                                           NONZERO    BLOCKS
 ITER EX   TOTAL ENERGY      E CHANGE  DENSITY CHANGE    DIIS ERROR      VIR. SHIFT       DAMPING        INTEGRALS   SKIPPED
          * * *   INITIATING DIIS PROCEDURE   * * *
   1  0    -0.947279323    -0.947279323   0.011859883   0.009823677     0.000000000     1.000000000              6         0
   2  1    -0.947370077    -0.000090754   0.011182718   0.004767782     0.000000000     1.000000000              6         0
          * * *    REDUCING  DIIS SUBSPACE    * * *
   3  2    -0.947398451    -0.000028374   0.000123315   0.000052002     0.000000000     1.000000000              6         0
          * * *    REDUCING  DIIS SUBSPACE    * * *
   4  3    -0.947398454    -0.000000003   0.000000686   0.000000287     0.000000000     1.000000000              6         0
          * * *    REDUCING  DIIS SUBSPACE    * * *
   5  4    -0.947398454     0.000000000   0.000000000   0.000000000     0.000000000     1.000000000              6         0

          -----------------
          DENSITY CONVERGED
          -----------------
     TIME TO FORM FOCK OPERATORS =       0.01 SECONDS (       0.00 SEC/ITER)
     FOCK TIME ON FIRST ITERATION=       0.01, LAST ITERATION=       0.00
     TIME TO SOLVE SCF EQUATIONS =       0.00 SECONDS (       0.00 SEC/ITER)

 FINAL ENERGY IS       -0.9473984544 AFTER   5 ITERATIONS

          --------------------
          SPIN SZ   =    0.000
          S-SQUARED =    0.818
          --------------------
 ...... END OF UHF CALCULATION ......

                         TIMING STATISTICS ON RANK 0:
 CPU        TIME:   STEP =      0.01 ,  TOTAL =        1.8 SECONDS (    0.0 MIN)
 WALL CLOCK TIME:   STEP =      0.04 ,  TOTAL =        2.9 SECONDS (    0.0 MIN)
 CPU UTILIZATION:   STEP =     26.83%,  TOTAL =      61.75%

 ---- SURFACE MAPPING GEOMETRY ----
 COORD 1=  -3.35000  COORD 2=   0.00000
 HAS ENERGY VALUE         -0.9473984544
 H             0.0000000000          0.0000000000          0.0000000000
 H             0.0000000000          0.0000000000          1.6500000000
 ----------------------------------
 ...... END OF ONE-ELECTRON INTEGRALS ......

                         TIMING STATISTICS ON RANK 0:
 CPU        TIME:   STEP =      0.00 ,  TOTAL =        1.8 SECONDS (    0.0 MIN)
 WALL CLOCK TIME:   STEP =      0.00 ,  TOTAL =        2.9 SECONDS (    0.0 MIN)
 CPU UTILIZATION:   STEP =      0.00%,  TOTAL =      61.72%

 LOG10 OF CONDITION NUMBER OF OVERLAP MATRIX IS:  1.96166954E-01
 ...... END OF TWO-ELECTRON INTEGRALS .....

                         TIMING STATISTICS ON RANK 0:
 CPU        TIME:   STEP =      0.01 ,  TOTAL =        1.8 SECONDS (    0.0 MIN)
 WALL CLOCK TIME:   STEP =      0.01 ,  TOTAL =        2.9 SECONDS (    0.0 MIN)
 CPU UTILIZATION:   STEP =    136.97%,  TOTAL =      61.91%

 DIRECT SCF CALCULATION, SCHWRZ=T   FDIFF=F

                                                                                                           NONZERO    BLOCKS
 ITER EX   TOTAL ENERGY      E CHANGE  DENSITY CHANGE    DIIS ERROR      VIR. SHIFT       DAMPING        INTEGRALS   SKIPPED
          * * *   INITIATING DIIS PROCEDURE   * * *
   1  0    -0.950079641    -0.950079641   0.012727375   0.010698264     0.000000000     1.000000000              6         0
   2  1    -0.950188762    -0.000109120   0.013261601   0.005460501     0.000000000     1.000000000              6         0
   3  2    -0.950227906    -0.000039144   0.000187488   0.000077215     0.000000000     1.000000000              6         0
          * * *    REDUCING  DIIS SUBSPACE    * * *
   4  3    -0.950227913    -0.000000008   0.000004115   0.000001671     0.000000000     1.000000000              6         0
   5  4    -0.950227914     0.000000000   0.000000000   0.000000013     0.000000000     1.000000000              6         0

          -----------------
          DENSITY CONVERGED
          -----------------
     TIME TO FORM FOCK OPERATORS =       0.00 SECONDS (       0.00 SEC/ITER)
     FOCK TIME ON FIRST ITERATION=       0.00, LAST ITERATION=       0.00
     TIME TO SOLVE SCF EQUATIONS =       0.02 SECONDS (       0.00 SEC/ITER)

 FINAL ENERGY IS       -0.9502279135 AFTER   5 ITERATIONS

          --------------------
          SPIN SZ   =    0.000
          S-SQUARED =    0.784
          --------------------
 ...... END OF UHF CALCULATION ......

                         TIMING STATISTICS ON RANK 0:
 CPU        TIME:   STEP =      0.02 ,  TOTAL =        1.8 SECONDS (    0.0 MIN)
 WALL CLOCK TIME:   STEP =      0.04 ,  TOTAL =        2.9 SECONDS (    0.0 MIN)
 CPU UTILIZATION:   STEP =     57.05%,  TOTAL =      61.85%

 ---- SURFACE MAPPING GEOMETRY ----
 COORD 1=  -3.40000  COORD 2=   0.00000
 HAS ENERGY VALUE         -0.9502279135
 H             0.0000000000          0.0000000000          0.0000000000
 H             0.0000000000          0.0000000000          1.6000000000
 ----------------------------------
 ...... END OF ONE-ELECTRON INTEGRALS ......

                         TIMING STATISTICS ON RANK 0:
 CPU        TIME:   STEP =      0.00 ,  TOTAL =        1.8 SECONDS (    0.0 MIN)
 WALL CLOCK TIME:   STEP =      0.00 ,  TOTAL =        2.9 SECONDS (    0.0 MIN)
 CPU UTILIZATION:   STEP =      0.00%,  TOTAL =      61.83%

 LOG10 OF CONDITION NUMBER OF OVERLAP MATRIX IS:  2.11618566E-01
 ...... END OF TWO-ELECTRON INTEGRALS .....

                         TIMING STATISTICS ON RANK 0:
 CPU        TIME:   STEP =      0.00 ,  TOTAL =        1.8 SECONDS (    0.0 MIN)
 WALL CLOCK TIME:   STEP =      0.01 ,  TOTAL =        2.9 SECONDS (    0.0 MIN)
 CPU UTILIZATION:   STEP =      0.00%,  TOTAL =      61.68%

 DIRECT SCF CALCULATION, SCHWRZ=T   FDIFF=F

                                                                                                           NONZERO    BLOCKS
 ITER EX   TOTAL ENERGY      E CHANGE  DENSITY CHANGE    DIIS ERROR      VIR. SHIFT       DAMPING        INTEGRALS   SKIPPED
          * * *   INITIATING DIIS PROCEDURE   * * *
   1  0    -0.953440777    -0.953440777   0.013571523   0.011619478     0.000000000     1.000000000              6         0
   2  1    -0.953571417    -0.000130639   0.015798178   0.006253716     0.000000000     1.000000000              6         0
   3  2    -0.953625908    -0.000054492   0.000292562   0.000115880     0.000000000     1.000000000              6         0
   4  3    -0.953625927    -0.000000019   0.000008473   0.000003356     0.000000000     1.000000000              6         0
   5  4    -0.953625927     0.000000000   0.000309503   0.000000098     0.000000000     1.000000000              6         0
   6  5    -0.953625907     0.000000020   0.000154853   0.000119138     0.000000000     1.000000000              6         0
   7  6    -0.953625922    -0.000000015   0.000150646   0.000059573     0.000000000     1.000000000              6         0
          * * *    REDUCING  DIIS SUBSPACE    * * *
          * * *    REDUCING  DIIS SUBSPACE    * * *
          * * *    REDUCING  DIIS SUBSPACE    * * *
   8  7    -0.953625927    -0.000000005   0.000004258   0.000001638     0.000000000     1.000000000              6         0
   9  8    -0.953625927     0.000000000   0.000000002   0.000000000     0.000000000     1.000000000              6         0

          -----------------
          DENSITY CONVERGED
          -----------------
     TIME TO FORM FOCK OPERATORS =       0.00 SECONDS (       0.00 SEC/ITER)
     FOCK TIME ON FIRST ITERATION=       0.00, LAST ITERATION=       0.00
     TIME TO SOLVE SCF EQUATIONS =       0.03 SECONDS (       0.00 SEC/ITER)

 FINAL ENERGY IS       -0.9536259274 AFTER   9 ITERATIONS

          --------------------
          SPIN SZ   =    0.000
          S-SQUARED =    0.743
          --------------------
 ...... END OF UHF CALCULATION ......

                         TIMING STATISTICS ON RANK 0:
 CPU        TIME:   STEP =      0.03 ,  TOTAL =        1.8 SECONDS (    0.0 MIN)
 WALL CLOCK TIME:   STEP =      0.06 ,  TOTAL =        3.0 SECONDS (    0.0 MIN)
 CPU UTILIZATION:   STEP =     48.19%,  TOTAL =      61.39%

 ---- SURFACE MAPPING GEOMETRY ----
 COORD 1=  -3.45000  COORD 2=   0.00000
 HAS ENERGY VALUE         -0.9536259274
 H             0.0000000000          0.0000000000          0.0000000000
 H             0.0000000000          0.0000000000          1.5500000000
 ----------------------------------
 ...... END OF ONE-ELECTRON INTEGRALS ......

                         TIMING STATISTICS ON RANK 0:
 CPU        TIME:   STEP =      0.00 ,  TOTAL =        1.8 SECONDS (    0.0 MIN)
 WALL CLOCK TIME:   STEP =      0.00 ,  TOTAL =        3.0 SECONDS (    0.0 MIN)
 CPU UTILIZATION:   STEP =      0.00%,  TOTAL =      61.37%

 LOG10 OF CONDITION NUMBER OF OVERLAP MATRIX IS:  2.28147762E-01
 ...... END OF TWO-ELECTRON INTEGRALS .....

                         TIMING STATISTICS ON RANK 0:
 CPU        TIME:   STEP =      0.01 ,  TOTAL =        1.8 SECONDS (    0.0 MIN)
 WALL CLOCK TIME:   STEP =      0.01 ,  TOTAL =        3.0 SECONDS (    0.0 MIN)
 CPU UTILIZATION:   STEP =    135.04%,  TOTAL =      61.55%

 DIRECT SCF CALCULATION, SCHWRZ=T   FDIFF=F

                                                                                                           NONZERO    BLOCKS
 ITER EX   TOTAL ENERGY      E CHANGE  DENSITY CHANGE    DIIS ERROR      VIR. SHIFT       DAMPING        INTEGRALS   SKIPPED
          * * *   INITIATING DIIS PROCEDURE   * * *
   1  0    -0.957474751    -0.957474751   0.014348234   0.012573178     0.000000000     1.000000000              6         0
   2  1    -0.957630167    -0.000155416   0.018901786   0.007154800     0.000000000     1.000000000              6         0
   3  2    -0.957706747    -0.000076580   0.000464174   0.000175933     0.000000000     1.000000000              6         0
          * * *    REDUCING  DIIS SUBSPACE    * * *
          * * *    REDUCING  DIIS SUBSPACE    * * *
   4  3    -0.957706795    -0.000000048   0.000019015   0.000006924     0.000000000     1.000000000              6         0
          * * *    REDUCING  DIIS SUBSPACE    * * *
   5  4    -0.957706795     0.000000000   0.000000007   0.000000003     0.000000000     1.000000000              6         0

          -----------------
          DENSITY CONVERGED
          -----------------
     TIME TO FORM FOCK OPERATORS =       0.01 SECONDS (       0.00 SEC/ITER)
     FOCK TIME ON FIRST ITERATION=       0.00, LAST ITERATION=       0.00
     TIME TO SOLVE SCF EQUATIONS =       0.01 SECONDS (       0.00 SEC/ITER)

 FINAL ENERGY IS       -0.9577067948 AFTER   5 ITERATIONS

          --------------------
          SPIN SZ   =    0.000
          S-SQUARED =    0.695
          --------------------
 ...... END OF UHF CALCULATION ......

                         TIMING STATISTICS ON RANK 0:
 CPU        TIME:   STEP =      0.03 ,  TOTAL =        1.9 SECONDS (    0.0 MIN)
 WALL CLOCK TIME:   STEP =      0.03 ,  TOTAL =        3.0 SECONDS (    0.1 MIN)
 CPU UTILIZATION:   STEP =     86.01%,  TOTAL =      61.84%

 ---- SURFACE MAPPING GEOMETRY ----
 COORD 1=  -3.50000  COORD 2=   0.00000
 HAS ENERGY VALUE         -0.9577067948
 H             0.0000000000          0.0000000000          0.0000000000
 H             0.0000000000          0.0000000000          1.5000000000
 ----------------------------------
 ...... END OF ONE-ELECTRON INTEGRALS ......

                         TIMING STATISTICS ON RANK 0:
 CPU        TIME:   STEP =      0.00 ,  TOTAL =        1.9 SECONDS (    0.0 MIN)
 WALL CLOCK TIME:   STEP =      0.00 ,  TOTAL =        3.0 SECONDS (    0.1 MIN)
 CPU UTILIZATION:   STEP =      0.00%,  TOTAL =      61.81%

 LOG10 OF CONDITION NUMBER OF OVERLAP MATRIX IS:  2.45829677E-01
 ...... END OF TWO-ELECTRON INTEGRALS .....

                         TIMING STATISTICS ON RANK 0:
 CPU        TIME:   STEP =      0.00 ,  TOTAL =        1.9 SECONDS (    0.0 MIN)
 WALL CLOCK TIME:   STEP =      0.01 ,  TOTAL =        3.0 SECONDS (    0.1 MIN)
 CPU UTILIZATION:   STEP =      0.00%,  TOTAL =      61.65%

 DIRECT SCF CALCULATION, SCHWRZ=T   FDIFF=F

                                                                                                           NONZERO    BLOCKS
 ITER EX   TOTAL ENERGY      E CHANGE  DENSITY CHANGE    DIIS ERROR      VIR. SHIFT       DAMPING        INTEGRALS   SKIPPED
          * * *   INITIATING DIIS PROCEDURE   * * *
   1  0    -0.962315385    -0.962315385   0.014992583   0.013534271     0.000000000     1.000000000              6         0
   2  1    -0.962498567    -0.000183182   0.022701352   0.008164853     0.000000000     1.000000000              6         0
   3  2    -0.962607255    -0.000108688   0.000749975   0.000270453     0.000000000     1.000000000              6         0
   4  3    -0.962607379    -0.000000124   0.000020418   0.000014725     0.000000000     1.000000000              6         0
   5  4    -0.962607379     0.000000000   0.000375635   0.000007769     0.000000000     1.000000000              6         0
          * * *    REDUCING  DIIS SUBSPACE    * * *
          * * *    REDUCING  DIIS SUBSPACE    * * *
          * * *    REDUCING  DIIS SUBSPACE    * * *
   6  5    -0.962607348     0.000000031   0.000398425   0.000135807     0.000000000     1.000000000              6         0
   7  6    -0.962607379    -0.000000031   0.000000006   0.000000003     0.000000000     1.000000000              6         0
   8  7    -0.962607379     0.000000000   0.000000016   0.000000005     0.000000000     1.000000000              6         0

          -----------------
          DENSITY CONVERGED
          -----------------
     TIME TO FORM FOCK OPERATORS =       0.02 SECONDS (       0.00 SEC/ITER)
     FOCK TIME ON FIRST ITERATION=       0.00, LAST ITERATION=       0.00
     TIME TO SOLVE SCF EQUATIONS =       0.00 SECONDS (       0.00 SEC/ITER)

 FINAL ENERGY IS       -0.9626073792 AFTER   8 ITERATIONS

          --------------------
          SPIN SZ   =    0.000
          S-SQUARED =    0.638
          --------------------
 ...... END OF UHF CALCULATION ......

                         TIMING STATISTICS ON RANK 0:
 CPU        TIME:   STEP =      0.03 ,  TOTAL =        1.9 SECONDS (    0.0 MIN)
 WALL CLOCK TIME:   STEP =      0.06 ,  TOTAL =        3.1 SECONDS (    0.1 MIN)
 CPU UTILIZATION:   STEP =     52.79%,  TOTAL =      61.49%

 ---- SURFACE MAPPING GEOMETRY ----
 COORD 1=  -3.55000  COORD 2=   0.00000
 HAS ENERGY VALUE         -0.9626073792
 H             0.0000000000          0.0000000000          0.0000000000
 H             0.0000000000          0.0000000000          1.4500000000
 ----------------------------------
 ...... END OF ONE-ELECTRON INTEGRALS ......

                         TIMING STATISTICS ON RANK 0:
 CPU        TIME:   STEP =      0.00 ,  TOTAL =        1.9 SECONDS (    0.0 MIN)
 WALL CLOCK TIME:   STEP =      0.00 ,  TOTAL =        3.1 SECONDS (    0.1 MIN)
 CPU UTILIZATION:   STEP =      0.00%,  TOTAL =      61.47%

 LOG10 OF CONDITION NUMBER OF OVERLAP MATRIX IS:  2.64745886E-01
 ...... END OF TWO-ELECTRON INTEGRALS .....

                         TIMING STATISTICS ON RANK 0:
 CPU        TIME:   STEP =      0.00 ,  TOTAL =        1.9 SECONDS (    0.0 MIN)
 WALL CLOCK TIME:   STEP =      0.01 ,  TOTAL =        3.1 SECONDS (    0.1 MIN)
 CPU UTILIZATION:   STEP =      0.00%,  TOTAL =      61.32%

 DIRECT SCF CALCULATION, SCHWRZ=T   FDIFF=F

                                                                                                           NONZERO    BLOCKS
 ITER EX   TOTAL ENERGY      E CHANGE  DENSITY CHANGE    DIIS ERROR      VIR. SHIFT       DAMPING        INTEGRALS   SKIPPED
          * * *   INITIATING DIIS PROCEDURE   * * *
   1  0    -0.968122209    -0.968122209   0.016270950   0.014459686     0.000000000     1.000000000              6         0
   2  1    -0.968335140    -0.000212931   0.029962787   0.009271672     0.000000000     1.000000000              6         0
          * * *    REDUCING  DIIS SUBSPACE    * * *
   3  2    -0.968490950    -0.000155810   0.001455129   0.000421202     0.000000000     1.000000000              6         0
          * * *    REDUCING  DIIS SUBSPACE    * * *
   4  3    -0.968491290    -0.000000340   0.000049826   0.000013932     0.000000000     1.000000000              6         0
          * * *    REDUCING  DIIS SUBSPACE    * * *
   5  4    -0.968491290     0.000000000   0.000000082   0.000000023     0.000000000     1.000000000              6         0
   6  5    -0.968491290     0.000000000   0.000000000   0.000000000     0.000000000     1.000000000              6         0

          -----------------
          DENSITY CONVERGED
          -----------------
     TIME TO FORM FOCK OPERATORS =       0.02 SECONDS (       0.00 SEC/ITER)
     FOCK TIME ON FIRST ITERATION=       0.00, LAST ITERATION=       0.00
     TIME TO SOLVE SCF EQUATIONS =       0.00 SECONDS (       0.00 SEC/ITER)

 FINAL ENERGY IS       -0.9684912902 AFTER   6 ITERATIONS

          --------------------
          SPIN SZ   =    0.000
          S-SQUARED =    0.570
          --------------------
 ...... END OF UHF CALCULATION ......

                         TIMING STATISTICS ON RANK 0:
 CPU        TIME:   STEP =      0.03 ,  TOTAL =        1.9 SECONDS (    0.0 MIN)
 WALL CLOCK TIME:   STEP =      0.04 ,  TOTAL =        3.1 SECONDS (    0.1 MIN)
 CPU UTILIZATION:   STEP =     70.00%,  TOTAL =      61.44%

 ---- SURFACE MAPPING GEOMETRY ----
 COORD 1=  -3.60000  COORD 2=   0.00000
 HAS ENERGY VALUE         -0.9684912902
 H             0.0000000000          0.0000000000          0.0000000000
 H             0.0000000000          0.0000000000          1.4000000000
 ----------------------------------
 ...... END OF ONE-ELECTRON INTEGRALS ......

                         TIMING STATISTICS ON RANK 0:
 CPU        TIME:   STEP =      0.00 ,  TOTAL =        1.9 SECONDS (    0.0 MIN)
 WALL CLOCK TIME:   STEP =      0.00 ,  TOTAL =        3.1 SECONDS (    0.1 MIN)
 CPU UTILIZATION:   STEP =      0.00%,  TOTAL =      61.42%

 LOG10 OF CONDITION NUMBER OF OVERLAP MATRIX IS:  2.84985041E-01
 ...... END OF TWO-ELECTRON INTEGRALS .....

                         TIMING STATISTICS ON RANK 0:
 CPU        TIME:   STEP =      0.00 ,  TOTAL =        1.9 SECONDS (    0.0 MIN)
 WALL CLOCK TIME:   STEP =      0.01 ,  TOTAL =        3.1 SECONDS (    0.1 MIN)
 CPU UTILIZATION:   STEP =      0.00%,  TOTAL =      61.27%

 DIRECT SCF CALCULATION, SCHWRZ=T   FDIFF=F

                                                                                                           NONZERO    BLOCKS
 ITER EX   TOTAL ENERGY      E CHANGE  DENSITY CHANGE    DIIS ERROR      VIR. SHIFT       DAMPING        INTEGRALS   SKIPPED
          * * *   INITIATING DIIS PROCEDURE   * * *
   1  0    -0.975084943    -0.975084943   0.018349564   0.015276471     0.000000000     1.000000000              6         0
   2  1    -0.975327246    -0.000242303   0.040843748   0.010436703     0.000000000     1.000000000              6         0
   3  2    -0.975552792    -0.000225545   0.003328367   0.000664483     0.000000000     1.000000000              6         0
   4  3    -0.975553775    -0.000000983   0.000292620   0.000072926     0.000000000     1.000000000              6         0
   5  4    -0.975553787    -0.000000012   0.000033874   0.000008443     0.000000000     1.000000000              6         0
   6  5    -0.975553787     0.000000000   0.000000000   0.000000975     0.000000000     1.000000000              6         0

          -----------------
          DENSITY CONVERGED
          -----------------
     TIME TO FORM FOCK OPERATORS =       0.00 SECONDS (       0.00 SEC/ITER)
     FOCK TIME ON FIRST ITERATION=       0.00, LAST ITERATION=       0.00
     TIME TO SOLVE SCF EQUATIONS =       0.01 SECONDS (       0.00 SEC/ITER)

 FINAL ENERGY IS       -0.9755537870 AFTER   6 ITERATIONS

          --------------------
          SPIN SZ   =    0.000
          S-SQUARED =    0.489
          --------------------
 ...... END OF UHF CALCULATION ......

                         TIMING STATISTICS ON RANK 0:
 CPU        TIME:   STEP =      0.03 ,  TOTAL =        1.9 SECONDS (    0.0 MIN)
 WALL CLOCK TIME:   STEP =      0.05 ,  TOTAL =        3.2 SECONDS (    0.1 MIN)
 CPU UTILIZATION:   STEP =     63.73%,  TOTAL =      61.30%

 ---- SURFACE MAPPING GEOMETRY ----
 COORD 1=  -3.65000  COORD 2=   0.00000
 HAS ENERGY VALUE         -0.9755537870
 H             0.0000000000          0.0000000000          0.0000000000
 H             0.0000000000          0.0000000000          1.3500000000
 ----------------------------------
 ...... END OF ONE-ELECTRON INTEGRALS ......

                         TIMING STATISTICS ON RANK 0:
 CPU        TIME:   STEP =      0.00 ,  TOTAL =        1.9 SECONDS (    0.0 MIN)
 WALL CLOCK TIME:   STEP =      0.00 ,  TOTAL =        3.2 SECONDS (    0.1 MIN)
 CPU UTILIZATION:   STEP =      0.00%,  TOTAL =      61.28%

 LOG10 OF CONDITION NUMBER OF OVERLAP MATRIX IS:  3.06643605E-01
 ...... END OF TWO-ELECTRON INTEGRALS .....

                         TIMING STATISTICS ON RANK 0:
 CPU        TIME:   STEP =      0.00 ,  TOTAL =        1.9 SECONDS (    0.0 MIN)
 WALL CLOCK TIME:   STEP =      0.01 ,  TOTAL =        3.2 SECONDS (    0.1 MIN)
 CPU UTILIZATION:   STEP =      0.00%,  TOTAL =      61.15%

 DIRECT SCF CALCULATION, SCHWRZ=T   FDIFF=F

                                                                                                           NONZERO    BLOCKS
 ITER EX   TOTAL ENERGY      E CHANGE  DENSITY CHANGE    DIIS ERROR      VIR. SHIFT       DAMPING        INTEGRALS   SKIPPED
          * * *   INITIATING DIIS PROCEDURE   * * *
   1  0    -0.983428803    -0.983428803   0.020236894   0.015858321     0.000000000     1.000000000              6         0
   2  1    -0.983695282    -0.000266479   0.056399979   0.011568724     0.000000000     1.000000000              6         0
   3  2    -0.984024460    -0.000329178   0.005301307   0.001059493     0.000000000     1.000000000              6         0
   4  3    -0.984027526    -0.000003066   0.000000000   0.000177140     0.000000000     1.000000000              6         0
          * * *    REDUCING  DIIS SUBSPACE    * * *
          * * *    REDUCING  DIIS SUBSPACE    * * *
          * * *    REDUCING  DIIS SUBSPACE    * * *
          * * *    REDUCING  DIIS SUBSPACE    * * *
   5  4    -0.984027526     0.000000000   0.000236921   0.000177140     0.000000000     1.000000000              6         0
   6  5    -0.984027561    -0.000000035   0.000838961   0.000138118     0.000000000     1.000000000              6         0
   7  6    -0.984027615    -0.000000054   0.000001338   0.000000220     0.000000000     1.000000000              6         0
   8  7    -0.984027615     0.000000000   0.000000004   0.000000001     0.000000000     1.000000000              6         0

          -----------------
          DENSITY CONVERGED
          -----------------
     TIME TO FORM FOCK OPERATORS =       0.01 SECONDS (       0.00 SEC/ITER)
     FOCK TIME ON FIRST ITERATION=       0.01, LAST ITERATION=       0.00
     TIME TO SOLVE SCF EQUATIONS =       0.03 SECONDS (       0.00 SEC/ITER)

 FINAL ENERGY IS       -0.9840276155 AFTER   8 ITERATIONS

          --------------------
          SPIN SZ   =    0.000
          S-SQUARED =    0.394
          --------------------
 ...... END OF UHF CALCULATION ......

                         TIMING STATISTICS ON RANK 0:
 CPU        TIME:   STEP =      0.04 ,  TOTAL =        2.0 SECONDS (    0.0 MIN)
 WALL CLOCK TIME:   STEP =      0.05 ,  TOTAL =        3.2 SECONDS (    0.1 MIN)
 CPU UTILIZATION:   STEP =     74.77%,  TOTAL =      61.37%

 ---- SURFACE MAPPING GEOMETRY ----
 COORD 1=  -3.70000  COORD 2=   0.00000
 HAS ENERGY VALUE         -0.9840276155
 H             0.0000000000          0.0000000000          0.0000000000
 H             0.0000000000          0.0000000000          1.3000000000
 ----------------------------------
 ...... END OF ONE-ELECTRON INTEGRALS ......

                         TIMING STATISTICS ON RANK 0:
 CPU        TIME:   STEP =      0.00 ,  TOTAL =        2.0 SECONDS (    0.0 MIN)
 WALL CLOCK TIME:   STEP =      0.00 ,  TOTAL =        3.2 SECONDS (    0.1 MIN)
 CPU UTILIZATION:   STEP =      0.00%,  TOTAL =      61.35%

 LOG10 OF CONDITION NUMBER OF OVERLAP MATRIX IS:  3.29826710E-01
 ...... END OF TWO-ELECTRON INTEGRALS .....

                         TIMING STATISTICS ON RANK 0:
 CPU        TIME:   STEP =      0.00 ,  TOTAL =        2.0 SECONDS (    0.0 MIN)
 WALL CLOCK TIME:   STEP =      0.01 ,  TOTAL =        3.3 SECONDS (    0.1 MIN)
 CPU UTILIZATION:   STEP =      0.00%,  TOTAL =      61.21%

 DIRECT SCF CALCULATION, SCHWRZ=T   FDIFF=F

                                                                                                           NONZERO    BLOCKS
 ITER EX   TOTAL ENERGY      E CHANGE  DENSITY CHANGE    DIIS ERROR      VIR. SHIFT       DAMPING        INTEGRALS   SKIPPED
          * * *   INITIATING DIIS PROCEDURE   * * *
   1  0    -0.993420404    -0.993420404   0.021521291   0.015983329     0.000000000     1.000000000              6         0
   2  1    -0.993696893    -0.000276489   0.078987233   0.012472871     0.000000000     1.000000000              6         0
   3  2    -0.994179004    -0.000482111   0.011770474   0.001694005     0.000000000     1.000000000              6         0
   4  3    -0.994189641    -0.000010637   0.000799250   0.000357785     0.000000000     1.000000000              6         0
          * * *    REDUCING  DIIS SUBSPACE    * * *
   5  4    -0.994189863    -0.000000222   0.000205149   0.000269491     0.000000000     1.000000000              6         0
          * * *    REDUCING  DIIS SUBSPACE    * * *
          * * *    REDUCING  DIIS SUBSPACE    * * *
   6  5    -0.994189909    -0.000000047   0.002239208   0.000246878     0.000000000     1.000000000              6         0
   7  6    -0.994190155    -0.000000245   0.000020549   0.000001373     0.000000000     1.000000000              6         0
   8  7    -0.994190155     0.000000000   0.000005211   0.000000868     0.000000000     1.000000000              6         0
   9  8    -0.994190155     0.000000000   0.000016080   0.000000300     0.000000000     1.000000000              6         0

          -----------------
          DENSITY CONVERGED
          -----------------
     TIME TO FORM FOCK OPERATORS =       0.02 SECONDS (       0.00 SEC/ITER)
     FOCK TIME ON FIRST ITERATION=       0.00, LAST ITERATION=       0.00
     TIME TO SOLVE SCF EQUATIONS =       0.01 SECONDS (       0.00 SEC/ITER)

 FINAL ENERGY IS       -0.9941901548 AFTER   9 ITERATIONS

          --------------------
          SPIN SZ   =    0.000
          S-SQUARED =    0.281
          --------------------
 ...... END OF UHF CALCULATION ......

                         TIMING STATISTICS ON RANK 0:
 CPU        TIME:   STEP =      0.04 ,  TOTAL =        2.0 SECONDS (    0.0 MIN)
 WALL CLOCK TIME:   STEP =      0.09 ,  TOTAL =        3.3 SECONDS (    0.1 MIN)
 CPU UTILIZATION:   STEP =     45.41%,  TOTAL =      60.79%

 ---- SURFACE MAPPING GEOMETRY ----
 COORD 1=  -3.75000  COORD 2=   0.00000
 HAS ENERGY VALUE         -0.9941901548
 H             0.0000000000          0.0000000000          0.0000000000
 H             0.0000000000          0.0000000000          1.2500000000
 ----------------------------------
 ...... END OF ONE-ELECTRON INTEGRALS ......

                         TIMING STATISTICS ON RANK 0:
 CPU        TIME:   STEP =      0.00 ,  TOTAL =        2.0 SECONDS (    0.0 MIN)
 WALL CLOCK TIME:   STEP =      0.00 ,  TOTAL =        3.3 SECONDS (    0.1 MIN)
 CPU UTILIZATION:   STEP =      0.00%,  TOTAL =      60.77%

 LOG10 OF CONDITION NUMBER OF OVERLAP MATRIX IS:  3.54649225E-01
 ...... END OF TWO-ELECTRON INTEGRALS .....

                         TIMING STATISTICS ON RANK 0:
 CPU        TIME:   STEP =      0.01 ,  TOTAL =        2.0 SECONDS (    0.0 MIN)
 WALL CLOCK TIME:   STEP =      0.01 ,  TOTAL =        3.4 SECONDS (    0.1 MIN)
 CPU UTILIZATION:   STEP =     87.09%,  TOTAL =      60.86%

 DIRECT SCF CALCULATION, SCHWRZ=T   FDIFF=F

                                                                                                           NONZERO    BLOCKS
 ITER EX   TOTAL ENERGY      E CHANGE  DENSITY CHANGE    DIIS ERROR      VIR. SHIFT       DAMPING        INTEGRALS   SKIPPED
          * * *   INITIATING DIIS PROCEDURE   * * *
   1  0    -1.005376010    -1.005376010   0.021372088   0.015206611     0.000000000     1.000000000              6         0
   2  1    -1.005631771    -0.000255761   0.111911443   0.012710724     0.000000000     1.000000000              6         0
   3  2    -1.006326447    -0.000694676   0.023778366   0.002634026     0.000000000     1.000000000              6         0
          * * *    REDUCING  DIIS SUBSPACE    * * *
   4  3    -1.006363810    -0.000037363   0.006263001   0.001094151     0.000000000     1.000000000              6         0
   5  4    -1.006368637    -0.000004827   0.008276277   0.000721169     0.000000000     1.000000000              6         0
          * * *    REDUCING  DIIS SUBSPACE    * * *
   6  5    -1.006372036    -0.000003399   0.003425432   0.000248716     0.000000000     1.000000000              6         0
          * * *    REDUCING  DIIS SUBSPACE    * * *
   7  6    -1.006372485    -0.000000448   0.001011081   0.000059912     0.000000000     1.000000000              6         0
          * * *    REDUCING  DIIS SUBSPACE    * * *
   8  7    -1.006372512    -0.000000028   0.000070610   0.000004931     0.000000000     1.000000000              6         0
          * * *    REDUCING  DIIS SUBSPACE    * * *
   9  8    -1.006372512     0.000000000   0.000159061   0.000008759     0.000000000     1.000000000              6         0

          ----------------
          ENERGY CONVERGED
          ----------------
     TIME TO FORM FOCK OPERATORS =       0.02 SECONDS (       0.00 SEC/ITER)
     FOCK TIME ON FIRST ITERATION=       0.00, LAST ITERATION=       0.00
     TIME TO SOLVE SCF EQUATIONS =       0.02 SECONDS (       0.00 SEC/ITER)

 FINAL ENERGY IS       -1.0063725120 AFTER   9 ITERATIONS

          --------------------
          SPIN SZ   =    0.000
          S-SQUARED =    0.147
          --------------------
 ...... END OF UHF CALCULATION ......

                         TIMING STATISTICS ON RANK 0:
 CPU        TIME:   STEP =      0.05 ,  TOTAL =        2.1 SECONDS (    0.0 MIN)
 WALL CLOCK TIME:   STEP =      0.09 ,  TOTAL =        3.4 SECONDS (    0.1 MIN)
 CPU UTILIZATION:   STEP =     55.20%,  TOTAL =      60.71%

 ---- SURFACE MAPPING GEOMETRY ----
 COORD 1=  -3.80000  COORD 2=   0.00000
 HAS ENERGY VALUE         -1.0063725120
 H             0.0000000000          0.0000000000          0.0000000000
 H             0.0000000000          0.0000000000          1.2000000000
 ----------------------------------
 ...... END OF ONE-ELECTRON INTEGRALS ......

                         TIMING STATISTICS ON RANK 0:
 CPU        TIME:   STEP =      0.00 ,  TOTAL =        2.1 SECONDS (    0.0 MIN)
 WALL CLOCK TIME:   STEP =      0.00 ,  TOTAL =        3.4 SECONDS (    0.1 MIN)
 CPU UTILIZATION:   STEP =      0.00%,  TOTAL =      60.68%

 LOG10 OF CONDITION NUMBER OF OVERLAP MATRIX IS:  3.81237091E-01
 ...... END OF TWO-ELECTRON INTEGRALS .....

                         TIMING STATISTICS ON RANK 0:
 CPU        TIME:   STEP =      0.00 ,  TOTAL =        2.1 SECONDS (    0.0 MIN)
 WALL CLOCK TIME:   STEP =      0.01 ,  TOTAL =        3.5 SECONDS (    0.1 MIN)
 CPU UTILIZATION:   STEP =      0.00%,  TOTAL =      60.49%

 DIRECT SCF CALCULATION, SCHWRZ=T   FDIFF=F

                                                                                                           NONZERO    BLOCKS
 ITER EX   TOTAL ENERGY      E CHANGE  DENSITY CHANGE    DIIS ERROR      VIR. SHIFT       DAMPING        INTEGRALS   SKIPPED
          * * *   INITIATING DIIS PROCEDURE   * * *
   1  0    -1.019671678    -1.019671678   0.017856427   0.012431266     0.000000000     1.000000000              6         0
   2  1    -1.019846369    -0.000174691   0.155466913   0.011137407     0.000000000     1.000000000              6         0
   3  2    -1.020726349    -0.000879980   0.067652953   0.003401737     0.000000000     1.000000000              6         0
   4  3    -1.020868309    -0.000141960   0.017694179   0.001678836     0.000000000     1.000000000              6         0
   5  4    -1.020840202     0.000028106   0.022679966   0.002050950     0.000000000     1.000000000              6         0
   6  5    -1.020795439     0.000044763   0.081302281   0.002606648     0.000000000     1.000000000              6         0
   7  6    -1.020914742    -0.000119303   0.092312019   0.001003411     0.000000000     1.000000000              6         0
   8  7    -1.020769712     0.000145030   0.402163081   0.002910279     0.000000000     1.000000000              6         0
   9  8    -1.015634104     0.005135608   0.518999501   0.035826392     0.000000000     1.000000000              6         0
          * * *    REDUCING  DIIS SUBSPACE    * * *
          * * *    REDUCING  DIIS SUBSPACE    * * *
          * * *    REDUCING  DIIS SUBSPACE    * * *
          * * *    REDUCING  DIIS SUBSPACE    * * *
  10  9    -1.020932783    -0.005298679   0.008844718   0.000707697     0.000000000     1.000000000              6         0
          * * *    REDUCING  DIIS SUBSPACE    * * *
          * * *    REDUCING  DIIS SUBSPACE    * * *
          * * *    REDUCING  DIIS SUBSPACE    * * *
          * * *    REDUCING  DIIS SUBSPACE    * * *
  11 10    -1.020937881    -0.000005098   0.060888539   0.000618535     0.000000000     1.000000000              6         0
  12 11    -1.020958528    -0.000020647   0.035440412   0.000206769     0.000000000     1.000000000              6         0
  13 12    -1.020962946    -0.000004418   0.005617479   0.000082202     0.000000000     1.000000000              6         0
  14 13    -1.020962491     0.000000455   0.069553474   0.000098407     0.000000000     1.000000000              6         0
  15 14    -1.020947583     0.000014908   0.067559790   0.000438654     0.000000000     1.000000000              6         0
  16 15    -1.020962310    -0.000014727   0.034693984   0.000104417     0.000000000     1.000000000              6         0
          * * *    REDUCING  DIIS SUBSPACE    * * *
  17 16    -1.020957174     0.000005135   0.031460852   0.000238554     0.000000000     1.000000000              6         0
  18 17    -1.020961993    -0.000004818   0.013978220   0.000114480     0.000000000     1.000000000              6         0
          * * *    REDUCING  DIIS SUBSPACE    * * *
  19 18    -1.020963166    -0.000001173   0.005825274   0.000073586     0.000000000     1.000000000              6         0
  20 19    -1.020963511    -0.000000346   0.006582016   0.000058265     0.000000000     1.000000000              6         0
  21 20    -1.020963808    -0.000000297   0.012752436   0.000041846     0.000000000     1.000000000              6         0
  22 21    -1.020964117    -0.000000308   0.002909742   0.000011774     0.000000000     1.000000000              6         0
  23 22    -1.020964139    -0.000000022   0.014363743   0.000005075     0.000000000     1.000000000              6         0
  24 23    -1.020963856     0.000000283   0.014633824   0.000038698     0.000000000     1.000000000              6         0
  25 24    -1.020964140    -0.000000284   0.000277115   0.000004454     0.000000000     1.000000000              6         0
  26 25    -1.020964141    -0.000000001   0.000071806   0.000003817     0.000000000     1.000000000              6         0
  27 26    -1.020964141     0.000000000   0.001508251   0.000003982     0.000000000     1.000000000              6         0
          * * *    REDUCING  DIIS SUBSPACE    * * *
  28 27    -1.020964144    -0.000000003   0.000277004   0.000000515     0.000000000     1.000000000              6         0
  29 28    -1.020964144     0.000000000   0.000005055   0.000000122     0.000000000     1.000000000              6         0
  30 29    -1.020964144     0.000000000   0.000045045   0.000000110     0.000000000     1.000000000              6         0

          -----------------
          DENSITY CONVERGED
          -----------------
     TIME TO FORM FOCK OPERATORS =       0.05 SECONDS (       0.00 SEC/ITER)
     FOCK TIME ON FIRST ITERATION=       0.00, LAST ITERATION=       0.00
     TIME TO SOLVE SCF EQUATIONS =       0.03 SECONDS (       0.00 SEC/ITER)

 FINAL ENERGY IS       -1.0209641441 AFTER  30 ITERATIONS

          --------------------
          SPIN SZ   =    0.000
          S-SQUARED =    0.000
          --------------------
 ...... END OF UHF CALCULATION ......

                         TIMING STATISTICS ON RANK 0:
 CPU        TIME:   STEP =      0.09 ,  TOTAL =        2.2 SECONDS (    0.0 MIN)
 WALL CLOCK TIME:   STEP =      0.19 ,  TOTAL =        3.6 SECONDS (    0.1 MIN)
 CPU UTILIZATION:   STEP =     48.52%,  TOTAL =      59.88%

 ---- SURFACE MAPPING GEOMETRY ----
 COORD 1=  -3.85000  COORD 2=   0.00000
 HAS ENERGY VALUE         -1.0209641441
 H             0.0000000000          0.0000000000          0.0000000000
 H             0.0000000000          0.0000000000          1.1500000000
 ----------------------------------
 ...... END OF ONE-ELECTRON INTEGRALS ......

                         TIMING STATISTICS ON RANK 0:
 CPU        TIME:   STEP =      0.00 ,  TOTAL =        2.2 SECONDS (    0.0 MIN)
 WALL CLOCK TIME:   STEP =      0.00 ,  TOTAL =        3.6 SECONDS (    0.1 MIN)
 CPU UTILIZATION:   STEP =      0.00%,  TOTAL =      59.86%

 LOG10 OF CONDITION NUMBER OF OVERLAP MATRIX IS:  4.09729077E-01
 ...... END OF TWO-ELECTRON INTEGRALS .....

                         TIMING STATISTICS ON RANK 0:
 CPU        TIME:   STEP =      0.01 ,  TOTAL =        2.2 SECONDS (    0.0 MIN)
 WALL CLOCK TIME:   STEP =      0.01 ,  TOTAL =        3.6 SECONDS (    0.1 MIN)
 CPU UTILIZATION:   STEP =    142.59%,  TOTAL =      60.02%

 DIRECT SCF CALCULATION, SCHWRZ=T   FDIFF=F

                                                                                                           NONZERO    BLOCKS
 ITER EX   TOTAL ENERGY      E CHANGE  DENSITY CHANGE    DIIS ERROR      VIR. SHIFT       DAMPING        INTEGRALS   SKIPPED
          * * *   INITIATING DIIS PROCEDURE   * * *
   1  0    -1.036538876    -1.036538876   0.000000140   0.000000107     0.000000000     1.000000000              6         0
   2  1    -1.036538876     0.000000000   0.000002815   0.000000102     0.000000000     1.000000000              6         0

          -----------------
          DENSITY CONVERGED
          -----------------
     TIME TO FORM FOCK OPERATORS =       0.00 SECONDS (       0.00 SEC/ITER)
     FOCK TIME ON FIRST ITERATION=       0.00, LAST ITERATION=       0.00
     TIME TO SOLVE SCF EQUATIONS =       0.01 SECONDS (       0.00 SEC/ITER)

 FINAL ENERGY IS       -1.0365388755 AFTER   2 ITERATIONS

          --------------------
          SPIN SZ   =    0.000
          S-SQUARED =    0.000
          --------------------
 ...... END OF UHF CALCULATION ......

                         TIMING STATISTICS ON RANK 0:
 CPU        TIME:   STEP =      0.01 ,  TOTAL =        2.2 SECONDS (    0.0 MIN)
 WALL CLOCK TIME:   STEP =      0.02 ,  TOTAL =        3.7 SECONDS (    0.1 MIN)
 CPU UTILIZATION:   STEP =     58.80%,  TOTAL =      60.01%

 ---- SURFACE MAPPING GEOMETRY ----
 COORD 1=  -3.90000  COORD 2=   0.00000
 HAS ENERGY VALUE         -1.0365388755
 H             0.0000000000          0.0000000000          0.0000000000
 H             0.0000000000          0.0000000000          1.1000000000
 ----------------------------------
 ...... END OF ONE-ELECTRON INTEGRALS ......

                         TIMING STATISTICS ON RANK 0:
 CPU        TIME:   STEP =      0.00 ,  TOTAL =        2.2 SECONDS (    0.0 MIN)
 WALL CLOCK TIME:   STEP =      0.00 ,  TOTAL =        3.7 SECONDS (    0.1 MIN)
 CPU UTILIZATION:   STEP =      0.00%,  TOTAL =      60.00%

 LOG10 OF CONDITION NUMBER OF OVERLAP MATRIX IS:  4.40279136E-01
 ...... END OF TWO-ELECTRON INTEGRALS .....

                         TIMING STATISTICS ON RANK 0:
 CPU        TIME:   STEP =      0.01 ,  TOTAL =        2.2 SECONDS (    0.0 MIN)
 WALL CLOCK TIME:   STEP =      0.01 ,  TOTAL =        3.7 SECONDS (    0.1 MIN)
 CPU UTILIZATION:   STEP =    141.30%,  TOTAL =      60.15%

 DIRECT SCF CALCULATION, SCHWRZ=T   FDIFF=F

                                                                                                           NONZERO    BLOCKS
 ITER EX   TOTAL ENERGY      E CHANGE  DENSITY CHANGE    DIIS ERROR      VIR. SHIFT       DAMPING        INTEGRALS   SKIPPED
          * * *   INITIATING DIIS PROCEDURE   * * *
   1  0    -1.051656756    -1.051656756   0.000000000   0.000000000     0.000000000     1.000000000              6         0
   2  1    -1.051656756     0.000000000   0.000000000   0.000000000     0.000000000     1.000000000              6         0

          -----------------
          DENSITY CONVERGED
          -----------------
     TIME TO FORM FOCK OPERATORS =       0.00 SECONDS (       0.00 SEC/ITER)
     FOCK TIME ON FIRST ITERATION=       0.00, LAST ITERATION=       0.00
     TIME TO SOLVE SCF EQUATIONS =       0.01 SECONDS (       0.00 SEC/ITER)

 FINAL ENERGY IS       -1.0516567561 AFTER   2 ITERATIONS

          --------------------
          SPIN SZ   =    0.000
          S-SQUARED =    0.000
          --------------------
 ...... END OF UHF CALCULATION ......

                         TIMING STATISTICS ON RANK 0:
 CPU        TIME:   STEP =      0.01 ,  TOTAL =        2.2 SECONDS (    0.0 MIN)
 WALL CLOCK TIME:   STEP =      0.02 ,  TOTAL =        3.7 SECONDS (    0.1 MIN)
 CPU UTILIZATION:   STEP =     58.12%,  TOTAL =      60.15%

 ---- SURFACE MAPPING GEOMETRY ----
 COORD 1=  -3.95000  COORD 2=   0.00000
 HAS ENERGY VALUE         -1.0516567561
 H             0.0000000000          0.0000000000          0.0000000000
 H             0.0000000000          0.0000000000          1.0500000000
 ----------------------------------
 ...... END OF ONE-ELECTRON INTEGRALS ......

                         TIMING STATISTICS ON RANK 0:
 CPU        TIME:   STEP =      0.00 ,  TOTAL =        2.2 SECONDS (    0.0 MIN)
 WALL CLOCK TIME:   STEP =      0.00 ,  TOTAL =        3.7 SECONDS (    0.1 MIN)
 CPU UTILIZATION:   STEP =      0.00%,  TOTAL =      60.13%

 LOG10 OF CONDITION NUMBER OF OVERLAP MATRIX IS:  4.73059598E-01
 ...... END OF TWO-ELECTRON INTEGRALS .....

                         TIMING STATISTICS ON RANK 0:
 CPU        TIME:   STEP =      0.00 ,  TOTAL =        2.2 SECONDS (    0.0 MIN)
 WALL CLOCK TIME:   STEP =      0.01 ,  TOTAL =        3.7 SECONDS (    0.1 MIN)
 CPU UTILIZATION:   STEP =      0.00%,  TOTAL =      60.01%

 DIRECT SCF CALCULATION, SCHWRZ=T   FDIFF=F

                                                                                                           NONZERO    BLOCKS
 ITER EX   TOTAL ENERGY      E CHANGE  DENSITY CHANGE    DIIS ERROR      VIR. SHIFT       DAMPING        INTEGRALS   SKIPPED
          * * *   INITIATING DIIS PROCEDURE   * * *
   1  0    -1.066108650    -1.066108650   0.000000000   0.000000000     0.000000000     1.000000000              6         0
   2  1    -1.066108650     0.000000000   0.000000000   0.000000000     0.000000000     1.000000000              6         0

          -----------------
          DENSITY CONVERGED
          -----------------
     TIME TO FORM FOCK OPERATORS =       0.01 SECONDS (       0.01 SEC/ITER)
     FOCK TIME ON FIRST ITERATION=       0.01, LAST ITERATION=       0.00
     TIME TO SOLVE SCF EQUATIONS =       0.00 SECONDS (       0.00 SEC/ITER)

 FINAL ENERGY IS       -1.0661086497 AFTER   2 ITERATIONS

          --------------------
          SPIN SZ   =    0.000
          S-SQUARED =    0.000
          --------------------
 ...... END OF UHF CALCULATION ......

                         TIMING STATISTICS ON RANK 0:
 CPU        TIME:   STEP =      0.01 ,  TOTAL =        2.2 SECONDS (    0.0 MIN)
 WALL CLOCK TIME:   STEP =      0.02 ,  TOTAL =        3.7 SECONDS (    0.1 MIN)
 CPU UTILIZATION:   STEP =     55.99%,  TOTAL =      59.99%

 ---- SURFACE MAPPING GEOMETRY ----
 COORD 1=  -4.00000  COORD 2=   0.00000
 HAS ENERGY VALUE         -1.0661086497
 H             0.0000000000          0.0000000000          0.0000000000
 H             0.0000000000          0.0000000000          1.0000000000
 ----------------------------------
 ...... END OF ONE-ELECTRON INTEGRALS ......

                         TIMING STATISTICS ON RANK 0:
 CPU        TIME:   STEP =      0.00 ,  TOTAL =        2.2 SECONDS (    0.0 MIN)
 WALL CLOCK TIME:   STEP =      0.00 ,  TOTAL =        3.7 SECONDS (    0.1 MIN)
 CPU UTILIZATION:   STEP =      0.00%,  TOTAL =      59.97%

 LOG10 OF CONDITION NUMBER OF OVERLAP MATRIX IS:  5.08265562E-01
 ...... END OF TWO-ELECTRON INTEGRALS .....

                         TIMING STATISTICS ON RANK 0:
 CPU        TIME:   STEP =      0.00 ,  TOTAL =        2.2 SECONDS (    0.0 MIN)
 WALL CLOCK TIME:   STEP =      0.01 ,  TOTAL =        3.7 SECONDS (    0.1 MIN)
 CPU UTILIZATION:   STEP =      0.00%,  TOTAL =      59.83%

 DIRECT SCF CALCULATION, SCHWRZ=T   FDIFF=F

                                                                                                           NONZERO    BLOCKS
 ITER EX   TOTAL ENERGY      E CHANGE  DENSITY CHANGE    DIIS ERROR      VIR. SHIFT       DAMPING        INTEGRALS   SKIPPED
          * * *   INITIATING DIIS PROCEDURE   * * *
   1  0    -1.079636929    -1.079636929   0.000000000   0.000000000     0.000000000     1.000000000              6         0
   2  1    -1.079636929     0.000000000   0.000000000   0.000000000     0.000000000     1.000000000              6         0

          -----------------
          DENSITY CONVERGED
          -----------------
     TIME TO FORM FOCK OPERATORS =       0.00 SECONDS (       0.00 SEC/ITER)
     FOCK TIME ON FIRST ITERATION=       0.00, LAST ITERATION=       0.00
     TIME TO SOLVE SCF EQUATIONS =       0.01 SECONDS (       0.01 SEC/ITER)

 FINAL ENERGY IS       -1.0796369286 AFTER   2 ITERATIONS

          --------------------
          SPIN SZ   =    0.000
          S-SQUARED =    0.000
          --------------------
 ...... END OF UHF CALCULATION ......

                         TIMING STATISTICS ON RANK 0:
 CPU        TIME:   STEP =      0.02 ,  TOTAL =        2.3 SECONDS (    0.0 MIN)
 WALL CLOCK TIME:   STEP =      0.02 ,  TOTAL =        3.7 SECONDS (    0.1 MIN)
 CPU UTILIZATION:   STEP =    120.03%,  TOTAL =      60.10%

 ---- SURFACE MAPPING GEOMETRY ----
 COORD 1=  -4.05000  COORD 2=   0.00000
 HAS ENERGY VALUE         -1.0796369286
 H             0.0000000000          0.0000000000          0.0000000000
 H             0.0000000000          0.0000000000          0.9500000000
 ----------------------------------
 ...... END OF ONE-ELECTRON INTEGRALS ......

                         TIMING STATISTICS ON RANK 0:
 CPU        TIME:   STEP =      0.00 ,  TOTAL =        2.3 SECONDS (    0.0 MIN)
 WALL CLOCK TIME:   STEP =      0.00 ,  TOTAL =        3.7 SECONDS (    0.1 MIN)
 CPU UTILIZATION:   STEP =      0.00%,  TOTAL =      60.08%

 LOG10 OF CONDITION NUMBER OF OVERLAP MATRIX IS:  5.46120922E-01
 ...... END OF TWO-ELECTRON INTEGRALS .....

                         TIMING STATISTICS ON RANK 0:
 CPU        TIME:   STEP =      0.01 ,  TOTAL =        2.3 SECONDS (    0.0 MIN)
 WALL CLOCK TIME:   STEP =      0.01 ,  TOTAL =        3.8 SECONDS (    0.1 MIN)
 CPU UTILIZATION:   STEP =    144.30%,  TOTAL =      60.24%

 DIRECT SCF CALCULATION, SCHWRZ=T   FDIFF=F

                                                                                                           NONZERO    BLOCKS
 ITER EX   TOTAL ENERGY      E CHANGE  DENSITY CHANGE    DIIS ERROR      VIR. SHIFT       DAMPING        INTEGRALS   SKIPPED
          * * *   INITIATING DIIS PROCEDURE   * * *
   1  0    -1.091914041    -1.091914041   0.000000000   0.000000000     0.000000000     1.000000000              6         0
   2  1    -1.091914041     0.000000000   0.000000000   0.000000000     0.000000000     1.000000000              6         0

          -----------------
          DENSITY CONVERGED
          -----------------
     TIME TO FORM FOCK OPERATORS =       0.00 SECONDS (       0.00 SEC/ITER)
     FOCK TIME ON FIRST ITERATION=       0.00, LAST ITERATION=       0.00
     TIME TO SOLVE SCF EQUATIONS =       0.00 SECONDS (       0.00 SEC/ITER)

 FINAL ENERGY IS       -1.0919140413 AFTER   2 ITERATIONS

          --------------------
          SPIN SZ   =    0.000
          S-SQUARED =    0.000
          --------------------
 ...... END OF UHF CALCULATION ......

                         TIMING STATISTICS ON RANK 0:
 CPU        TIME:   STEP =      0.00 ,  TOTAL =        2.3 SECONDS (    0.0 MIN)
 WALL CLOCK TIME:   STEP =      0.02 ,  TOTAL =        3.8 SECONDS (    0.1 MIN)
 CPU UTILIZATION:   STEP =      0.00%,  TOTAL =      59.93%

 ---- SURFACE MAPPING GEOMETRY ----
 COORD 1=  -4.10000  COORD 2=   0.00000
 HAS ENERGY VALUE         -1.0919140413
 H             0.0000000000          0.0000000000          0.0000000000
 H             0.0000000000          0.0000000000          0.9000000000
 ----------------------------------
 ...... END OF ONE-ELECTRON INTEGRALS ......

                         TIMING STATISTICS ON RANK 0:
 CPU        TIME:   STEP =      0.00 ,  TOTAL =        2.3 SECONDS (    0.0 MIN)
 WALL CLOCK TIME:   STEP =      0.00 ,  TOTAL =        3.8 SECONDS (    0.1 MIN)
 CPU UTILIZATION:   STEP =      0.00%,  TOTAL =      59.91%

 LOG10 OF CONDITION NUMBER OF OVERLAP MATRIX IS:  5.86886606E-01
 ...... END OF TWO-ELECTRON INTEGRALS .....

                         TIMING STATISTICS ON RANK 0:
 CPU        TIME:   STEP =      0.01 ,  TOTAL =        2.3 SECONDS (    0.0 MIN)
 WALL CLOCK TIME:   STEP =      0.01 ,  TOTAL =        3.8 SECONDS (    0.1 MIN)
 CPU UTILIZATION:   STEP =    142.45%,  TOTAL =      60.06%

 DIRECT SCF CALCULATION, SCHWRZ=T   FDIFF=F

                                                                                                           NONZERO    BLOCKS
 ITER EX   TOTAL ENERGY      E CHANGE  DENSITY CHANGE    DIIS ERROR      VIR. SHIFT       DAMPING        INTEGRALS   SKIPPED
          * * *   INITIATING DIIS PROCEDURE   * * *
   1  0    -1.102510554    -1.102510554   0.000000000   0.000000000     0.000000000     1.000000000              6         0
   2  1    -1.102510554     0.000000000   0.000000000   0.000000000     0.000000000     1.000000000              6         0

          -----------------
          DENSITY CONVERGED
          -----------------
     TIME TO FORM FOCK OPERATORS =       0.00 SECONDS (       0.00 SEC/ITER)
     FOCK TIME ON FIRST ITERATION=       0.00, LAST ITERATION=       0.00
     TIME TO SOLVE SCF EQUATIONS =       0.00 SECONDS (       0.00 SEC/ITER)

 FINAL ENERGY IS       -1.1025105542 AFTER   2 ITERATIONS

          --------------------
          SPIN SZ   =    0.000
          S-SQUARED =    0.000
          --------------------
 ...... END OF UHF CALCULATION ......

                         TIMING STATISTICS ON RANK 0:
 CPU        TIME:   STEP =      0.01 ,  TOTAL =        2.3 SECONDS (    0.0 MIN)
 WALL CLOCK TIME:   STEP =      0.02 ,  TOTAL =        3.8 SECONDS (    0.1 MIN)
 CPU UTILIZATION:   STEP =     56.34%,  TOTAL =      60.05%

 ---- SURFACE MAPPING GEOMETRY ----
 COORD 1=  -4.15000  COORD 2=   0.00000
 HAS ENERGY VALUE         -1.1025105542
 H             0.0000000000          0.0000000000          0.0000000000
 H             0.0000000000          0.0000000000          0.8500000000
 ----------------------------------
 ...... END OF ONE-ELECTRON INTEGRALS ......

                         TIMING STATISTICS ON RANK 0:
 CPU        TIME:   STEP =      0.00 ,  TOTAL =        2.3 SECONDS (    0.0 MIN)
 WALL CLOCK TIME:   STEP =      0.00 ,  TOTAL =        3.8 SECONDS (    0.1 MIN)
 CPU UTILIZATION:   STEP =      0.00%,  TOTAL =      60.03%

 LOG10 OF CONDITION NUMBER OF OVERLAP MATRIX IS:  6.30871789E-01
 ...... END OF TWO-ELECTRON INTEGRALS .....

                         TIMING STATISTICS ON RANK 0:
 CPU        TIME:   STEP =      0.01 ,  TOTAL =        2.3 SECONDS (    0.0 MIN)
 WALL CLOCK TIME:   STEP =      0.01 ,  TOTAL =        3.8 SECONDS (    0.1 MIN)
 CPU UTILIZATION:   STEP =    145.26%,  TOTAL =      60.18%

 DIRECT SCF CALCULATION, SCHWRZ=T   FDIFF=F

                                                                                                           NONZERO    BLOCKS
 ITER EX   TOTAL ENERGY      E CHANGE  DENSITY CHANGE    DIIS ERROR      VIR. SHIFT       DAMPING        INTEGRALS   SKIPPED
          * * *   INITIATING DIIS PROCEDURE   * * *
   1  0    -1.110850398    -1.110850398   0.000000000   0.000000000     0.000000000     1.000000000              6         0
   2  1    -1.110850398     0.000000000   0.000000000   0.000000000     0.000000000     1.000000000              6         0

          -----------------
          DENSITY CONVERGED
          -----------------
     TIME TO FORM FOCK OPERATORS =       0.01 SECONDS (       0.00 SEC/ITER)
     FOCK TIME ON FIRST ITERATION=       0.01, LAST ITERATION=       0.00
     TIME TO SOLVE SCF EQUATIONS =       0.00 SECONDS (       0.00 SEC/ITER)

 FINAL ENERGY IS       -1.1108503977 AFTER   2 ITERATIONS

          --------------------
          SPIN SZ   =    0.000
          S-SQUARED =    0.000
          --------------------
 ...... END OF UHF CALCULATION ......

                         TIMING STATISTICS ON RANK 0:
 CPU        TIME:   STEP =      0.01 ,  TOTAL =        2.3 SECONDS (    0.0 MIN)
 WALL CLOCK TIME:   STEP =      0.02 ,  TOTAL =        3.8 SECONDS (    0.1 MIN)
 CPU UTILIZATION:   STEP =     56.35%,  TOTAL =      60.17%

 ---- SURFACE MAPPING GEOMETRY ----
 COORD 1=  -4.20000  COORD 2=   0.00000
 HAS ENERGY VALUE         -1.1108503977
 H             0.0000000000          0.0000000000          0.0000000000
 H             0.0000000000          0.0000000000          0.8000000000
 ----------------------------------
 ...... END OF ONE-ELECTRON INTEGRALS ......

                         TIMING STATISTICS ON RANK 0:
 CPU        TIME:   STEP =      0.00 ,  TOTAL =        2.3 SECONDS (    0.0 MIN)
 WALL CLOCK TIME:   STEP =      0.00 ,  TOTAL =        3.8 SECONDS (    0.1 MIN)
 CPU UTILIZATION:   STEP =      0.00%,  TOTAL =      60.15%

 LOG10 OF CONDITION NUMBER OF OVERLAP MATRIX IS:  6.78449038E-01
 ...... END OF TWO-ELECTRON INTEGRALS .....

                         TIMING STATISTICS ON RANK 0:
 CPU        TIME:   STEP =      0.00 ,  TOTAL =        2.3 SECONDS (    0.0 MIN)
 WALL CLOCK TIME:   STEP =      0.01 ,  TOTAL =        3.8 SECONDS (    0.1 MIN)
 CPU UTILIZATION:   STEP =      0.00%,  TOTAL =      60.04%

 DIRECT SCF CALCULATION, SCHWRZ=T   FDIFF=F

                                                                                                           NONZERO    BLOCKS
 ITER EX   TOTAL ENERGY      E CHANGE  DENSITY CHANGE    DIIS ERROR      VIR. SHIFT       DAMPING        INTEGRALS   SKIPPED
          * * *   INITIATING DIIS PROCEDURE   * * *
   1  0    -1.116151449    -1.116151449   0.000000000   0.000000000     0.000000000     1.000000000              6         0
   2  1    -1.116151449     0.000000000   0.000000000   0.000000000     0.000000000     1.000000000              6         0

          -----------------
          DENSITY CONVERGED
          -----------------
     TIME TO FORM FOCK OPERATORS =       0.00 SECONDS (       0.00 SEC/ITER)
     FOCK TIME ON FIRST ITERATION=       0.00, LAST ITERATION=       0.00
     TIME TO SOLVE SCF EQUATIONS =       0.00 SECONDS (       0.00 SEC/ITER)

 FINAL ENERGY IS       -1.1161514491 AFTER   2 ITERATIONS

          --------------------
          SPIN SZ   =    0.000
          S-SQUARED =    0.000
          --------------------
 ...... END OF UHF CALCULATION ......

                         TIMING STATISTICS ON RANK 0:
 CPU        TIME:   STEP =      0.01 ,  TOTAL =        2.3 SECONDS (    0.0 MIN)
 WALL CLOCK TIME:   STEP =      0.02 ,  TOTAL =        3.8 SECONDS (    0.1 MIN)
 CPU UTILIZATION:   STEP =     56.79%,  TOTAL =      60.03%

 ---- SURFACE MAPPING GEOMETRY ----
 COORD 1=  -4.25000  COORD 2=   0.00000
 HAS ENERGY VALUE         -1.1161514491
 H             0.0000000000          0.0000000000          0.0000000000
 H             0.0000000000          0.0000000000          0.7500000000
 ----------------------------------
 ...... END OF ONE-ELECTRON INTEGRALS ......

                         TIMING STATISTICS ON RANK 0:
 CPU        TIME:   STEP =      0.00 ,  TOTAL =        2.3 SECONDS (    0.0 MIN)
 WALL CLOCK TIME:   STEP =      0.00 ,  TOTAL =        3.8 SECONDS (    0.1 MIN)
 CPU UTILIZATION:   STEP =      0.00%,  TOTAL =      60.01%

 LOG10 OF CONDITION NUMBER OF OVERLAP MATRIX IS:  7.30074699E-01
 ...... END OF TWO-ELECTRON INTEGRALS .....

                         TIMING STATISTICS ON RANK 0:
 CPU        TIME:   STEP =      0.01 ,  TOTAL =        2.3 SECONDS (    0.0 MIN)
 WALL CLOCK TIME:   STEP =      0.01 ,  TOTAL =        3.9 SECONDS (    0.1 MIN)
 CPU UTILIZATION:   STEP =    142.11%,  TOTAL =      60.16%

 DIRECT SCF CALCULATION, SCHWRZ=T   FDIFF=F

                                                                                                           NONZERO    BLOCKS
 ITER EX   TOTAL ENERGY      E CHANGE  DENSITY CHANGE    DIIS ERROR      VIR. SHIFT       DAMPING        INTEGRALS   SKIPPED
          * * *   INITIATING DIIS PROCEDURE   * * *
   1  0    -1.117349035    -1.117349035   0.000000000   0.000000000     0.000000000     1.000000000              6         0
          * * *    REDUCING  DIIS SUBSPACE    * * *
   2  1    -1.117349035     0.000000000   0.000000000   0.000000000     0.000000000     1.000000000              6         0

          -----------------
          DENSITY CONVERGED
          -----------------
     TIME TO FORM FOCK OPERATORS =       0.01 SECONDS (       0.01 SEC/ITER)
     FOCK TIME ON FIRST ITERATION=       0.00, LAST ITERATION=       0.01
     TIME TO SOLVE SCF EQUATIONS =       0.00 SECONDS (       0.00 SEC/ITER)

 FINAL ENERGY IS       -1.1173490350 AFTER   2 ITERATIONS

          --------------------
          SPIN SZ   =    0.000
          S-SQUARED =    0.000
          --------------------
 ...... END OF UHF CALCULATION ......

                         TIMING STATISTICS ON RANK 0:
 CPU        TIME:   STEP =      0.01 ,  TOTAL =        2.3 SECONDS (    0.0 MIN)
 WALL CLOCK TIME:   STEP =      0.02 ,  TOTAL =        3.9 SECONDS (    0.1 MIN)
 CPU UTILIZATION:   STEP =     55.61%,  TOTAL =      60.14%

 ---- SURFACE MAPPING GEOMETRY ----
 COORD 1=  -4.30000  COORD 2=   0.00000
 HAS ENERGY VALUE         -1.1173490350
 H             0.0000000000          0.0000000000          0.0000000000
 H             0.0000000000          0.0000000000          0.7000000000
 ----------------------------------
 ...... END OF ONE-ELECTRON INTEGRALS ......

                         TIMING STATISTICS ON RANK 0:
 CPU        TIME:   STEP =      0.00 ,  TOTAL =        2.3 SECONDS (    0.0 MIN)
 WALL CLOCK TIME:   STEP =      0.00 ,  TOTAL =        3.9 SECONDS (    0.1 MIN)
 CPU UTILIZATION:   STEP =      0.00%,  TOTAL =      60.12%

 LOG10 OF CONDITION NUMBER OF OVERLAP MATRIX IS:  7.86316373E-01
 ...... END OF TWO-ELECTRON INTEGRALS .....

                         TIMING STATISTICS ON RANK 0:
 CPU        TIME:   STEP =      0.01 ,  TOTAL =        2.3 SECONDS (    0.0 MIN)
 WALL CLOCK TIME:   STEP =      0.01 ,  TOTAL =        3.9 SECONDS (    0.1 MIN)
 CPU UTILIZATION:   STEP =     90.82%,  TOTAL =      60.21%

 DIRECT SCF CALCULATION, SCHWRZ=T   FDIFF=F

                                                                                                           NONZERO    BLOCKS
 ITER EX   TOTAL ENERGY      E CHANGE  DENSITY CHANGE    DIIS ERROR      VIR. SHIFT       DAMPING        INTEGRALS   SKIPPED
          * * *   INITIATING DIIS PROCEDURE   * * *
   1  0    -1.112996546    -1.112996546   0.000000000   0.000000000     0.000000000     1.000000000              6         0
   2  1    -1.112996546     0.000000000   0.000000000   0.000000000     0.000000000     1.000000000              6         0

          -----------------
          DENSITY CONVERGED
          -----------------
     TIME TO FORM FOCK OPERATORS =       0.00 SECONDS (       0.00 SEC/ITER)
     FOCK TIME ON FIRST ITERATION=       0.00, LAST ITERATION=       0.00
     TIME TO SOLVE SCF EQUATIONS =       0.00 SECONDS (       0.00 SEC/ITER)

 FINAL ENERGY IS       -1.1129965456 AFTER   2 ITERATIONS

          --------------------
          SPIN SZ   =    0.000
          S-SQUARED =    0.000
          --------------------
 ...... END OF UHF CALCULATION ......

                         TIMING STATISTICS ON RANK 0:
 CPU        TIME:   STEP =      0.01 ,  TOTAL =        2.4 SECONDS (    0.0 MIN)
 WALL CLOCK TIME:   STEP =      0.02 ,  TOTAL =        3.9 SECONDS (    0.1 MIN)
 CPU UTILIZATION:   STEP =     40.57%,  TOTAL =      60.09%

 ---- SURFACE MAPPING GEOMETRY ----
 COORD 1=  -4.35000  COORD 2=   0.00000
 HAS ENERGY VALUE         -1.1129965456
 H             0.0000000000          0.0000000000          0.0000000000
 H             0.0000000000          0.0000000000          0.6500000000
 ----------------------------------
 ...... END OF ONE-ELECTRON INTEGRALS ......

                         TIMING STATISTICS ON RANK 0:
 CPU        TIME:   STEP =      0.00 ,  TOTAL =        2.4 SECONDS (    0.0 MIN)
 WALL CLOCK TIME:   STEP =      0.00 ,  TOTAL =        3.9 SECONDS (    0.1 MIN)
 CPU UTILIZATION:   STEP =      0.00%,  TOTAL =      60.06%

 LOG10 OF CONDITION NUMBER OF OVERLAP MATRIX IS:  8.47890291E-01
 ...... END OF TWO-ELECTRON INTEGRALS .....

                         TIMING STATISTICS ON RANK 0:
 CPU        TIME:   STEP =      0.01 ,  TOTAL =        2.4 SECONDS (    0.0 MIN)
 WALL CLOCK TIME:   STEP =      0.01 ,  TOTAL =        3.9 SECONDS (    0.1 MIN)
 CPU UTILIZATION:   STEP =     91.77%,  TOTAL =      60.15%

 DIRECT SCF CALCULATION, SCHWRZ=T   FDIFF=F

                                                                                                           NONZERO    BLOCKS
 ITER EX   TOTAL ENERGY      E CHANGE  DENSITY CHANGE    DIIS ERROR      VIR. SHIFT       DAMPING        INTEGRALS   SKIPPED
          * * *   INITIATING DIIS PROCEDURE   * * *
   1  0    -1.101128242    -1.101128242   0.000000000   0.000000000     0.000000000     1.000000000              6         0
   2  1    -1.101128242     0.000000000   0.000000000   0.000000000     0.000000000     1.000000000              6         0

          -----------------
          DENSITY CONVERGED
          -----------------
     TIME TO FORM FOCK OPERATORS =       0.00 SECONDS (       0.00 SEC/ITER)
     FOCK TIME ON FIRST ITERATION=       0.00, LAST ITERATION=       0.00
     TIME TO SOLVE SCF EQUATIONS =       0.00 SECONDS (       0.00 SEC/ITER)

 FINAL ENERGY IS       -1.1011282421 AFTER   2 ITERATIONS

          --------------------
          SPIN SZ   =    0.000
          S-SQUARED =    0.000
          --------------------
 ...... END OF UHF CALCULATION ......

                         TIMING STATISTICS ON RANK 0:
 CPU        TIME:   STEP =      0.02 ,  TOTAL =        2.4 SECONDS (    0.0 MIN)
 WALL CLOCK TIME:   STEP =      0.02 ,  TOTAL =        3.9 SECONDS (    0.1 MIN)
 CPU UTILIZATION:   STEP =    105.08%,  TOTAL =      60.37%

 ---- SURFACE MAPPING GEOMETRY ----
 COORD 1=  -4.40000  COORD 2=   0.00000
 HAS ENERGY VALUE         -1.1011282421
 H             0.0000000000          0.0000000000          0.0000000000
 H             0.0000000000          0.0000000000          0.6000000000
 ----------------------------------
 ...... END OF ONE-ELECTRON INTEGRALS ......

                         TIMING STATISTICS ON RANK 0:
 CPU        TIME:   STEP =      0.00 ,  TOTAL =        2.4 SECONDS (    0.0 MIN)
 WALL CLOCK TIME:   STEP =      0.00 ,  TOTAL =        3.9 SECONDS (    0.1 MIN)
 CPU UTILIZATION:   STEP =      0.00%,  TOTAL =      60.35%

 LOG10 OF CONDITION NUMBER OF OVERLAP MATRIX IS:  9.15713141E-01
 ...... END OF TWO-ELECTRON INTEGRALS .....

                         TIMING STATISTICS ON RANK 0:
 CPU        TIME:   STEP =      0.00 ,  TOTAL =        2.4 SECONDS (    0.0 MIN)
 WALL CLOCK TIME:   STEP =      0.01 ,  TOTAL =        4.0 SECONDS (    0.1 MIN)
 CPU UTILIZATION:   STEP =      0.00%,  TOTAL =      60.24%

 DIRECT SCF CALCULATION, SCHWRZ=T   FDIFF=F

                                                                                                           NONZERO    BLOCKS
 ITER EX   TOTAL ENERGY      E CHANGE  DENSITY CHANGE    DIIS ERROR      VIR. SHIFT       DAMPING        INTEGRALS   SKIPPED
          * * *   INITIATING DIIS PROCEDURE   * * *
   1  0    -1.079050736    -1.079050736   0.000000000   0.000000000     0.000000000     1.000000000              6         0
   2  1    -1.079050736     0.000000000   0.000000000   0.000000000     0.000000000     1.000000000              6         0

          -----------------
          DENSITY CONVERGED
          -----------------
     TIME TO FORM FOCK OPERATORS =       0.01 SECONDS (       0.00 SEC/ITER)
     FOCK TIME ON FIRST ITERATION=       0.00, LAST ITERATION=       0.01
     TIME TO SOLVE SCF EQUATIONS =       0.00 SECONDS (       0.00 SEC/ITER)

 FINAL ENERGY IS       -1.0790507358 AFTER   2 ITERATIONS

          --------------------
          SPIN SZ   =    0.000
          S-SQUARED =    0.000
          --------------------
 ...... END OF UHF CALCULATION ......

                         TIMING STATISTICS ON RANK 0:
 CPU        TIME:   STEP =      0.01 ,  TOTAL =        2.4 SECONDS (    0.0 MIN)
 WALL CLOCK TIME:   STEP =      0.02 ,  TOTAL =        4.0 SECONDS (    0.1 MIN)
 CPU UTILIZATION:   STEP =     58.75%,  TOTAL =      60.24%

 ---- SURFACE MAPPING GEOMETRY ----
 COORD 1=  -4.45000  COORD 2=   0.00000
 HAS ENERGY VALUE         -1.0790507358
 H             0.0000000000          0.0000000000          0.0000000000
 H             0.0000000000          0.0000000000          0.5500000000
 ----------------------------------
 ...... END OF ONE-ELECTRON INTEGRALS ......

                         TIMING STATISTICS ON RANK 0:
 CPU        TIME:   STEP =      0.00 ,  TOTAL =        2.4 SECONDS (    0.0 MIN)
 WALL CLOCK TIME:   STEP =      0.00 ,  TOTAL =        4.0 SECONDS (    0.1 MIN)
 CPU UTILIZATION:   STEP =      0.00%,  TOTAL =      60.21%

 LOG10 OF CONDITION NUMBER OF OVERLAP MATRIX IS:  9.90976160E-01
 ...... END OF TWO-ELECTRON INTEGRALS .....

                         TIMING STATISTICS ON RANK 0:
 CPU        TIME:   STEP =      0.01 ,  TOTAL =        2.4 SECONDS (    0.0 MIN)
 WALL CLOCK TIME:   STEP =      0.01 ,  TOTAL =        4.0 SECONDS (    0.1 MIN)
 CPU UTILIZATION:   STEP =     88.48%,  TOTAL =      60.29%

 DIRECT SCF CALCULATION, SCHWRZ=T   FDIFF=F

                                                                                                           NONZERO    BLOCKS
 ITER EX   TOTAL ENERGY      E CHANGE  DENSITY CHANGE    DIIS ERROR      VIR. SHIFT       DAMPING        INTEGRALS   SKIPPED
          * * *   INITIATING DIIS PROCEDURE   * * *
   1  0    -1.042996274    -1.042996274   0.000000000   0.000000000     0.000000000     1.000000000              6         0
   2  1    -1.042996274     0.000000000   0.000000000   0.000000000     0.000000000     1.000000000              6         0

          -----------------
          DENSITY CONVERGED
          -----------------
     TIME TO FORM FOCK OPERATORS =       0.00 SECONDS (       0.00 SEC/ITER)
     FOCK TIME ON FIRST ITERATION=       0.00, LAST ITERATION=       0.00
     TIME TO SOLVE SCF EQUATIONS =       0.00 SECONDS (       0.00 SEC/ITER)

 FINAL ENERGY IS       -1.0429962740 AFTER   2 ITERATIONS

          --------------------
          SPIN SZ   =    0.000
          S-SQUARED =    0.000
          --------------------
 ...... END OF UHF CALCULATION ......

                         TIMING STATISTICS ON RANK 0:
 CPU        TIME:   STEP =      0.01 ,  TOTAL =        2.4 SECONDS (    0.0 MIN)
 WALL CLOCK TIME:   STEP =      0.02 ,  TOTAL =        4.0 SECONDS (    0.1 MIN)
 CPU UTILIZATION:   STEP =     40.28%,  TOTAL =      60.16%

 ---- SURFACE MAPPING GEOMETRY ----
 COORD 1=  -4.50000  COORD 2=   0.00000
 HAS ENERGY VALUE         -1.0429962740
 H             0.0000000000          0.0000000000          0.0000000000
 H             0.0000000000          0.0000000000          0.5000000000
 ----------------------------------
 ...... END OF ONE-ELECTRON INTEGRALS ......

                         TIMING STATISTICS ON RANK 0:
 CPU        TIME:   STEP =      0.00 ,  TOTAL =        2.4 SECONDS (    0.0 MIN)
 WALL CLOCK TIME:   STEP =      0.00 ,  TOTAL =        4.0 SECONDS (    0.1 MIN)
 CPU UTILIZATION:   STEP =      0.00%,  TOTAL =      60.14%

 LOG10 OF CONDITION NUMBER OF OVERLAP MATRIX IS:  1.07525551E+00
 ...... END OF TWO-ELECTRON INTEGRALS .....

                         TIMING STATISTICS ON RANK 0:
 CPU        TIME:   STEP =      0.02 ,  TOTAL =        2.4 SECONDS (    0.0 MIN)
 WALL CLOCK TIME:   STEP =      0.01 ,  TOTAL =        4.0 SECONDS (    0.1 MIN)
 CPU UTILIZATION:   STEP =    189.20%,  TOTAL =      60.48%

 DIRECT SCF CALCULATION, SCHWRZ=T   FDIFF=F

                                                                                                           NONZERO    BLOCKS
 ITER EX   TOTAL ENERGY      E CHANGE  DENSITY CHANGE    DIIS ERROR      VIR. SHIFT       DAMPING        INTEGRALS   SKIPPED
          * * *   INITIATING DIIS PROCEDURE   * * *
   1  0    -0.987513137    -0.987513137   0.000000000   0.000000000     0.000000000     1.000000000              6         0
   2  1    -0.987513137     0.000000000   0.000000000   0.000000000     0.000000000     1.000000000              6         0

          -----------------
          DENSITY CONVERGED
          -----------------
     TIME TO FORM FOCK OPERATORS =       0.00 SECONDS (       0.00 SEC/ITER)
     FOCK TIME ON FIRST ITERATION=       0.00, LAST ITERATION=       0.00
     TIME TO SOLVE SCF EQUATIONS =       0.00 SECONDS (       0.00 SEC/ITER)

 FINAL ENERGY IS       -0.9875131370 AFTER   2 ITERATIONS

          --------------------
          SPIN SZ   =    0.000
          S-SQUARED =    0.000
          --------------------
 ...... END OF UHF CALCULATION ......

                         TIMING STATISTICS ON RANK 0:
 CPU        TIME:   STEP =      0.01 ,  TOTAL =        2.4 SECONDS (    0.0 MIN)
 WALL CLOCK TIME:   STEP =      0.02 ,  TOTAL =        4.0 SECONDS (    0.1 MIN)
 CPU UTILIZATION:   STEP =     41.89%,  TOTAL =      60.37%

 ---- SURFACE MAPPING GEOMETRY ----
 COORD 1=  -4.55000  COORD 2=   0.00000
 HAS ENERGY VALUE         -0.9875131370
 H             0.0000000000          0.0000000000          0.0000000000
 H             0.0000000000          0.0000000000          0.4500000000
 ----------------------------------
 ...... END OF ONE-ELECTRON INTEGRALS ......

                         TIMING STATISTICS ON RANK 0:
 CPU        TIME:   STEP =      0.00 ,  TOTAL =        2.4 SECONDS (    0.0 MIN)
 WALL CLOCK TIME:   STEP =      0.00 ,  TOTAL =        4.0 SECONDS (    0.1 MIN)
 CPU UTILIZATION:   STEP =      0.00%,  TOTAL =      60.35%

 LOG10 OF CONDITION NUMBER OF OVERLAP MATRIX IS:  1.17068514E+00
 ...... END OF TWO-ELECTRON INTEGRALS .....

                         TIMING STATISTICS ON RANK 0:
 CPU        TIME:   STEP =      0.00 ,  TOTAL =        2.4 SECONDS (    0.0 MIN)
 WALL CLOCK TIME:   STEP =      0.01 ,  TOTAL =        4.0 SECONDS (    0.1 MIN)
 CPU UTILIZATION:   STEP =      0.00%,  TOTAL =      60.25%

 DIRECT SCF CALCULATION, SCHWRZ=T   FDIFF=F

                                                                                                           NONZERO    BLOCKS
 ITER EX   TOTAL ENERGY      E CHANGE  DENSITY CHANGE    DIIS ERROR      VIR. SHIFT       DAMPING        INTEGRALS   SKIPPED
          * * *   INITIATING DIIS PROCEDURE   * * *
   1  0    -0.904361393    -0.904361393   0.000000000   0.000000000     0.000000000     1.000000000              6         0
          * * *    REDUCING  DIIS SUBSPACE    * * *
   2  1    -0.904361393     0.000000000   0.000000000   0.000000000     0.000000000     1.000000000              6         0

          -----------------
          DENSITY CONVERGED
          -----------------
     TIME TO FORM FOCK OPERATORS =       0.01 SECONDS (       0.00 SEC/ITER)
     FOCK TIME ON FIRST ITERATION=       0.01, LAST ITERATION=       0.00
     TIME TO SOLVE SCF EQUATIONS =       0.00 SECONDS (       0.00 SEC/ITER)

 FINAL ENERGY IS       -0.9043613933 AFTER   2 ITERATIONS

          --------------------
          SPIN SZ   =    0.000
          S-SQUARED =    0.000
          --------------------
 ...... END OF UHF CALCULATION ......

                         TIMING STATISTICS ON RANK 0:
 CPU        TIME:   STEP =      0.01 ,  TOTAL =        2.4 SECONDS (    0.0 MIN)
 WALL CLOCK TIME:   STEP =      0.02 ,  TOTAL =        4.1 SECONDS (    0.1 MIN)
 CPU UTILIZATION:   STEP =     57.62%,  TOTAL =      60.24%

 ---- SURFACE MAPPING GEOMETRY ----
 COORD 1=  -4.60000  COORD 2=   0.00000
 HAS ENERGY VALUE         -0.9043613933
 H             0.0000000000          0.0000000000          0.0000000000
 H             0.0000000000          0.0000000000          0.4000000000
 ----------------------------------


 OVERALL RESULTS OF THE POTENTIAL SURFACE SCAN

 ------------------------------------
   ICOORD1,     |
    COORD1      |       ENERGY
 ---------------+--------------------
  1 (   0.00000)|       -0.9331637237  
  2 (  -0.05000)|       -0.9331637303  
  3 (  -0.10000)|       -0.9331637388  
  4 (  -0.15000)|       -0.9331637496  
  5 (  -0.20000)|       -0.9331637634  
  6 (  -0.25000)|       -0.9331637807  
  7 (  -0.30000)|       -0.9331638027  
  8 (  -0.35000)|       -0.9331638303  
  9 (  -0.40000)|       -0.9331638649  
 10 (  -0.45000)|       -0.9331639084  
 11 (  -0.50000)|       -0.9331639628  
 12 (  -0.55000)|       -0.9331640307  
 13 (  -0.60000)|       -0.9331641153  
 14 (  -0.65000)|       -0.9331642204  
 15 (  -0.70000)|       -0.9331643509  
 16 (  -0.75000)|       -0.9331645125  
 17 (  -0.80000)|       -0.9331647124  
 18 (  -0.85000)|       -0.9331649590  
 19 (  -0.90000)|       -0.9331652630  
 20 (  -0.95000)|       -0.9331656369  
 21 (  -1.00000)|       -0.9331660961  
 22 (  -1.05000)|       -0.9331666591  
 23 (  -1.10000)|       -0.9331673485  
 24 (  -1.15000)|       -0.9331681911  
 25 (  -1.20000)|       -0.9331692195  
 26 (  -1.25000)|       -0.9331704726  
 27 (  -1.30000)|       -0.9331719972  
 28 (  -1.35000)|       -0.9331738490  
 29 (  -1.40000)|       -0.9331760948  
 30 (  -1.45000)|       -0.9331788140  
 31 (  -1.50000)|       -0.9331821011  
 32 (  -1.55000)|       -0.9331860681  
 33 (  -1.60000)|       -0.9331908481  
 34 (  -1.65000)|       -0.9331965981  
 35 (  -1.70000)|       -0.9332035039  
 36 (  -1.75000)|       -0.9332117848  
 37 (  -1.80000)|       -0.9332216991  
 38 (  -1.85000)|       -0.9332335516  
 39 (  -1.90000)|       -0.9332477012  
 40 (  -1.95000)|       -0.9332645710  
 41 (  -2.00000)|       -0.9332846600  
 42 (  -2.05000)|       -0.9333085573  
 43 (  -2.10000)|       -0.9333369595  
 44 (  -2.15000)|       -0.9333706915  
 45 (  -2.20000)|       -0.9334107322  
 46 (  -2.25000)|       -0.9334582460  
 47 (  -2.30000)|       -0.9335146206  
 48 (  -2.35000)|       -0.9335815135  
 49 (  -2.40000)|       -0.9336609090  
 50 (  -2.45000)|       -0.9337551868  
 51 (  -2.50000)|       -0.9338672048  
 52 (  -2.55000)|       -0.9340004003  
 53 (  -2.60000)|       -0.9341589109  
 54 (  -2.65000)|       -0.9343477197  
 55 (  -2.70000)|       -0.9345728302  
 56 (  -2.75000)|       -0.9348414752  
 57 (  -2.80000)|       -0.9351623660  
 58 (  -2.85000)|       -0.9355459916  
 59 (  -2.90000)|       -0.9360049756  
 60 (  -2.95000)|       -0.9365545033  
 61 (  -3.00000)|       -0.9372128347  
 62 (  -3.05000)|       -0.9380019192  
 63 (  -3.10000)|       -0.9389481356  
 64 (  -3.15000)|       -0.9400831837  
 65 (  -3.20000)|       -0.9414451568  
 66 (  -3.25000)|       -0.9430798339  
 67 (  -3.30000)|       -0.9450422306  
 68 (  -3.35000)|       -0.9473984544  
 69 (  -3.40000)|       -0.9502279135  
 70 (  -3.45000)|       -0.9536259274  
 71 (  -3.50000)|       -0.9577067948  
 72 (  -3.55000)|       -0.9626073792  
 73 (  -3.60000)|       -0.9684912902  
 74 (  -3.65000)|       -0.9755537870  
 75 (  -3.70000)|       -0.9840276155  
 76 (  -3.75000)|       -0.9941901548  
 77 (  -3.80000)|       -1.0063725120  
 78 (  -3.85000)|       -1.0209641441  
 79 (  -3.90000)|       -1.0365388755  
 80 (  -3.95000)|       -1.0516567561  
 81 (  -4.00000)|       -1.0661086497  
 82 (  -4.05000)|       -1.0796369286  
 83 (  -4.10000)|       -1.0919140413  
 84 (  -4.15000)|       -1.1025105542  
 85 (  -4.20000)|       -1.1108503977  
 86 (  -4.25000)|       -1.1161514491  
 87 (  -4.30000)|       -1.1173490350  
 88 (  -4.35000)|       -1.1129965456  
 89 (  -4.40000)|       -1.1011282421  
 90 (  -4.45000)|       -1.0790507358  
 91 (  -4.50000)|       -1.0429962740  
 92 (  -4.55000)|       -0.9875131370  
 93 (  -4.60000)|       -0.9043613933  


 ENERGY DELTA MAP(S) (W.R. TO THE LOWEST FOUND)

 ------------------------------------
   ICOORD1,     |         ENERGY
    COORD1      |         DELTA
 ---------------+--------------------
  1 (   0.00000)|        0.1841853113  
  2 (  -0.05000)|        0.1841853047  
  3 (  -0.10000)|        0.1841852962  
  4 (  -0.15000)|        0.1841852854  
  5 (  -0.20000)|        0.1841852716  
  6 (  -0.25000)|        0.1841852543  
  7 (  -0.30000)|        0.1841852324  
  8 (  -0.35000)|        0.1841852048  
  9 (  -0.40000)|        0.1841851701  
 10 (  -0.45000)|        0.1841851266  
 11 (  -0.50000)|        0.1841850722  
 12 (  -0.55000)|        0.1841850043  
 13 (  -0.60000)|        0.1841849197  
 14 (  -0.65000)|        0.1841848146  
 15 (  -0.70000)|        0.1841846841  
 16 (  -0.75000)|        0.1841845225  
 17 (  -0.80000)|        0.1841843226  
 18 (  -0.85000)|        0.1841840760  
 19 (  -0.90000)|        0.1841837720  
 20 (  -0.95000)|        0.1841833982  
 21 (  -1.00000)|        0.1841829389  
 22 (  -1.05000)|        0.1841823759  
 23 (  -1.10000)|        0.1841816865  
 24 (  -1.15000)|        0.1841808439  
 25 (  -1.20000)|        0.1841798155  
 26 (  -1.25000)|        0.1841785624  
 27 (  -1.30000)|        0.1841770378  
 28 (  -1.35000)|        0.1841751860  
 29 (  -1.40000)|        0.1841729402  
 30 (  -1.45000)|        0.1841702210  
 31 (  -1.50000)|        0.1841669339  
 32 (  -1.55000)|        0.1841629669  
 33 (  -1.60000)|        0.1841581869  
 34 (  -1.65000)|        0.1841524369  
 35 (  -1.70000)|        0.1841455311  
 36 (  -1.75000)|        0.1841372503  
 37 (  -1.80000)|        0.1841273359  
 38 (  -1.85000)|        0.1841154834  
 39 (  -1.90000)|        0.1841013338  
 40 (  -1.95000)|        0.1840844640  
 41 (  -2.00000)|        0.1840643750  
 42 (  -2.05000)|        0.1840404777  
 43 (  -2.10000)|        0.1840120755  
 44 (  -2.15000)|        0.1839783435  
 45 (  -2.20000)|        0.1839383028  
 46 (  -2.25000)|        0.1838907890  
 47 (  -2.30000)|        0.1838344145  
 48 (  -2.35000)|        0.1837675215  
 49 (  -2.40000)|        0.1836881260  
 50 (  -2.45000)|        0.1835938483  
 51 (  -2.50000)|        0.1834818302  
 52 (  -2.55000)|        0.1833486347  
 53 (  -2.60000)|        0.1831901241  
 54 (  -2.65000)|        0.1830013153  
 55 (  -2.70000)|        0.1827762048  
 56 (  -2.75000)|        0.1825075598  
 57 (  -2.80000)|        0.1821866690  
 58 (  -2.85000)|        0.1818030434  
 59 (  -2.90000)|        0.1813440594  
 60 (  -2.95000)|        0.1807945317  
 61 (  -3.00000)|        0.1801362003  
 62 (  -3.05000)|        0.1793471159  
 63 (  -3.10000)|        0.1784008994  
 64 (  -3.15000)|        0.1772658513  
 65 (  -3.20000)|        0.1759038782  
 66 (  -3.25000)|        0.1742692011  
 67 (  -3.30000)|        0.1723068045  
 68 (  -3.35000)|        0.1699505806  
 69 (  -3.40000)|        0.1671211215  
 70 (  -3.45000)|        0.1637231077  
 71 (  -3.50000)|        0.1596422402  
 72 (  -3.55000)|        0.1547416558  
 73 (  -3.60000)|        0.1488577448  
 74 (  -3.65000)|        0.1417952480  
 75 (  -3.70000)|        0.1333214195  
 76 (  -3.75000)|        0.1231588802  
 77 (  -3.80000)|        0.1109765230  
 78 (  -3.85000)|        0.0963848909  
 79 (  -3.90000)|        0.0808101595  
 80 (  -3.95000)|        0.0656922789  
 81 (  -4.00000)|        0.0512403853  
 82 (  -4.05000)|        0.0377121064  
 83 (  -4.10000)|        0.0254349937  
 84 (  -4.15000)|        0.0148384808  
 85 (  -4.20000)|        0.0064986373  
 86 (  -4.25000)|        0.0011975860  
 87 (  -4.30000)|        0.0000000000  
 88 (  -4.35000)|        0.0043524894  
 89 (  -4.40000)|        0.0162207930  
 90 (  -4.45000)|        0.0382982992  
 91 (  -4.50000)|        0.0743527610  
 92 (  -4.55000)|        0.1298358980  
 93 (  -4.60000)|        0.2129876417  

 ... DONE WITH POTENTIAL SURFACE SCAN ...

                         TIMING STATISTICS ON RANK 0:
 CPU        TIME:   STEP =      0.00 ,  TOTAL =        2.4 SECONDS (    0.0 MIN)
 WALL CLOCK TIME:   STEP =      0.00 ,  TOTAL =        4.1 SECONDS (    0.1 MIN)
 CPU UTILIZATION:   STEP =      0.00%,  TOTAL =      60.23%

                         OVERALL  TIMING  STATISTICS:
 GLOBAL CPU TIME ELAPSED      =        18.9 SECONDS (     0.3 MIN)
 RANK 0 WALL CLOCK TIME       =         4.1 SECONDS (     0.1 MIN)
 JOB CPU UTILIZATION:   TOTAL =    464.15%, PER RANK AVERAGE =     58.03%

      396843 WORDS OF    DYNAMIC MEMORY USED
     5585795 BYTES OF    HEAP MEMORY    USED,      113783 BYTES REMAIN IN USE

 WARNING! THIS VERSION OF FIREFLY IS PROBABLY OUTDATED!
 PLEASE CHECK FIREFLY HOMEPAGE FOR INFORMATION ON UPDATES!

 EXECUTION OF FIREFLY TERMINATED NORMALLY 23:11:24  4-JUN-2026    
