                       Running on host yaroslavhonor

          ******************************************************
          *      Firefly version 8.2.0, build number 10203     *
          *   Compiled on    Monday,    19-09-2016, 15:30:23   *
          *Code development and Intel/AMD specific optimization*
          *  Copyright (c) 1994, 2016 by  Alex A. Granovsky,   *
          *          Firefly Project, Moscow, Russia.          *
          *   Some parts of this program include code due to   *
          * work of Jim Kress, Peter Burger, and Robert Ponec. *
          ******************************************************
          *             Firefly Project homepage:              *
          * http://classic.chem.msu.su/gran/firefly/index.html *
          *                      e-mail:                       *
          *               gran@classic.chem.msu.su             *
          *This program is not a free software and is provided *
          *exclusively to its registered users under the terms *
          *       of Firefly package license agreement         *
          * Unauthorized use of Firefly is strongly prohibited *
          *   This program may not be redistributed without    *
          * the specific, written permission of its developers.*
          ******************************************************

          ******************************************************
          *  PARTIALLY BASED ON  US GAMESS VERSION 6 JUN 1999, *
          *   US GAMESS VERSIONS  6 SEP 2001 AND 12 DEC 2003   *
          *             FROM IOWA STATE UNIVERSITY             *
          * M.W.SCHMIDT, K.K.BALDRIDGE, J.A.BOATZ, S.T.ELBERT, *
          *   M.S.GORDON, J.H.JENSEN, S.KOSEKI, N.MATSUNAGA,   *
          *          K.A.NGUYEN, S.J.SU, T.L.WINDUS,           *
          *       TOGETHER WITH M.DUPUIS, J.A.MONTGOMERY       *
          *         J.COMPUT.CHEM.  14, 1347-1363(1993)        *
          ******************************************************


 Core i7    / Linux  Firefly version running under Linux.
 Running on Intel CPU:  Brand ID  0, Family  6, Model 170, Stepping  4
 CPU Brand String    :  Intel(R) Core(TM) Ultra 5 125H                  
 CPU Features        :  x87 FPU, CMOV, MMX, SSE, SSE2, SSE3, SSSE3, SSE4.1, SSE4.2, AVX, AVX2, FMA3, HTT, MWAIT, EM64T
 Data cache size     :  L1 48 KB, L2 2048 KB, L3 18432 KB
 max    # of   cores/package :  64
 max    # of threads/package : 128
 max     cache sharing level :  64
 actual # of   cores/package :   9
 actual # of threads/package :  18
 actual # of threads/core    :   2
 Operating System successfully passed SSE support test.
 Operating System supports AVX/FMA.


 PARALLEL VERSION (MPICH) RUNNING IN SERIAL MODE USING SINGLE PROCESS


 WARNING! THIS VERSION OF FIREFLY IS PROBABLY OUTDATED!
 PLEASE CHECK FIREFLY HOMEPAGE FOR INFORMATION ON UPDATES!

 EXECUTION OF FIREFLY BEGUN  0:52:17 24-APR-2026    

            ECHO OF THE FIRST FEW INPUT CARDS -
 INPUT CARD> $CONTRL D5=.T. EXETYP=RUN FSTINT=.T. GENCON=.F. ICHARG=0 ICUT=13 INTTYP=HONDO  
 INPUT CARD>      ITOL=30 MAXIT=100 MULT=1 RUNTYP=ENERGY SCFTYP=RHF WIDE=1 $END             
 INPUT CARD> $MOORTH NOSTF=.T. NOZERO=.T. SYMDEN=.T. SYMS=.T. SYMVEC=.T. SYMVX=.T.          
 INPUT CARD>      TOLE=0.0D0 TOLZ=0.0D0 $END                                                
 INPUT CARD> $GUESS GUESS=HUCKEL $END                                                       
 INPUT CARD> $BASIS GBASIS=N31 NGAUSS=6 $END                                                
 INPUT CARD> $SYSTEM KDIAG=0 MASMEM=200000000 MWORDS=200 MXBCST=-1 NOJAC=1 TIMLIM=60000 $END
 INPUT CARD> $SCF DAMP=.T. DIIS=.T. DIRSCF=.T. FDIFF=.F. SHIFT=.T. SOSCF=.F. $END           
 INPUT CARD> $DATA                                                                          
 INPUT CARD>H2 RHF/6-31G, basis-size comparison                                             
 INPUT CARD>C1                                                                              
 INPUT CARD>H     1.0     0.0000000000     0.0000000000    -0.3700000000                    
 INPUT CARD>H     1.0     0.0000000000     0.0000000000     0.3700000000                    
 INPUT CARD> $END                                                                           
  200000000 WORDS OF MEMORY AVAILABLE

 This job is executing on     1 unique host(s)
 Minimum number of processes per host is:    1
 Maximum number of processes per host is:    1

 On master's host, detected   18 CPU core(s) in aggregate

 Using processor-specific dynamic link DGEMM library code.


 Warning: HTT is enabled, bitmask of physically unique cores is 0x000000B4

 SMT aware parts of program will use              2 threads.

 Creating thread pool to serve up to            128 threads.

     BASIS OPTIONS
     -------------
     GBASIS=N31          IGAUSS=       6      POLAR=NONE    
     NDFUNC=       0     NFFUNC=       0     DIFFSP=       F
     NPFUNC=       0      DIFFS=       F


     RUN TITLE
     ---------
 H2 RHF/6-31G, basis-size comparison                                             

 THE POINT GROUP OF THE MOLECULE IS C1      
 THE ORDER OF THE PRINCIPAL AXIS IS     0

 ATOM      ATOMIC                      COORDINATES (BOHR)
           CHARGE         X                   Y                   Z
 H           1.0     0.0000000000        0.0000000000       -0.6991986664
 H           1.0     0.0000000000        0.0000000000        0.6991986664

          INTERNUCLEAR DISTANCES (ANGS.)
          ------------------------------

                    H              H         

  1  H               0.0000000      0.7400000 *  
  2  H               0.7400000 *    0.0000000    

  * ... LESS THAN  3.000


     ATOMIC BASIS SET
     ----------------
 THE CONTRACTED PRIMITIVE FUNCTIONS HAVE BEEN UNNORMALIZED
 THE CONTRACTED BASIS FUNCTIONS ARE NOW NORMALIZED TO UNITY

 SHELL TYPE PRIM    EXPONENT          CONTRACTION COEFFICIENTS

 H         

   1   S    1      18.731137    0.214935 (  0.033495) 
   1   S    2       2.825394    0.364571 (  0.234727) 
   1   S    3       0.640122    0.415051 (  0.813757) 

   2   S    4       0.161278    0.181381 (  1.000000) 

 H         

   3   S    5      18.731137    0.214935 (  0.033495) 
   3   S    6       2.825394    0.364571 (  0.234727) 
   3   S    7       0.640122    0.415051 (  0.813757) 

   4   S    8       0.161278    0.181381 (  1.000000) 

 TOTAL NUMBER OF SHELLS              =    4
 TOTAL NUMBER OF BASIS FUNCTIONS     =    4
 NUMBER OF ELECTRONS                 =    2
 CHARGE OF MOLECULE                  =    0
 STATE MULTIPLICITY                  =    1
 NUMBER OF OCCUPIED ORBITALS (ALPHA) =    1
 NUMBER OF OCCUPIED ORBITALS (BETA ) =    1
 TOTAL NUMBER OF ATOMS               =    2
 THE NUCLEAR REPULSION ENERGY IS        0.7151043387

 THIS MOLECULE IS RECOGNIZED AS BEING LINEAR.

     $CONTRL OPTIONS
     ---------------
     SCFTYP=RHF          RUNTYP=ENERGY       EXETYP=RUN     
     MPLEVL=       0     LOCAL =NONE         UNITS =ANGS    
     MULT  =       1     ICHARG=       0     MAXIT =     100
     NPRINT=       7     IREST =       0     COORD =UNIQUE  
     ECP   =NONE         NORMF =       0     NORMP =       0
     ITOL  =      30     ICUT  =      13     NZVAR =       0
     NOSYM =       0     INTTYP=HONDO        GEOM  =INPUT   
     PLTORB=       F     MOLPLT=       F     RPAC  =       F
     AIMPAC=       0     FRIEND=             CITYP =NONE    
     DFTTYP=NONE    

     $SYSTEM OPTIONS
     ---------------
     KDIAG =       0     MEMORY=200000000     TIMLIM=  3600000.0 SEC.
     COREFL=       F     PTIME =        F     XDR   =       F
     BALTYP=LOOP         CBASE = E67D1000     FBASE = EBD110C0

          ----------------
          PROPERTIES INPUT
          ----------------

     MOMENTS            FIELD           POTENTIAL          DENSITY
 IEMOM =       1   IEFLD =       0   IEPOT =       0   IEDEN =       0
 WHERE =COMASS     WHERE =NUCLEI     WHERE =NUCLEI     WHERE =NUCLEI  
 OUTPUT=BOTH       OUTPUT=BOTH       OUTPUT=BOTH       OUTPUT=BOTH    
 IEMINT=       0   IEFINT=       0                     IEDINT=       0
                                                       MORB  =       0

          EXTRAPOLATION IN EFFECT
          DAMPING IN EFFECT
          LEVEL SHIFTING IN EFFECT
          DIIS IN EFFECT

          ----------------------
          INTEGRAL INPUT OPTIONS
          ----------------------
 NOPK  =       1 NORDER=       0 SCHWRZ=       T

 ATTENTION! AO INTEGRALS WILL BE PACKED.
 THRESHOLD FOR PACKING PKTHR =  0.10000000D-05

     -------------------------------
     INTEGRAL TRANSFORMATION OPTIONS
     -------------------------------
     NWORD  =       0     CUTTRF = 1.0E-09
     MPTRAN =       0     DIRTRF =       T
     AOINTS =DUP          IREST  =       0

     ------------------------------------------
     THE POINT GROUP IS C1 , NAXIS= 0, ORDER= 1
     ------------------------------------------

     DIMENSIONS OF THE SYMMETRY SUBSPACES ARE
 A   =   4

 ..... DONE SETTING UP THE RUN .....

 CPU        TIME:   STEP =      0.03 ,  TOTAL =        0.1 SECONDS (    0.0 MIN)
 WALL CLOCK TIME:   STEP =      0.03 ,  TOTAL =        0.0 SECONDS (    0.0 MIN)
 CPU UTILIZATION:   STEP =     92.08%,  TOTAL =     214.86%

          ********************
          1 ELECTRON INTEGRALS
          ********************
 ...... END OF ONE-ELECTRON INTEGRALS ......

 CPU        TIME:   STEP =      0.00 ,  TOTAL =        0.1 SECONDS (    0.0 MIN)
 WALL CLOCK TIME:   STEP =      0.00 ,  TOTAL =        0.0 SECONDS (    0.0 MIN)
 CPU UTILIZATION:   STEP =      0.00%,  TOTAL =     214.49%

          -------------
          GUESS OPTIONS
          -------------
          GUESS =HUCKEL            NORB  =       0          NORDER=       0
          MIX   =       F          PRTMO =       F          SYMDEN=       F
          TOLZ  = 0.0E+00          TOLE  = 0.0E+00

 INITIAL GUESS ORBITALS GENERATED BY HUCKEL   ROUTINE.
 HUCKEL GUESS REQUIRES      1424 WORDS.

 LOG10 OF CONDITION NUMBER OF OVERLAP MATRIX IS:  1.46985465E+00

 SYMMETRIES FOR INITIAL GUESS ORBITALS FOLLOW.   BOTH SET(S).
     1 ORBITALS ARE OCCUPIED (    0 CORE ORBITALS).
     1=A        2=A        3=A        4=A   
 ...... END OF INITIAL ORBITAL SELECTION ......

 CPU        TIME:   STEP =      0.00 ,  TOTAL =        0.1 SECONDS (    0.0 MIN)
 WALL CLOCK TIME:   STEP =      0.00 ,  TOTAL =        0.0 SECONDS (    0.0 MIN)
 CPU UTILIZATION:   STEP =      0.00%,  TOTAL =     197.78%

          --------------------
          2 ELECTRON INTEGRALS
          --------------------

 DIRECT SCF METHOD SKIPS INTEGRAL STORAGE ON DISK.
 DIRECT TRANSFORMATION SKIPS AO INTEGRAL STORAGE ON DISK.
 SCHWARZ INEQUALITY OVERHEAD:        10 INTEGRALS, CPU TIME=        0.00
 ...... END OF TWO-ELECTRON INTEGRALS .....

 CPU        TIME:   STEP =      0.00 ,  TOTAL =        0.1 SECONDS (    0.0 MIN)
 WALL CLOCK TIME:   STEP =      0.00 ,  TOTAL =        0.0 SECONDS (    0.0 MIN)
 CPU UTILIZATION:   STEP =      0.00%,  TOTAL =     197.42%

          -------------------
          RHF SCF CALCULATION
          -------------------

     NUCLEAR ENERGY =         0.7151043387
     MAXIT =  100     NPUNCH=    2
     EXTRAP=T  DAMP=T  SHIFT=T  RSTRCT=F  DIIS=T  DEM=F  SOSCF=F
     DENSITY CONV=  2.00E-05
     MEMORY REQUIRED FOR RHF STEP=     15380 WORDS.

 DIRECT SCF CALCULATION, SCHWRZ=T   FDIFF=F
 SCHWARZ INEQUALITY OVERHEAD:        10 INTEGRALS, CPU TIME=        0.00

                                                                                                              NONZERO    BLOCKS
 ITER EX DEM  TOTAL ENERGY      E CHANGE  DENSITY CHANGE    DIIS ERROR      VIR. SHIFT       DAMPING        INTEGRALS   SKIPPED
          * * *   INITIATING DIIS PROCEDURE   * * *
   1  0  0    -1.120496610    -1.120496610   0.046622012   0.120093558     0.000000000     1.000000000             55         0
   2  1  0    -1.126611840    -0.006115231   0.007942517   0.018284353     0.000000000     1.000000000             55         0
   3  2  0    -1.126755312    -0.000143472   0.000022992   0.000053357     0.000000000     1.000000000             55         0
   4  3  0    -1.126755313    -0.000000001   0.000000000   0.000000178     0.000000000     1.000000000             55         0
          * * *    REDUCING  DIIS SUBSPACE    * * *
          * * *    REDUCING  DIIS SUBSPACE    * * *
   5  4  0    -1.126755313     0.000000000   0.000000076   0.000000178     0.000000000     1.000000000             55         0

          -----------------
          DENSITY CONVERGED
          -----------------
     TIME TO FORM FOCK OPERATORS =       0.00 SECONDS (       0.00 SEC/ITER)
     FOCK TIME ON FIRST ITERATION=       0.00, LAST ITERATION=       0.00
     TIME TO SOLVE SCF EQUATIONS =       0.00 SECONDS (       0.00 SEC/ITER)

 FINAL ENERGY IS       -1.1267553135 AFTER   5 ITERATIONS

          ------------
          EIGENVECTORS
          ------------

                      1          2          3          4
                   -0.5958     0.2385     0.7747     1.4044
                     A          A          A          A   
    1  H   1  S  -0.326935  -0.122649  -0.766315   1.122634
    2  H   1  S  -0.271806  -1.714895   0.686252  -1.349432
    3  H   2  S  -0.326935   0.122649  -0.766315  -1.122634
    4  H   2  S  -0.271806   1.714895   0.686252   1.349432

 WARNING! THIS VERSION OF FIREFLY IS PROBABLY OUTDATED!
 PLEASE CHECK FIREFLY HOMEPAGE FOR INFORMATION ON UPDATES!

 ...... END OF RHF CALCULATION ......

 CPU        TIME:   STEP =      0.00 ,  TOTAL =        0.1 SECONDS (    0.0 MIN)
 WALL CLOCK TIME:   STEP =      0.00 ,  TOTAL =        0.0 SECONDS (    0.0 MIN)
 CPU UTILIZATION:   STEP =      0.00%,  TOTAL =     188.74%


                         ------------------------------
                         properties for the RHF density
                         ------------------------------

          -----------------
          ENERGY COMPONENTS
          -----------------

         WAVEFUNCTION NORMALIZATION =       1.0000000000

                ONE ELECTRON ENERGY =      -2.4920846822
                TWO ELECTRON ENERGY =       0.6502250300
           NUCLEAR REPULSION ENERGY =       0.7151043387
                                      ------------------
                       TOTAL ENERGY =      -1.1267553135

 ELECTRON-ELECTRON POTENTIAL ENERGY =       0.6502250300
  NUCLEUS-ELECTRON POTENTIAL ENERGY =      -3.6173202099
   NUCLEUS-NUCLEUS POTENTIAL ENERGY =       0.7151043387
                                      ------------------
             TOTAL POTENTIAL ENERGY =      -2.2519908411
               TOTAL KINETIC ENERGY =       1.1252355277
                 VIRIAL RATIO (V/T) =       2.0013506379

  ...... PI ENERGY ANALYSIS ......

 ENERGY ANALYSIS:
            FOCK ENERGY=      -1.1916345712
          BARE H ENERGY=      -2.4920846822
     ELECTRONIC ENERGY =      -1.8418596267
         KINETIC ENERGY=       1.1252355277
          N-N REPULSION=       0.7151043387
           TOTAL ENERGY=      -1.1267552879
        SIGMA PART(1+2)=      -1.8418596267
               (K,V1,2)=       1.1252355277      -3.6173202099       0.6502250555
           PI PART(1+2)=       0.0000000000
               (K,V1,2)=       0.0000000000       0.0000000000       0.0000000000
  SIGMA SKELETON, ERROR=      -1.1267552879       0.0000000000
             MIXED PART= 0.00000E+00 0.00000E+00 0.00000E+00 0.00000E+00
 ...... END OF PI ENERGY ANALYSIS ......

          ---------------------------------------
          MULLIKEN AND LOWDIN POPULATION ANALYSES
          ---------------------------------------

     MULLIKEN ATOMIC POPULATION IN EACH MOLECULAR ORBITAL

                      1

                  2.000000

    1             1.000000
    2             1.000000

               ----- POPULATIONS IN EACH AO -----
                             MULLIKEN      LOWDIN
              1  H   1  S     0.51857     0.48785
              2  H   1  S     0.48143     0.51215
              3  H   2  S     0.51857     0.48785
              4  H   2  S     0.48143     0.51215

          ----- MULLIKEN ATOMIC OVERLAP POPULATIONS -----
          (OFF-DIAGONAL ELEMENTS NEED TO BE MULTIPLIED BY 2)

             1           2

    1    0.5955211
    2    0.4044789   0.5955211

          TOTAL MULLIKEN AND LOWDIN ATOMIC POPULATIONS
       ATOM         MULL.POP.    CHARGE          LOW.POP.     CHARGE
    1 H             1.000000    0.000000         1.000000    0.000000
    2 H             1.000000    0.000000         1.000000    0.000000

          -------------------------------
          BOND ORDER AND VALENCE ANALYSIS     BOND ORDER THRESHOLD=0.050
          -------------------------------

                   BOND                       BOND                       BOND
  ATOM PAIR DIST  ORDER      ATOM PAIR DIST  ORDER      ATOM PAIR DIST  ORDER
    1   2  0.740  1.000

                       TOTAL       BONDED        FREE
      ATOM            VALENCE     VALENCE     VALENCE
    1 H                 1.000       1.000       0.000
    2 H                 1.000       1.000       0.000

          ---------------------
          ELECTROSTATIC MOMENTS
          ---------------------

 POINT   1           X           Y           Z (BOHR)    CHARGE
                 0.000000    0.000000    0.000000        0.00 (A.U.)
         DX          DY          DZ         /D/  (DEBYE)
     0.000000    0.000000    0.000000    0.000000
 ...... END OF PROPERTY EVALUATION ......

 CPU        TIME:   STEP =      0.00 ,  TOTAL =        0.1 SECONDS (    0.0 MIN)
 WALL CLOCK TIME:   STEP =      0.00 ,  TOTAL =        0.0 SECONDS (    0.0 MIN)
 CPU UTILIZATION:   STEP =      0.00%,  TOTAL =     187.66%
 ......END OF NBO ANALYSIS......

 CPU        TIME:   STEP =      0.00 ,  TOTAL =        0.1 SECONDS (    0.0 MIN)
 WALL CLOCK TIME:   STEP =      0.00 ,  TOTAL =        0.0 SECONDS (    0.0 MIN)
 CPU UTILIZATION:   STEP =      0.00%,  TOTAL =     186.69%
      396846 WORDS OF    DYNAMIC MEMORY USED
     5610179 BYTES OF    HEAP MEMORY    USED,      113783 BYTES REMAIN IN USE

 WARNING! THIS VERSION OF FIREFLY IS PROBABLY OUTDATED!
 PLEASE CHECK FIREFLY HOMEPAGE FOR INFORMATION ON UPDATES!

 EXECUTION OF FIREFLY TERMINATED NORMALLY  0:52:17 24-APR-2026    
