11
endpoint_reverse; coordinates in Angstrom
C   0.0050082322 -0.1993759235  1.3969458874
C  -0.2142398438  0.5401526234  0.1060139132
C  -0.6880354034 -0.0316006232 -1.0104001313
H   0.8647224397  0.1903867092  1.9592145181
H   0.1559507014 -1.2740606611  1.2273012917
H  -0.8793921013 -0.0838837503  2.0433363021
H  -0.0579894764  1.6236779138  0.1189963352
H  -0.8517831068 -1.1083820764 -1.0750508216
H  -0.8791912022  0.5414844735 -1.9160066667
H   1.1519318035  0.0370937370 -1.1303698467
F   1.4739820737 -0.3538213405 -1.9214987579
