11
mark_scan_07; coordinates in Angstrom
C   0.2132855823 -0.1649260748  1.3301799620
C   0.3439405685  0.4138170833 -0.0629610971
C  -0.7155310462  0.0485334822 -1.0181952551
H  -0.6242110307  0.3107627099  1.8606809135
H   1.1522605065 -0.0187139966  1.8809178784
H   0.0409395314 -1.2494502465  1.2853341409
H   0.6097772434  1.4781651963 -0.0748882187
H  -1.0592193706 -0.1340817494 -2.0451469897
H  -1.4338846996  0.8852238460 -0.9875351965
H  -0.0295272949 -1.0224407347 -1.3010450796
F   1.5021700099 -0.5468895158 -0.8673410583
