11
mark_product; coordinates in Angstrom
C   1.4219006839  3.7339425021 -0.3371061969
C   1.6364559068  4.0085356488 -1.8129760311
C   0.3516816097  3.8935099535 -2.6103170443
H   0.7234060313  4.4508715374  0.1045716714
H   2.3739512234  3.7966348441  0.1995583622
H   1.0334120242  2.7220282425 -0.1819347401
H   2.0811437099  4.9988062859 -1.9528209853
H   0.5510556750  4.0683940955 -3.6723923919
H  -0.3947832699  4.6176140955 -2.2705747475
H  -0.0700691929  2.8865623582 -2.5257288124
F   2.5201209068  3.0903148796 -2.2934527116
