11
mark_scan_04; coordinates in Angstrom
C   0.1462596983 -0.1903621047  1.3701552498
C   0.2023807495  0.4793888922  0.0203464741
C  -0.7541652712  0.1264456907 -0.9608098965
H  -0.5526816005  0.3541224971  2.0227154594
H   1.1486214310 -0.1895636438  1.8215696068
H  -0.1754996765 -1.2373757193  1.2864034290
H   0.5246396995  1.5267783583  0.0260923673
H  -1.4051391635 -0.5538425157 -1.5194124188
H  -1.1605798103  1.0268263156 -1.4417793152
H   0.4263928095 -0.7209681096 -1.5049595825
F   1.5997711342 -0.6214496609 -1.1203213735
