              Grand Master is running on host yaroslavhonor
              rank #     1 is running on host yaroslavhonor
              rank #     2 is running on host yaroslavhonor
              rank #     3 is running on host yaroslavhonor
              rank #     4 is running on host yaroslavhonor
              rank #     5 is running on host yaroslavhonor
              rank #     6 is running on host yaroslavhonor
              rank #     7 is running on host yaroslavhonor

          ******************************************************
          *      Firefly version 8.2.0, build number 10203     *
          *   Compiled on    Monday,    19-09-2016, 15:30:23   *
          *Code development and Intel/AMD specific optimization*
          *  Copyright (c) 1994, 2016 by  Alex A. Granovsky,   *
          *          Firefly Project, Moscow, Russia.          *
          *   Some parts of this program include code due to   *
          * work of Jim Kress, Peter Burger, and Robert Ponec. *
          ******************************************************
          *             Firefly Project homepage:              *
          * http://classic.chem.msu.su/gran/firefly/index.html *
          *                      e-mail:                       *
          *               gran@classic.chem.msu.su             *
          *This program is not a free software and is provided *
          *exclusively to its registered users under the terms *
          *       of Firefly package license agreement         *
          * Unauthorized use of Firefly is strongly prohibited *
          *   This program may not be redistributed without    *
          * the specific, written permission of its developers.*
          ******************************************************

          ******************************************************
          *  PARTIALLY BASED ON  US GAMESS VERSION 6 JUN 1999, *
          *   US GAMESS VERSIONS  6 SEP 2001 AND 12 DEC 2003   *
          *             FROM IOWA STATE UNIVERSITY             *
          * M.W.SCHMIDT, K.K.BALDRIDGE, J.A.BOATZ, S.T.ELBERT, *
          *   M.S.GORDON, J.H.JENSEN, S.KOSEKI, N.MATSUNAGA,   *
          *          K.A.NGUYEN, S.J.SU, T.L.WINDUS,           *
          *       TOGETHER WITH M.DUPUIS, J.A.MONTGOMERY       *
          *         J.COMPUT.CHEM.  14, 1347-1363(1993)        *
          ******************************************************


 Core i7    / Linux  Firefly version running under Linux.
 Running on Intel CPU:  Brand ID  0, Family  6, Model 170, Stepping  4
 CPU Brand String    :  Intel(R) Core(TM) Ultra 5 125H                  
 CPU Features        :  x87 FPU, CMOV, MMX, SSE, SSE2, SSE3, SSSE3, SSE4.1, SSE4.2, AVX, AVX2, FMA3, HTT, MWAIT, EM64T
 Data cache size     :  L1 48 KB, L2 2048 KB, L3 18432 KB
 max    # of   cores/package :  64
 max    # of threads/package : 128
 max     cache sharing level :  64
 actual # of   cores/package :   9
 actual # of threads/package :  18
 actual # of threads/core    :   2
 Operating System successfully passed SSE support test.
 Operating System supports AVX/FMA.


 PARALLEL VERSION (MPICH) RUNNING USING    8 PROCESSES (RANKS)


 WARNING! THIS VERSION OF FIREFLY IS PROBABLY OUTDATED!
 PLEASE CHECK FIREFLY HOMEPAGE FOR INFORMATION ON UPDATES!

 EXECUTION OF FIREFLY BEGUN  9:55:44  7-MAY-2026    

            ECHO OF THE FIRST FEW INPUT CARDS -
 INPUT CARD> $CONTRL CITYP=ALDET D5=.T. EXETYP=RUN FSTINT=.T. GENCON=.F.                    
 INPUT CARD>      ICHARG=0 ICUT=13 INTTYP=HONDO ITOL=30 MAXIT=100 MULT=1                    
 INPUT CARD>      RUNTYP=ENERGY SCFTYP=RHF WIDE=1 NOSYM=0                                   
 INPUT CARD> $END                                                                           
 INPUT CARD> $MOORTH NOSTF=.T. NOZERO=.T. SYMDEN=.T. SYMS=.T. SYMVEC=.T. SYMVX=.T.          
 INPUT CARD>      TOLE=0.0D0 TOLZ=0.0D0 $END                                                
 INPUT CARD> $GUESS GUESS=HUCKEL $END                                                       
 INPUT CARD> $BASIS EXTFIL=.T. GBASIS=acc-pVDZ $END                                         
 INPUT CARD> $SYSTEM KDIAG=0 MASMEM=200000000 MWORDS=200 MXBCST=-1 NOJAC=1 TIMLIM=60000 $END
 INPUT CARD> $SCF DAMP=.T. DIIS=.T. DIRSCF=.T. FDIFF=.F. SHIFT=.T. SOSCF=.F. $END           
 INPUT CARD> $CIDET NACT=29 NCORE=3 NELS=6 NSTATE=3 GROUP=c2v CVGTOL=1e-4 $END              
 INPUT CARD> $DATA                                                                          
 INPUT CARD> LiF single-point properties R=8.50 Ang                                         
 INPUT CARD> Cnv 2                                                                          
 INPUT CARD>                                                                                
 INPUT CARD>Li    3.0     0.0000000000     0.0000000000     0.0000000000                    
 INPUT CARD>F     9.0     0.0000000000     0.0000000000     8.5000000000                    
 INPUT CARD>$END                                                                            
  200000000 WORDS OF MEMORY AVAILABLE

 This job is executing on     1 unique host(s)
 Minimum number of processes per host is:    8
 Maximum number of processes per host is:    8

 On master's host, detected   18 CPU core(s) in aggregate

 Using processor-specific dynamic link DGEMM library code.


 Warning: HTT is enabled, bitmask of physically unique cores is 0x000000B4

 SMT aware parts of program will use              2 threads.

 Creating thread pool to serve up to            128 threads.


 Loading P2P interface library... loaded successfully (version 2.4).
 Initializing global P2P interface... topology done.


     $BASIS REQUESTS READING THE "ACC-PVDZ" BASIS SET FROM AN EXTERNAL FILE


     RUN TITLE
     ---------
  LiF single-point properties R=8.50 Ang                                         

 THE POINT GROUP OF THE MOLECULE IS CNV     
 THE ORDER OF THE PRINCIPAL AXIS IS     2
 *** WARNING! ATOM   2 SHELL   10 TYPE S HAS NORMALIZATION   0.99954745
 *** WARNING! ATOM   2 SHELL   11 TYPE S HAS NORMALIZATION   1.94662964
 *** WARNING! ATOM   2 SHELL   13 TYPE P HAS NORMALIZATION   1.44467270

 ATOM      ATOMIC                      COORDINATES (BOHR)
           CHARGE         X                   Y                   Z
 LI          3.0     0.0000000000        0.0000000000        0.0000000000
 F           9.0     0.0000000000        0.0000000000       16.0626720664

          INTERNUCLEAR DISTANCES (ANGS.)
          ------------------------------

                    LI             F         

  1  LI              0.0000000      8.5000000    
  2  F               8.5000000      0.0000000    

  * ... LESS THAN  3.000


     ATOMIC BASIS SET
     ----------------
 THE CONTRACTED PRIMITIVE FUNCTIONS HAVE BEEN UNNORMALIZED
 THE CONTRACTED BASIS FUNCTIONS ARE NOW NORMALIZED TO UNITY

 SHELL TYPE PRIM    EXPONENT          CONTRACTION COEFFICIENTS

 LI        

   1   S    1    1469.000000    0.129540 (  0.000766) 
   1   S    2     220.500000    0.240287 (  0.005892) 
   1   S    3      50.260000    0.399171 (  0.029671) 
   1   S    4      14.240000    0.570408 (  0.109180) 
   1   S    5       4.581000    0.631093 (  0.282789) 
   1   S    6       1.580000    0.455113 (  0.453123) 
   1   S    7       0.564000    0.127452 (  0.274774) 
   1   S    8       0.073450    0.000981 (  0.009751) 
   1   S    9       0.028050   -0.000155 ( -0.003180) 

   2   S   10    1469.000000   -0.020294 ( -0.000120) 
   2   S   11     220.500000   -0.037642 ( -0.000923) 
   2   S   12      50.260000   -0.063082 ( -0.004689) 
   2   S   13      14.240000   -0.092379 ( -0.017682) 
   2   S   14       4.581000   -0.109133 ( -0.048902) 
   2   S   15       1.580000   -0.096431 ( -0.096009) 
   2   S   16       0.564000   -0.063259 ( -0.136380) 
   2   S   17       0.073450    0.057829 (  0.575102) 
   2   S   18       0.028050    0.025287 (  0.517661) 

   3   S   19       0.028050    0.048849 (  1.000000) 

   4   P   20       1.534000    0.055444 (  0.022784) 
   4   P   21       0.274900    0.039469 (  0.139107) 
   4   P   22       0.073620    0.027351 (  0.500375) 
   4   P   23       0.024030    0.006857 (  0.508474) 

   5   P   24       0.024030    0.013486 (  1.000000) 

   6   D   25       0.114400    0.037039 (  1.000000) 

   7   S   26       0.008600    0.020127 (  1.000000) 

   8   P   27       0.005800    0.002282 (  1.000000) 

   9   D   28       0.073300    0.016996 (  1.000000) 

 F         

  10   S   29   14710.000000    0.686054 (  0.000721) 
  10   S   30    2207.000000    1.273776 (  0.005553) 
  10   S   31     502.800000    2.138157 (  0.028267) 
  10   S   32     142.600000    3.129135 (  0.106444) 
  10   S   33      46.470000    3.636582 (  0.286814) 
  10   S   34      16.700000    2.640279 (  0.448641) 
  10   S   35       6.356000    0.755015 (  0.264761) 
  10   S   36       1.316000    0.013421 (  0.015333) 

  11   S   37   14710.000000   -0.305764 ( -0.000165) 
  11   S   38    2207.000000   -0.584323 ( -0.001308) 
  11   S   39     502.800000   -0.956795 ( -0.006495) 
  11   S   40     142.600000   -1.528086 ( -0.026691) 
  11   S   41      46.470000   -1.819623 ( -0.073690) 
  11   S   42      16.700000   -1.957301 ( -0.170776) 
  11   S   43       6.356000   -0.623829 ( -0.112327) 
  11   S   44       1.316000    0.959401 (  0.562814) 

  12   S   45       0.389700    0.351526 (  1.000000) 

  13   P   46      22.670000    4.571487 (  0.044878) 
  13   P   47       4.977000    3.608377 (  0.235718) 
  13   P   48       1.347000    1.519595 (  0.508521) 

  14   P   49       0.347100    0.379759 (  1.000000) 

  15   D   50       1.640000    3.911886 (  1.000000) 

  16   S   51       0.098630    0.125434 (  1.000000) 

  17   P   52       0.085020    0.065440 (  1.000000) 

  18   D   53       0.464000    0.429354 (  1.000000) 

 TOTAL NUMBER OF SHELLS              =   18
 TOTAL NUMBER OF BASIS FUNCTIONS     =   50
 NUMBER OF ELECTRONS                 =   12
 CHARGE OF MOLECULE                  =    0
 STATE MULTIPLICITY                  =    1
 NUMBER OF OCCUPIED ORBITALS (ALPHA) =    6
 NUMBER OF OCCUPIED ORBITALS (BETA ) =    6
 TOTAL NUMBER OF ATOMS               =    2
 THE NUCLEAR REPULSION ENERGY IS        1.6809158457
 TOTAL NUMBER OF CONTAMINANTS DROPPED=    4


 THIS MOLECULE IS RECOGNIZED AS BEING LINEAR.

     $CONTRL OPTIONS
     ---------------
     SCFTYP=RHF          RUNTYP=ENERGY       EXETYP=RUN     
     MPLEVL=       0     LOCAL =NONE         UNITS =ANGS    
     MULT  =       1     ICHARG=       0     MAXIT =     100
     NPRINT=       7     IREST =       0     COORD =UNIQUE  
     ECP   =NONE         NORMF =       0     NORMP =       0
     ITOL  =      30     ICUT  =      13     NZVAR =       0
     NOSYM =       0     INTTYP=HONDO        GEOM  =INPUT   
     PLTORB=       F     MOLPLT=       F     RPAC  =       F
     AIMPAC=       0     FRIEND=             CITYP =ALDET   
     DFTTYP=NONE    

     $SYSTEM OPTIONS
     ---------------
     KDIAG =       0     MEMORY=200000000     TIMLIM=  3600000.0 SEC.
     COREFL=       F     PTIME =        F     XDR   =       F
     BALTYP=NXTVAL       CBASE = 09001000     FBASE = A82A10C0

          ----------------
          PROPERTIES INPUT
          ----------------

     MOMENTS            FIELD           POTENTIAL          DENSITY
 IEMOM =       1   IEFLD =       0   IEPOT =       0   IEDEN =       0
 WHERE =COMASS     WHERE =NUCLEI     WHERE =NUCLEI     WHERE =NUCLEI  
 OUTPUT=BOTH       OUTPUT=BOTH       OUTPUT=BOTH       OUTPUT=BOTH    
 IEMINT=       0   IEFINT=       0                     IEDINT=       0
                                                       MORB  =       0

          EXTRAPOLATION IN EFFECT
          DAMPING IN EFFECT
          LEVEL SHIFTING IN EFFECT
          DIIS IN EFFECT

          ----------------------
          INTEGRAL INPUT OPTIONS
          ----------------------
 NOPK  =       1 NORDER=       0 SCHWRZ=       T

 ATTENTION! AO INTEGRALS WILL BE PACKED.
 THRESHOLD FOR PACKING PKTHR =  0.10000000D-05

     -------------------------------
     INTEGRAL TRANSFORMATION OPTIONS
     -------------------------------
     NWORD  =       0     CUTTRF = 1.0E-09
     MPTRAN =       0     DIRTRF =       T
     AOINTS =DUP          IREST  =       0

     ------------------------------------------
     THE POINT GROUP IS CNV, NAXIS= 2, ORDER= 4
     ------------------------------------------

     DIMENSIONS OF THE SYMMETRY SUBSPACES ARE
 A1  =  26      A2  =   4      B1  =  10      B2  =  10

 ..... DONE SETTING UP THE RUN .....

                         TIMING STATISTICS ON RANK 0:
 CPU        TIME:   STEP =      0.19 ,  TOTAL =        0.4 SECONDS (    0.0 MIN)
 WALL CLOCK TIME:   STEP =      0.37 ,  TOTAL =        0.4 SECONDS (    0.0 MIN)
 CPU UTILIZATION:   STEP =     51.61%,  TOTAL =     111.38%

          ********************
          1 ELECTRON INTEGRALS
          ********************
 ...... END OF ONE-ELECTRON INTEGRALS ......

                         TIMING STATISTICS ON RANK 0:
 CPU        TIME:   STEP =      0.00 ,  TOTAL =        0.4 SECONDS (    0.0 MIN)
 WALL CLOCK TIME:   STEP =      0.01 ,  TOTAL =        0.4 SECONDS (    0.0 MIN)
 CPU UTILIZATION:   STEP =      0.00%,  TOTAL =     109.72%

          -------------
          GUESS OPTIONS
          -------------
          GUESS =HUCKEL            NORB  =       0          NORDER=       0
          MIX   =       F          PRTMO =       F          SYMDEN=       F
          TOLZ  = 0.0E+00          TOLE  = 0.0E+00

 INITIAL GUESS ORBITALS GENERATED BY HUCKEL   ROUTINE.
 HUCKEL GUESS REQUIRES     19614 WORDS.

 LOG10 OF CONDITION NUMBER OF OVERLAP MATRIX IS:  2.12629899E+00

 SYMMETRIES FOR INITIAL GUESS ORBITALS FOLLOW.   BOTH SET(S).
     6 ORBITALS ARE OCCUPIED (    2 CORE ORBITALS).
     3=A1       4=A1       5=B2       6=B1       7=A1       8=A1       9=A1  
    10=B1      11=B2      12=A1      13=A1      14=B1      15=B2      16=A2  
 ...... END OF INITIAL ORBITAL SELECTION ......

                         TIMING STATISTICS ON RANK 0:
 CPU        TIME:   STEP =      0.02 ,  TOTAL =        0.4 SECONDS (    0.0 MIN)
 WALL CLOCK TIME:   STEP =      0.10 ,  TOTAL =        0.5 SECONDS (    0.0 MIN)
 CPU UTILIZATION:   STEP =     19.61%,  TOTAL =      90.40%

          --------------------
          2 ELECTRON INTEGRALS
          --------------------

 DIRECT SCF METHOD SKIPS INTEGRAL STORAGE ON DISK.
 DIRECT TRANSFORMATION SKIPS AO INTEGRAL STORAGE ON DISK.
 SCHWARZ INEQUALITY OVERHEAD:      1275 INTEGRALS, CPU TIME=        0.00
 ...... END OF TWO-ELECTRON INTEGRALS .....

                         TIMING STATISTICS ON RANK 0:
 CPU        TIME:   STEP =      0.00 ,  TOTAL =        0.4 SECONDS (    0.0 MIN)
 WALL CLOCK TIME:   STEP =      0.00 ,  TOTAL =        0.5 SECONDS (    0.0 MIN)
 CPU UTILIZATION:   STEP =      0.00%,  TOTAL =      89.56%

          -------------------
          RHF SCF CALCULATION
          -------------------

     NUCLEAR ENERGY =         1.6809158457
     MAXIT =  100     NPUNCH=    2
     EXTRAP=T  DAMP=T  SHIFT=T  RSTRCT=F  DIIS=T  DEM=F  SOSCF=F
     DENSITY CONV=  2.00E-05
     MEMORY REQUIRED FOR RHF STEP=     48119 WORDS.

 DIRECT SCF CALCULATION, SCHWRZ=T   FDIFF=F
 SCHWARZ INEQUALITY OVERHEAD:      1275 INTEGRALS, CPU TIME=        0.00

                                                                                                              NONZERO    BLOCKS
 ITER EX DEM  TOTAL ENERGY      E CHANGE  DENSITY CHANGE    DIIS ERROR      VIR. SHIFT       DAMPING        INTEGRALS   SKIPPED
   1  0  0  -106.455550696  -106.455550696   1.954637593   0.920464244     0.000000000     1.000000000         710854      2054
   2  1  0  -105.600712638     0.854838058   0.146165522   0.870381543     2.000000000     1.000000000         747718      1933
   3  2  0  -105.872670182    -0.271957544   0.081397392   0.595829231     4.000000000     4.000000000         744220      1967
          * * *   INITIATING DIIS PROCEDURE   * * *
   4  3  0  -105.957219784    -0.084549602   1.752051684   0.474060767     0.000000000     4.000000000         742048      1962
   5  4  0  -106.187961104    -0.230741320   0.185860254   0.634667159     0.000000000     4.000000000         711139      2108
   6  5  0  -106.540355905    -0.352394801   0.112391836   0.408305810     0.000000000     4.000000000         709660      2127
   7  6  0  -106.672990624    -0.132634719   0.070022350   0.232473685     0.000000000     4.000000000         702124      2197
   8  7  0  -106.714641177    -0.041650553   0.036263089   0.114377209     0.000000000     4.000000000         706560      2141
   9  8  0  -106.724049990    -0.009408813   0.040608852   0.054470833     0.000000000     4.000000000         720258      2100
  10  9  0  -106.726526607    -0.002476617   0.008889088   0.014696084     0.008750440     4.000000000         736575      2012
  11 10  0  -106.726711320    -0.000184713   0.000343525   0.000722278     0.000000000     4.000000000         732885      2026
  12 11  0  -106.726711778    -0.000000458   0.000146848   0.000170348     0.000000000     4.000000000         732579      2026
  13 12  0  -106.726711800    -0.000000022   0.000064493   0.000078394     0.000000000     4.000000000         733113      2023
  14 13  0  -106.726711806    -0.000000005   0.000020118   0.000001558     0.000000000     4.000000000         733116      2022
  15 14  0  -106.726711806     0.000000000   0.000005056   0.000000446     0.000000000     4.000000000         733116      2022

          -----------------
          DENSITY CONVERGED
          -----------------
     TIME TO FORM FOCK OPERATORS =       0.16 SECONDS (       0.01 SEC/ITER)
     FOCK TIME ON FIRST ITERATION=       0.00, LAST ITERATION=       0.01
     TIME TO SOLVE SCF EQUATIONS =       0.08 SECONDS (       0.01 SEC/ITER)

 FINAL ENERGY IS     -106.7267118058 AFTER  15 ITERATIONS

          ------------
          EIGENVECTORS
          ------------

                      1          2          3          4          5
                  -25.9102    -2.7304    -1.1426    -0.2436    -0.2436
                     A1         A1         A1         B2         B1  
    1  LI  1  S  -0.000017  -1.000083  -0.000122   0.000000   0.000000
    2  LI  1  S  -0.000083   0.001091  -0.000579   0.000000   0.000000
    3  LI  1  S   0.000137   0.001075   0.001001   0.000000   0.000000
    4  LI  1  X   0.000000   0.000000   0.000000   0.000000  -0.000038
    5  LI  1  Y   0.000000   0.000000   0.000000  -0.000038   0.000000
    6  LI  1  Z  -0.000024   0.000611  -0.000134   0.000000   0.000000
    7  LI  1  X   0.000000   0.000000   0.000000   0.000000   0.000194
    8  LI  1  Y   0.000000   0.000000   0.000000   0.000194   0.000000
    9  LI  1  Z   0.000061  -0.000519   0.000394   0.000000   0.000000
   10  LI  1 XX  -0.000001  -0.000013  -0.000001   0.000000   0.000000
   11  LI  1 YY  -0.000001  -0.000013  -0.000001   0.000000   0.000000
   12  LI  1 ZZ   0.000002   0.000027   0.000001   0.000000   0.000000
   13  LI  1 XY   0.000000   0.000000   0.000000   0.000000   0.000000
   14  LI  1 XZ   0.000000   0.000000   0.000000   0.000000   0.000117
   15  LI  1 YZ   0.000000   0.000000   0.000000   0.000117   0.000000
   16  LI  1  S  -0.000074  -0.001310  -0.000576   0.000000   0.000000
   17  LI  1  X   0.000000   0.000000   0.000000   0.000000  -0.001090
   18  LI  1  Y   0.000000   0.000000   0.000000  -0.001090   0.000000
   19  LI  1  Z  -0.000092   0.000051  -0.000694   0.000000   0.000000
   20  LI  1 XX   0.000001   0.000010   0.000000   0.000000   0.000000
   21  LI  1 YY   0.000001   0.000010   0.000000   0.000000   0.000000
   22  LI  1 ZZ  -0.000002  -0.000019   0.000001   0.000000   0.000000
   23  LI  1 XY   0.000000   0.000000   0.000000   0.000000   0.000000
   24  LI  1 XZ   0.000000   0.000000   0.000000   0.000000  -0.000160
   25  LI  1 YZ   0.000000   0.000000   0.000000  -0.000160   0.000000
   26  F   2  S   1.000684   0.000008  -0.006352   0.000000   0.000000
   27  F   2  S   0.000510   0.000014   0.490907   0.000000   0.000000
   28  F   2  S  -0.003375  -0.000046   0.554516   0.000000   0.000000
   29  F   2  X   0.000000   0.000000   0.000000   0.000000  -0.628723
   30  F   2  Y   0.000000   0.000000   0.000000  -0.628723   0.000000
   31  F   2  Z  -0.000019  -0.000003  -0.000399   0.000000   0.000000
   32  F   2  X   0.000000   0.000000   0.000000   0.000000  -0.447496
   33  F   2  Y   0.000000   0.000000   0.000000  -0.447496   0.000000
   34  F   2  Z   0.000012   0.000014  -0.000956   0.000000   0.000000
   35  F   2 XX   0.000000   0.000000   0.000002   0.000000   0.000000
   36  F   2 YY   0.000000   0.000000   0.000002   0.000000   0.000000
   37  F   2 ZZ  -0.000001   0.000000  -0.000005   0.000000   0.000000
   38  F   2 XY   0.000000   0.000000   0.000000   0.000000   0.000000
   39  F   2 XZ   0.000000   0.000000   0.000000   0.000000   0.000033
   40  F   2 YZ   0.000000   0.000000   0.000000   0.000033   0.000000
   41  F   2  S   0.001105   0.000076   0.056303   0.000000   0.000000
   42  F   2  X   0.000000   0.000000   0.000000   0.000000  -0.157067
   43  F   2  Y   0.000000   0.000000   0.000000  -0.157067   0.000000
   44  F   2  Z  -0.000014  -0.000040  -0.000579   0.000000   0.000000
   45  F   2 XX   0.000000   0.000000  -0.000044   0.000000   0.000000
   46  F   2 YY   0.000000   0.000000  -0.000044   0.000000   0.000000
   47  F   2 ZZ   0.000000   0.000001   0.000088   0.000000   0.000000
   48  F   2 XY   0.000000   0.000000   0.000000   0.000000   0.000000
   49  F   2 XZ   0.000000   0.000000   0.000000   0.000000   0.001153
   50  F   2 YZ   0.000000   0.000000   0.000000   0.001153   0.000000

                      6          7          8          9         10
                   -0.2435    -0.1352    -0.0679    -0.0679    -0.0638
                     A1         A1         B2         B1         A1  
    1  LI  1  S   0.000069  -0.000454   0.000000   0.000000   0.020859
    2  LI  1  S   0.001131  -0.983455   0.000000   0.000000   0.285126
    3  LI  1  S  -0.002025   0.001781   0.000000   0.000000  -0.061474
    4  LI  1  X   0.000000   0.000000   0.000000  -0.977428   0.000000
    5  LI  1  Y   0.000000   0.000000  -0.977428   0.000000   0.000000
    6  LI  1  Z  -0.001205   0.115842   0.000000   0.000000   0.988992
    7  LI  1  X   0.000000   0.000000   0.000000  -0.010028   0.000000
    8  LI  1  Y   0.000000   0.000000  -0.010028   0.000000   0.000000
    9  LI  1  Z   0.002902   0.013877   0.000000   0.000000  -0.023134
   10  LI  1 XX   0.000471   0.001647   0.000000   0.000000  -0.020517
   11  LI  1 YY   0.000471   0.001647   0.000000   0.000000  -0.020517
   12  LI  1 ZZ  -0.000943  -0.003294   0.000000   0.000000   0.041034
   13  LI  1 XY   0.000000   0.000000   0.000000   0.000000   0.000000
   14  LI  1 XZ   0.000000   0.000000   0.000000  -0.029793   0.000000
   15  LI  1 YZ   0.000000   0.000000  -0.029793   0.000000   0.000000
   16  LI  1  S   0.003759  -0.015150   0.000000   0.000000  -0.151114
   17  LI  1  X   0.000000   0.000000   0.000000  -0.030680   0.000000
   18  LI  1  Y   0.000000   0.000000  -0.030680   0.000000   0.000000
   19  LI  1  Z   0.002079  -0.000818   0.000000   0.000000   0.032487
   20  LI  1 XX  -0.000660  -0.003676   0.000000   0.000000   0.052332
   21  LI  1 YY  -0.000660  -0.003676   0.000000   0.000000   0.052332
   22  LI  1 ZZ   0.001320   0.007351   0.000000   0.000000  -0.104665
   23  LI  1 XY   0.000000   0.000000   0.000000   0.000000   0.000000
   24  LI  1 XZ   0.000000   0.000000   0.000000   0.077918   0.000000
   25  LI  1 YZ   0.000000   0.000000   0.077918   0.000000   0.000000
   26  F   2  S   0.000001   0.000018   0.000000   0.000000  -0.000210
   27  F   2  S  -0.001691   0.000061   0.000000   0.000000  -0.000622
   28  F   2  S  -0.004539  -0.000094   0.000000   0.000000   0.001110
   29  F   2  X   0.000000   0.000000   0.000000   0.000532   0.000000
   30  F   2  Y   0.000000   0.000000   0.000532   0.000000   0.000000
   31  F   2  Z  -0.628182  -0.001087   0.000000   0.000000   0.002903
   32  F   2  X   0.000000   0.000000   0.000000   0.000000   0.000000
   33  F   2  Y   0.000000   0.000000   0.000000   0.000000   0.000000
   34  F   2  Z  -0.447132  -0.000782   0.000000   0.000000   0.000730
   35  F   2 XX  -0.000017   0.000000   0.000000   0.000000  -0.000018
   36  F   2 YY  -0.000017   0.000000   0.000000   0.000000  -0.000018
   37  F   2 ZZ   0.000034   0.000001   0.000000   0.000000   0.000037
   38  F   2 XY   0.000000   0.000000   0.000000   0.000000   0.000000
   39  F   2 XZ   0.000000   0.000000   0.000000   0.000010   0.000000
   40  F   2 YZ   0.000000   0.000000   0.000010   0.000000   0.000000
   41  F   2  S   0.006697   0.000385   0.000000   0.000000  -0.003136
   42  F   2  X   0.000000   0.000000   0.000000   0.001454   0.000000
   43  F   2  Y   0.000000   0.000000   0.001454   0.000000   0.000000
   44  F   2  Z  -0.158402  -0.000265   0.000000   0.000000   0.005097
   45  F   2 XX  -0.000684   0.000004   0.000000   0.000000   0.000039
   46  F   2 YY  -0.000684   0.000004   0.000000   0.000000   0.000039
   47  F   2 ZZ   0.001368  -0.000008   0.000000   0.000000  -0.000079
   48  F   2 XY   0.000000   0.000000   0.000000   0.000000   0.000000
   49  F   2 XZ   0.000000   0.000000   0.000000  -0.000020   0.000000
   50  F   2 YZ   0.000000   0.000000  -0.000020   0.000000   0.000000

                     11         12         13         14         15
                   -0.0227    -0.0036    -0.0036     0.0224     0.0569
                     A1         B2         B1         A1         B2  
    1  LI  1  S  -0.023984   0.000000   0.000000  -0.105815   0.000000
    2  LI  1  S  -0.445674   0.000000   0.000000  -0.755899   0.000000
    3  LI  1  S  -0.384426   0.000000   0.000000   0.408946   0.000000
    4  LI  1  X   0.000000   0.000000  -0.560758   0.000000   0.000000
    5  LI  1  Y   0.000000  -0.560758   0.000000   0.000000   1.903584
    6  LI  1  Z   0.492211   0.000000   0.000000  -0.412663   0.000000
    7  LI  1  X   0.000000   0.000000   0.140669   0.000000   0.000000
    8  LI  1  Y   0.000000   0.140669   0.000000   0.000000  -2.439202
    9  LI  1  Z  -0.214677   0.000000   0.000000   0.108675   0.000000
   10  LI  1 XX  -0.003707   0.000000   0.000000  -0.021607   0.000000
   11  LI  1 YY  -0.003707   0.000000   0.000000  -0.021607   0.000000
   12  LI  1 ZZ   0.007413   0.000000   0.000000   0.043214   0.000000
   13  LI  1 XY   0.000000   0.000000   0.000000   0.000000   0.000000
   14  LI  1 XZ   0.000000   0.000000   0.013588   0.000000   0.000000
   15  LI  1 YZ   0.000000   0.013588   0.000000   0.000000  -0.120045
   16  LI  1  S   1.241134   0.000000   0.000000   0.563486   0.000000
   17  LI  1  X   0.000000   0.000000   1.047506   0.000000   0.000000
   18  LI  1  Y   0.000000   1.047506   0.000000   0.000000   0.678968
   19  LI  1  Z  -0.474768   0.000000   0.000000   0.928438   0.000000
   20  LI  1 XX   0.012419   0.000000   0.000000   0.034192   0.000000
   21  LI  1 YY   0.012419   0.000000   0.000000   0.034192   0.000000
   22  LI  1 ZZ  -0.024839   0.000000   0.000000  -0.068384   0.000000
   23  LI  1 XY   0.000000   0.000000   0.000000   0.000000   0.000000
   24  LI  1 XZ   0.000000   0.000000  -0.010002   0.000000   0.000000
   25  LI  1 YZ   0.000000  -0.010002   0.000000   0.000000   0.249456
   26  F   2  S   0.000852   0.000000   0.000000  -0.006083   0.000000
   27  F   2  S   0.001573   0.000000   0.000000  -0.014933   0.000000
   28  F   2  S  -0.006506   0.000000   0.000000   0.040059   0.000000
   29  F   2  X   0.000000   0.000000  -0.003924   0.000000   0.000000
   30  F   2  Y   0.000000  -0.003924   0.000000   0.000000  -0.001719
   31  F   2  Z   0.002569   0.000000   0.000000   0.010566   0.000000
   32  F   2  X   0.000000   0.000000   0.002193   0.000000   0.000000
   33  F   2  Y   0.000000   0.002193   0.000000   0.000000   0.001044
   34  F   2  Z  -0.001001   0.000000   0.000000  -0.000545   0.000000
   35  F   2 XX  -0.000035   0.000000   0.000000  -0.000033   0.000000
   36  F   2 YY  -0.000035   0.000000   0.000000  -0.000033   0.000000
   37  F   2 ZZ   0.000070   0.000000   0.000000   0.000065   0.000000
   38  F   2 XY   0.000000   0.000000   0.000000   0.000000   0.000000
   39  F   2 XZ   0.000000   0.000000  -0.000072   0.000000   0.000000
   40  F   2 YZ   0.000000  -0.000072   0.000000   0.000000  -0.000028
   41  F   2  S   0.019809   0.000000   0.000000  -0.138398   0.000000
   42  F   2  X   0.000000   0.000000  -0.021041   0.000000   0.000000
   43  F   2  Y   0.000000  -0.021041   0.000000   0.000000  -0.010547
   44  F   2  Z   0.011306   0.000000   0.000000   0.040475   0.000000
   45  F   2 XX   0.000099   0.000000   0.000000   0.000090   0.000000
   46  F   2 YY   0.000099   0.000000   0.000000   0.000090   0.000000
   47  F   2 ZZ  -0.000197   0.000000   0.000000  -0.000180   0.000000
   48  F   2 XY   0.000000   0.000000   0.000000   0.000000   0.000000
   49  F   2 XZ   0.000000   0.000000   0.000194   0.000000   0.000000
   50  F   2 YZ   0.000000   0.000194   0.000000   0.000000   0.000095

                     16         17         18         19         20
                    0.0569     0.0620     0.0739     0.0739     0.0775
                     B1         A1         A2         A1         B2  
    1  LI  1  S   0.000000  -0.157328   0.000000   0.000000   0.000000
    2  LI  1  S   0.000000  -0.840667   0.000000   0.000000   0.000000
    3  LI  1  S   0.000000   1.112089   0.000000   0.000000   0.000000
    4  LI  1  X   1.903584   0.000000   0.000000   0.000000   0.000000
    5  LI  1  Y   0.000000   0.000000   0.000000   0.000000  -0.229424
    6  LI  1  Z   0.000000   1.816977   0.000000   0.000000   0.000000
    7  LI  1  X  -2.439202   0.000000   0.000000   0.000000   0.000000
    8  LI  1  Y   0.000000   0.000000   0.000000   0.000000   0.361114
    9  LI  1  Z   0.000000  -2.344918   0.000000   0.000000   0.000000
   10  LI  1 XX   0.000000   0.087940   0.000000   0.453301   0.000000
   11  LI  1 YY   0.000000   0.087940   0.000000  -0.453301   0.000000
   12  LI  1 ZZ   0.000000  -0.175880   0.000000   0.000000   0.000000
   13  LI  1 XY   0.000000   0.000000   0.523427   0.000000   0.000000
   14  LI  1 XZ  -0.120045   0.000000   0.000000   0.000000   0.000000
   15  LI  1 YZ   0.000000   0.000000   0.000000   0.000000  -0.501339
   16  LI  1  S   0.000000  -0.333277   0.000000   0.000000   0.000000
   17  LI  1  X   0.678968   0.000000   0.000000   0.000000   0.000000
   18  LI  1  Y   0.000000   0.000000   0.000000   0.000000  -0.100207
   19  LI  1  Z   0.000000   0.673049   0.000000   0.000000   0.000000
   20  LI  1 XX   0.000000  -0.193389   0.000000  -1.263028   0.000000
   21  LI  1 YY   0.000000  -0.193389   0.000000   1.263028   0.000000
   22  LI  1 ZZ   0.000000   0.386778   0.000000   0.000000   0.000000
   23  LI  1 XY   0.000000   0.000000  -1.458419   0.000000   0.000000
   24  LI  1 XZ   0.249456   0.000000   0.000000   0.000000   0.000000
   25  LI  1 YZ   0.000000   0.000000   0.000000   0.000000   1.427632
   26  F   2  S   0.000000  -0.002597   0.000000   0.000000   0.000000
   27  F   2  S   0.000000  -0.005741   0.000000   0.000000   0.000000
   28  F   2  S   0.000000   0.018501   0.000000   0.000000   0.000000
   29  F   2  X  -0.001719   0.000000   0.000000   0.000000   0.000000
   30  F   2  Y   0.000000   0.000000   0.000000   0.000000   0.000114
   31  F   2  Z   0.000000  -0.003841   0.000000   0.000000   0.000000
   32  F   2  X   0.001044   0.000000   0.000000   0.000000   0.000000
   33  F   2  Y   0.000000   0.000000   0.000000   0.000000  -0.000414
   34  F   2  Z   0.000000  -0.003983   0.000000   0.000000   0.000000
   35  F   2 XX   0.000000   0.000044   0.000000   0.000000   0.000000
   36  F   2 YY   0.000000   0.000044   0.000000   0.000000   0.000000
   37  F   2 ZZ   0.000000  -0.000087   0.000000   0.000000   0.000000
   38  F   2 XY   0.000000   0.000000   0.000000   0.000000   0.000000
   39  F   2 XZ  -0.000028   0.000000   0.000000   0.000000   0.000000
   40  F   2 YZ   0.000000   0.000000   0.000000   0.000000   0.000004
   41  F   2  S   0.000000  -0.064365   0.000000   0.000000   0.000000
   42  F   2  X  -0.010547   0.000000   0.000000   0.000000   0.000000
   43  F   2  Y   0.000000   0.000000   0.000000   0.000000   0.001954
   44  F   2  Z   0.000000   0.004697   0.000000   0.000000   0.000000
   45  F   2 XX   0.000000  -0.000045   0.000000   0.000000   0.000000
   46  F   2 YY   0.000000  -0.000045   0.000000   0.000000   0.000000
   47  F   2 ZZ   0.000000   0.000091   0.000000   0.000000   0.000000
   48  F   2 XY   0.000000   0.000000   0.000000   0.000000   0.000000
   49  F   2 XZ   0.000095   0.000000   0.000000   0.000000   0.000000
   50  F   2 YZ   0.000000   0.000000   0.000000   0.000000  -0.000016

                     21         22         23         24         25
                    0.0775     0.0796     0.1155     0.3701     0.3701
                     B1         A1         A1         A2         A1  
    1  LI  1  S   0.000000  -0.104068   0.763402   0.000000   0.000000
    2  LI  1  S   0.000000  -0.565243   4.128467   0.000000   0.000000
    3  LI  1  S   0.000000   0.738968  -5.262481   0.000000   0.000000
    4  LI  1  X  -0.229424   0.000000   0.000000   0.000000   0.000000
    5  LI  1  Y   0.000000   0.000000   0.000000   0.000000   0.000000
    6  LI  1  Z   0.000000   0.344030   0.357408   0.000000   0.000000
    7  LI  1  X   0.361114   0.000000   0.000000   0.000000   0.000000
    8  LI  1  Y   0.000000   0.000000   0.000000   0.000000   0.000000
    9  LI  1  Z   0.000000  -0.518378  -0.555610   0.000000   0.000000
   10  LI  1 XX   0.000000  -0.238821  -0.006323   0.000000  -2.131086
   11  LI  1 YY   0.000000  -0.238821  -0.006323   0.000000   2.131086
   12  LI  1 ZZ   0.000000   0.477643   0.012647   0.000000   0.000000
   13  LI  1 XY   0.000000   0.000000   0.000000   2.460766   0.000000
   14  LI  1 XZ  -0.501339   0.000000   0.000000   0.000000   0.000000
   15  LI  1 YZ   0.000000   0.000000   0.000000   0.000000   0.000000
   16  LI  1  S   0.000000  -0.229950   1.319587   0.000000   0.000000
   17  LI  1  X  -0.100207   0.000000   0.000000   0.000000   0.000000
   18  LI  1  Y   0.000000   0.000000   0.000000   0.000000   0.000000
   19  LI  1  Z   0.000000   0.114904   0.282506   0.000000   0.000000
   20  LI  1 XX   0.000000   0.692223   0.049346   0.000000   1.775322
   21  LI  1 YY   0.000000   0.692223   0.049346   0.000000  -1.775322
   22  LI  1 ZZ   0.000000  -1.384446  -0.098692   0.000000   0.000000
   23  LI  1 XY   0.000000   0.000000   0.000000  -2.049966   0.000000
   24  LI  1 XZ   1.427632   0.000000   0.000000   0.000000   0.000000
   25  LI  1 YZ   0.000000   0.000000   0.000000   0.000000   0.000000
   26  F   2  S   0.000000  -0.000337  -0.002164   0.000000   0.000000
   27  F   2  S   0.000000  -0.000293  -0.007443   0.000000   0.000000
   28  F   2  S   0.000000   0.003140   0.010763   0.000000   0.000000
   29  F   2  X   0.000114   0.000000   0.000000   0.000000   0.000000
   30  F   2  Y   0.000000   0.000000   0.000000   0.000000   0.000000
   31  F   2  Z   0.000000  -0.003199   0.003868   0.000000   0.000000
   32  F   2  X  -0.000414   0.000000   0.000000   0.000000   0.000000
   33  F   2  Y   0.000000   0.000000   0.000000   0.000000   0.000000
   34  F   2  Z   0.000000  -0.003879  -0.002466   0.000000   0.000000
   35  F   2 XX   0.000000   0.000013  -0.000024   0.000000   0.000000
   36  F   2 YY   0.000000   0.000013  -0.000024   0.000000   0.000000
   37  F   2 ZZ   0.000000  -0.000026   0.000047   0.000000   0.000000
   38  F   2 XY   0.000000   0.000000   0.000000   0.000000   0.000000
   39  F   2 XZ   0.000004   0.000000   0.000000   0.000000   0.000000
   40  F   2 YZ   0.000000   0.000000   0.000000   0.000000   0.000000
   41  F   2  S   0.000000  -0.007027  -0.060852   0.000000   0.000000
   42  F   2  X   0.001954   0.000000   0.000000   0.000000   0.000000
   43  F   2  Y   0.000000   0.000000   0.000000   0.000000   0.000000
   44  F   2  Z   0.000000   0.002546   0.026701   0.000000   0.000000
   45  F   2 XX   0.000000  -0.000012   0.000110   0.000000   0.000000
   46  F   2 YY   0.000000  -0.000012   0.000110   0.000000   0.000000
   47  F   2 ZZ   0.000000   0.000023  -0.000220   0.000000   0.000000
   48  F   2 XY   0.000000   0.000000   0.000000   0.000000   0.000000
   49  F   2 XZ  -0.000016   0.000000   0.000000   0.000000   0.000000
   50  F   2 YZ   0.000000   0.000000   0.000000   0.000000   0.000000

                     26         27         28         29         30
                    0.3722     0.3722     0.3732     0.4478     0.4479
                     B2         B1         A1         A1         B2  
    1  LI  1  S   0.000000   0.000000   0.007679   0.022002   0.000000
    2  LI  1  S   0.000000   0.000000   0.042000   0.104547   0.000000
    3  LI  1  S   0.000000   0.000000  -0.050679  -0.184555   0.000000
    4  LI  1  X   0.000000  -0.037409   0.000000   0.000000   0.000000
    5  LI  1  Y  -0.037409   0.000000   0.000000   0.000000  -0.012257
    6  LI  1  Z   0.000000   0.000000   0.048272  -0.054586   0.000000
    7  LI  1  X   0.000000   0.046398   0.000000   0.000000   0.000000
    8  LI  1  Y   0.046398   0.000000   0.000000   0.000000   0.028095
    9  LI  1  Z   0.000000   0.000000  -0.062340   0.062229   0.000000
   10  LI  1 XX   0.000000   0.000000  -1.229991   0.061194   0.000000
   11  LI  1 YY   0.000000   0.000000  -1.229991   0.061194   0.000000
   12  LI  1 ZZ   0.000000   0.000000   2.459982  -0.122388   0.000000
   13  LI  1 XY   0.000000   0.000000   0.000000   0.000000   0.000000
   14  LI  1 XZ   0.000000  -2.462194   0.000000   0.000000   0.000000
   15  LI  1 YZ  -2.462194   0.000000   0.000000   0.000000   0.010963
   16  LI  1  S   0.000000   0.000000   0.008236   0.114693   0.000000
   17  LI  1  X   0.000000  -0.006691   0.000000   0.000000   0.000000
   18  LI  1  Y  -0.006691   0.000000   0.000000   0.000000  -0.038179
   19  LI  1  Z   0.000000   0.000000   0.011478   0.050830   0.000000
   20  LI  1 XX   0.000000   0.000000   1.027726  -0.055172   0.000000
   21  LI  1 YY   0.000000   0.000000   1.027726  -0.055172   0.000000
   22  LI  1 ZZ   0.000000   0.000000  -2.055452   0.110344   0.000000
   23  LI  1 XY   0.000000   0.000000   0.000000   0.000000   0.000000
   24  LI  1 XZ   0.000000   2.054925   0.000000   0.000000   0.000000
   25  LI  1 YZ   2.054925   0.000000   0.000000   0.000000  -0.009838
   26  F   2  S   0.000000   0.000000  -0.000625  -0.006089   0.000000
   27  F   2  S   0.000000   0.000000  -0.000005   0.002910   0.000000
   28  F   2  S   0.000000   0.000000   0.007565   0.085044   0.000000
   29  F   2  X   0.000000  -0.000798   0.000000   0.000000   0.000000
   30  F   2  Y  -0.000798   0.000000   0.000000   0.000000  -0.208991
   31  F   2  Z   0.000000   0.000000  -0.009139  -0.209151   0.000000
   32  F   2  X   0.000000  -0.001883   0.000000   0.000000   0.000000
   33  F   2  Y  -0.001883   0.000000   0.000000   0.000000  -0.443366
   34  F   2  Z   0.000000   0.000000  -0.020920  -0.443339   0.000000
   35  F   2 XX   0.000000   0.000000  -0.000007  -0.000125   0.000000
   36  F   2 YY   0.000000   0.000000  -0.000007  -0.000125   0.000000
   37  F   2 ZZ   0.000000   0.000000   0.000015   0.000250   0.000000
   38  F   2 XY   0.000000   0.000000   0.000000   0.000000   0.000000
   39  F   2 XZ   0.000000   0.000001   0.000000   0.000000   0.000000
   40  F   2 YZ   0.000001   0.000000   0.000000   0.000000   0.000206
   41  F   2  S   0.000000   0.000000  -0.012296  -0.139251   0.000000
   42  F   2  X   0.000000   0.004579   0.000000   0.000000   0.000000
   43  F   2  Y   0.004579   0.000000   0.000000   0.000000   1.140319
   44  F   2  Z   0.000000   0.000000   0.050280   1.141468   0.000000
   45  F   2 XX   0.000000   0.000000   0.000041   0.000454   0.000000
   46  F   2 YY   0.000000   0.000000   0.000041   0.000454   0.000000
   47  F   2 ZZ   0.000000   0.000000  -0.000082  -0.000908   0.000000
   48  F   2 XY   0.000000   0.000000   0.000000   0.000000   0.000000
   49  F   2 XZ   0.000000  -0.000008   0.000000   0.000000   0.000000
   50  F   2 YZ  -0.000008   0.000000   0.000000   0.000000  -0.000765

                     31         32         33         34         35
                    0.4479     0.4821     1.6733     1.6735     1.6735
                     B1         A1         A1         B1         B2  
    1  LI  1  S   0.000000  -0.033271   0.000444   0.000000   0.000000
    2  LI  1  S   0.000000  -0.165292   0.002007   0.000000   0.000000
    3  LI  1  S   0.000000   0.256926  -0.004012   0.000000   0.000000
    4  LI  1  X  -0.012257   0.000000   0.000000  -0.000126   0.000000
    5  LI  1  Y   0.000000   0.000000   0.000000   0.000000  -0.000126
    6  LI  1  Z   0.000000  -0.042789  -0.004117   0.000000   0.000000
    7  LI  1  X   0.028095   0.000000   0.000000   0.000604   0.000000
    8  LI  1  Y   0.000000   0.000000   0.000000   0.000000   0.000604
    9  LI  1  Z   0.000000   0.099697   0.006326   0.000000   0.000000
   10  LI  1 XX   0.000000  -0.005252   0.000053   0.000000   0.000000
   11  LI  1 YY   0.000000  -0.005252   0.000053   0.000000   0.000000
   12  LI  1 ZZ   0.000000   0.010504  -0.000106   0.000000   0.000000
   13  LI  1 XY   0.000000   0.000000   0.000000   0.000000   0.000000
   14  LI  1 XZ   0.010963   0.000000   0.000000   0.000012   0.000000
   15  LI  1 YZ   0.000000   0.000000   0.000000   0.000000   0.000012
   16  LI  1  S   0.000000  -0.121899   0.002980   0.000000   0.000000
   17  LI  1  X  -0.038179   0.000000   0.000000  -0.001500   0.000000
   18  LI  1  Y   0.000000   0.000000   0.000000   0.000000  -0.001500
   19  LI  1  Z   0.000000  -0.137427  -0.001403   0.000000   0.000000
   20  LI  1 XX   0.000000   0.004715  -0.000057   0.000000   0.000000
   21  LI  1 YY   0.000000   0.004715  -0.000057   0.000000   0.000000
   22  LI  1 ZZ   0.000000  -0.009430   0.000115   0.000000   0.000000
   23  LI  1 XY   0.000000   0.000000   0.000000   0.000000   0.000000
   24  LI  1 XZ  -0.009838   0.000000   0.000000  -0.000012   0.000000
   25  LI  1 YZ   0.000000   0.000000   0.000000   0.000000  -0.000012
   26  F   2  S   0.000000   0.058552   0.000188   0.000000   0.000000
   27  F   2  S   0.000000  -0.051965   0.000436   0.000000   0.000000
   28  F   2  S   0.000000  -0.899721  -0.000709   0.000000   0.000000
   29  F   2  X  -0.208991   0.000000   0.000000  -0.005408   0.000000
   30  F   2  Y   0.000000   0.000000   0.000000   0.000000  -0.005408
   31  F   2  Z   0.000000  -0.014305  -0.006639   0.000000   0.000000
   32  F   2  X  -0.443366   0.000000   0.000000   0.006007   0.000000
   33  F   2  Y   0.000000   0.000000   0.000000   0.000000   0.006007
   34  F   2  Z   0.000000  -0.034767   0.007324   0.000000   0.000000
   35  F   2 XX   0.000000   0.000021  -0.017979   0.000000   0.000000
   36  F   2 YY   0.000000   0.000021  -0.017979   0.000000   0.000000
   37  F   2 ZZ   0.000000  -0.000041   0.035958   0.000000   0.000000
   38  F   2 XY   0.000000   0.000000   0.000000   0.000000   0.000000
   39  F   2 XZ   0.000206   0.000000   0.000000   0.035944   0.000000
   40  F   2 YZ   0.000000   0.000000   0.000000   0.000000   0.035944
   41  F   2  S   0.000000   1.443666   0.000601   0.000000   0.000000
   42  F   2  X   1.140319   0.000000   0.000000  -0.003143   0.000000
   43  F   2  Y   0.000000   0.000000   0.000000   0.000000  -0.003143
   44  F   2  Z   0.000000   0.089487  -0.003612   0.000000   0.000000
   45  F   2 XX   0.000000  -0.000133   0.509096   0.000000   0.000000
   46  F   2 YY   0.000000  -0.000133   0.509087   0.000000   0.000000
   47  F   2 ZZ   0.000000   0.000267  -1.018183   0.000000   0.000000
   48  F   2 XY   0.000000   0.000000   0.000000   0.000000   0.000000
   49  F   2 XZ  -0.000765   0.000000   0.000000  -1.018178   0.000000
   50  F   2 YZ   0.000000   0.000000   0.000000   0.000000  -1.018178

                     36         37         38         39         40
                    1.6739     1.6739     2.0058     2.0058     2.0067
                     A2         A1         B2         B1         A1  
    1  LI  1  S   0.000000   0.000000   0.000000   0.000000   0.006473
    2  LI  1  S   0.000000   0.000000   0.000000   0.000000   0.030155
    3  LI  1  S   0.000000   0.000000   0.000000   0.000000  -0.055747
    4  LI  1  X   0.000000   0.000000   0.000000   0.004414   0.000000
    5  LI  1  Y   0.000000   0.000000   0.004414   0.000000   0.000000
    6  LI  1  Z   0.000000   0.000000   0.000000   0.000000  -0.016709
    7  LI  1  X   0.000000   0.000000   0.000000  -0.010494   0.000000
    8  LI  1  Y   0.000000   0.000000  -0.010494   0.000000   0.000000
    9  LI  1  Z   0.000000   0.000000   0.000000   0.000000   0.020433
   10  LI  1 XX   0.000000  -0.000001   0.000000   0.000000   0.003267
   11  LI  1 YY   0.000000   0.000001   0.000000   0.000000   0.003267
   12  LI  1 ZZ   0.000000   0.000000   0.000000   0.000000  -0.006534
   13  LI  1 XY  -0.000001   0.000000   0.000000   0.000000   0.000000
   14  LI  1 XZ   0.000000   0.000000   0.000000  -0.000628   0.000000
   15  LI  1 YZ   0.000000   0.000000  -0.000628   0.000000   0.000000
   16  LI  1  S   0.000000   0.000000   0.000000   0.000000   0.037157
   17  LI  1  X   0.000000   0.000000   0.000000   0.014760   0.000000
   18  LI  1  Y   0.000000   0.000000   0.014760   0.000000   0.000000
   19  LI  1  Z   0.000000   0.000000   0.000000   0.000000   0.015021
   20  LI  1 XX   0.000000   0.000001   0.000000   0.000000  -0.003530
   21  LI  1 YY   0.000000  -0.000001   0.000000   0.000000  -0.003530
   22  LI  1 ZZ   0.000000   0.000000   0.000000   0.000000   0.007061
   23  LI  1 XY   0.000001   0.000000   0.000000   0.000000   0.000000
   24  LI  1 XZ   0.000000   0.000000   0.000000   0.000673   0.000000
   25  LI  1 YZ   0.000000   0.000000   0.000673   0.000000   0.000000
   26  F   2  S   0.000000   0.000000   0.000000   0.000000   0.000054
   27  F   2  S   0.000000   0.000000   0.000000   0.000000   0.000526
   28  F   2  S   0.000000   0.000000   0.000000   0.000000   0.002680
   29  F   2  X   0.000000   0.000000   0.000000  -0.968973   0.000000
   30  F   2  Y   0.000000   0.000000  -0.968973   0.000000   0.000000
   31  F   2  Z   0.000000   0.000000   0.000000   0.000000   0.969237
   32  F   2  X   0.000000   0.000000   0.000000   1.261872   0.000000
   33  F   2  Y   0.000000   0.000000   1.261872   0.000000   0.000000
   34  F   2  Z   0.000000   0.000000   0.000000   0.000000  -1.263121
   35  F   2 XX   0.000000   0.031092   0.000000   0.000000   0.000080
   36  F   2 YY   0.000000  -0.031093   0.000000   0.000000   0.000080
   37  F   2 ZZ   0.000000   0.000000   0.000000   0.000000  -0.000159
   38  F   2 XY   0.035902   0.000000   0.000000   0.000000   0.000000
   39  F   2 XZ   0.000000   0.000000   0.000000   0.000133   0.000000
   40  F   2 YZ   0.000000   0.000000   0.000133   0.000000   0.000000
   41  F   2  S   0.000000   0.000000   0.000000   0.000000  -0.007873
   42  F   2  X   0.000000   0.000000   0.000000  -0.460959   0.000000
   43  F   2  Y   0.000000   0.000000  -0.460959   0.000000   0.000000
   44  F   2  Z   0.000000   0.000000   0.000000   0.000000   0.464439
   45  F   2 XX   0.000000  -0.881758   0.000000   0.000000   0.003048
   46  F   2 YY   0.000000   0.881763   0.000000   0.000000   0.003048
   47  F   2 ZZ   0.000000  -0.000005   0.000000   0.000000  -0.006096
   48  F   2 XY  -1.018169   0.000000   0.000000   0.000000   0.000000
   49  F   2 XZ   0.000000   0.000000   0.000000   0.004915   0.000000
   50  F   2 YZ   0.000000   0.000000   0.004915   0.000000   0.000000

                     41         42         43         44         45
                    2.6289     5.2368     5.2368     5.2368     5.2370
                     A1         A1         B1         B2         A1  
    1  LI  1  S  -0.012614   0.000236   0.000000   0.000000   0.000000
    2  LI  1  S  -0.061124   0.001077   0.000000   0.000000   0.000000
    3  LI  1  S   0.100503  -0.002097   0.000000   0.000000   0.000000
    4  LI  1  X   0.000000   0.000000  -0.000078   0.000000   0.000000
    5  LI  1  Y   0.000000   0.000000   0.000000  -0.000078   0.000000
    6  LI  1  Z  -0.016624  -0.001782   0.000000   0.000000   0.000000
    7  LI  1  X   0.000000   0.000000   0.000313   0.000000   0.000000
    8  LI  1  Y   0.000000   0.000000   0.000000   0.000313   0.000000
    9  LI  1  Z   0.042052   0.002739   0.000000   0.000000   0.000000
   10  LI  1 XX  -0.000816   0.000017   0.000000   0.000000   0.000000
   11  LI  1 YY  -0.000816   0.000017   0.000000   0.000000   0.000000
   12  LI  1 ZZ   0.001633  -0.000034   0.000000   0.000000   0.000000
   13  LI  1 XY   0.000000   0.000000   0.000000   0.000000   0.000000
   14  LI  1 XZ   0.000000   0.000000   0.000003   0.000000   0.000000
   15  LI  1 YZ   0.000000   0.000000   0.000000   0.000003   0.000000
   16  LI  1  S  -0.053500   0.001501   0.000000   0.000000   0.000000
   17  LI  1  X   0.000000   0.000000  -0.000718   0.000000   0.000000
   18  LI  1  Y   0.000000   0.000000   0.000000  -0.000718   0.000000
   19  LI  1  Z  -0.064527  -0.000513   0.000000   0.000000   0.000000
   20  LI  1 XX   0.000875  -0.000018   0.000000   0.000000   0.000000
   21  LI  1 YY   0.000875  -0.000018   0.000000   0.000000   0.000000
   22  LI  1 ZZ  -0.001749   0.000036   0.000000   0.000000   0.000000
   23  LI  1 XY   0.000000   0.000000   0.000000   0.000000   0.000000
   24  LI  1 XZ   0.000000   0.000000  -0.000003   0.000000   0.000000
   25  LI  1 YZ   0.000000   0.000000   0.000000  -0.000003   0.000000
   26  F   2  S   0.744283  -0.000030   0.000000   0.000000   0.000000
   27  F   2  S   1.754178  -0.000074   0.000000   0.000000   0.000000
   28  F   2  S  -2.201561   0.000084   0.000000   0.000000   0.000000
   29  F   2  X   0.000000   0.000000   0.000337   0.000000   0.000000
   30  F   2  Y   0.000000   0.000000   0.000000   0.000337   0.000000
   31  F   2  Z  -0.001790   0.000423   0.000000   0.000000   0.000000
   32  F   2  X   0.000000   0.000000  -0.000260   0.000000   0.000000
   33  F   2  Y   0.000000   0.000000   0.000000  -0.000260   0.000000
   34  F   2  Z   0.003595  -0.000382   0.000000   0.000000   0.000000
   35  F   2 XX  -0.000011  -0.584764   0.000000   0.000000   1.012818
   36  F   2 YY  -0.000011  -0.584744   0.000000   0.000000  -1.012830
   37  F   2 ZZ   0.000021   1.169508   0.000000   0.000000   0.000012
   38  F   2 XY   0.000000   0.000000   0.000000   0.000000   0.000000
   39  F   2 XZ   0.000000   0.000000   1.169507   0.000000   0.000000
   40  F   2 YZ   0.000000   0.000000   0.000000   1.169507   0.000000
   41  F   2  S   0.781617  -0.000019   0.000000   0.000000   0.000000
   42  F   2  X   0.000000   0.000000  -0.000004   0.000000   0.000000
   43  F   2  Y   0.000000   0.000000   0.000000  -0.000004   0.000000
   44  F   2  Z  -0.006912   0.000105   0.000000   0.000000   0.000000
   45  F   2 XX  -0.000131   0.288242   0.000000   0.000000  -0.499274
   46  F   2 YY  -0.000131   0.288232   0.000000   0.000000   0.499280
   47  F   2 ZZ   0.000262  -0.576475   0.000000   0.000000  -0.000006
   48  F   2 XY   0.000000   0.000000   0.000000   0.000000   0.000000
   49  F   2 XZ   0.000000   0.000000  -0.576481   0.000000   0.000000
   50  F   2 YZ   0.000000   0.000000   0.000000  -0.576481   0.000000

                     46
                    5.2370
                     A2  
    1  LI  1  S   0.000000
    2  LI  1  S   0.000000
    3  LI  1  S   0.000000
    4  LI  1  X   0.000000
    5  LI  1  Y   0.000000
    6  LI  1  Z   0.000000
    7  LI  1  X   0.000000
    8  LI  1  Y   0.000000
    9  LI  1  Z   0.000000
   10  LI  1 XX   0.000000
   11  LI  1 YY   0.000000
   12  LI  1 ZZ   0.000000
   13  LI  1 XY   0.000000
   14  LI  1 XZ   0.000000
   15  LI  1 YZ   0.000000
   16  LI  1  S   0.000000
   17  LI  1  X   0.000000
   18  LI  1  Y   0.000000
   19  LI  1  Z   0.000000
   20  LI  1 XX   0.000000
   21  LI  1 YY   0.000000
   22  LI  1 ZZ   0.000000
   23  LI  1 XY   0.000000
   24  LI  1 XZ   0.000000
   25  LI  1 YZ   0.000000
   26  F   2  S   0.000000
   27  F   2  S   0.000000
   28  F   2  S   0.000000
   29  F   2  X   0.000000
   30  F   2  Y   0.000000
   31  F   2  Z   0.000000
   32  F   2  X   0.000000
   33  F   2  Y   0.000000
   34  F   2  Z   0.000000
   35  F   2 XX   0.000000
   36  F   2 YY   0.000000
   37  F   2 ZZ   0.000000
   38  F   2 XY  -1.169508
   39  F   2 XZ   0.000000
   40  F   2 YZ   0.000000
   41  F   2  S   0.000000
   42  F   2  X   0.000000
   43  F   2  Y   0.000000
   44  F   2  Z   0.000000
   45  F   2 XX   0.000000
   46  F   2 YY   0.000000
   47  F   2 ZZ   0.000000
   48  F   2 XY   0.576515
   49  F   2 XZ   0.000000
   50  F   2 YZ   0.000000

 WARNING! THIS VERSION OF FIREFLY IS PROBABLY OUTDATED!
 PLEASE CHECK FIREFLY HOMEPAGE FOR INFORMATION ON UPDATES!

 ...... END OF RHF CALCULATION ......

                         TIMING STATISTICS ON RANK 0:
 CPU        TIME:   STEP =      0.27 ,  TOTAL =        0.7 SECONDS (    0.0 MIN)
 WALL CLOCK TIME:   STEP =      0.75 ,  TOTAL =        1.2 SECONDS (    0.0 MIN)
 CPU UTILIZATION:   STEP =     35.91%,  TOTAL =      56.82%


                         ------------------------------
                         properties for the RHF density
                         ------------------------------

          -----------------
          ENERGY COMPONENTS
          -----------------

         WAVEFUNCTION NORMALIZATION =       1.0000000000

                ONE ELECTRON ENERGY =    -155.7874657473
                TWO ELECTRON ENERGY =      47.3798380959
           NUCLEAR REPULSION ENERGY =       1.6809158457
                                      ------------------
                       TOTAL ENERGY =    -106.7267118058

 ELECTRON-ELECTRON POTENTIAL ENERGY =      47.3798380959
  NUCLEUS-ELECTRON POTENTIAL ENERGY =    -262.3651672178
   NUCLEUS-NUCLEUS POTENTIAL ENERGY =       1.6809158457
                                      ------------------
             TOTAL POTENTIAL ENERGY =    -213.3044132763
               TOTAL KINETIC ENERGY =     106.5777014705
                 VIRIAL RATIO (V/T) =       2.0013981380

  ...... PI ENERGY ANALYSIS ......

 ENERGY ANALYSIS:
            FOCK ENERGY=     -61.0277939734
          BARE H ENERGY=    -155.7874657473
     ELECTRONIC ENERGY =    -108.4076298604
         KINETIC ENERGY=     106.5777014705
          N-N REPULSION=       1.6809158457
           TOTAL ENERGY=    -106.7267140147
        SIGMA PART(1+2)=     -92.3964498141
               (K,V1,2)=      95.2065317350    -219.9460181360      32.3430365869
           PI PART(1+2)=     -16.0111800463
               (K,V1,2)=      11.3711697354     -42.4191490818      15.0367993001
  SIGMA SKELETON, ERROR=     -90.7155339684       0.0000000000
             MIXED PART= 0.00000E+00 0.00000E+00 0.00000E+00 0.00000E+00
 ...... END OF PI ENERGY ANALYSIS ......

          ---------------------------------------
          MULLIKEN AND LOWDIN POPULATION ANALYSES
          ---------------------------------------

     MULLIKEN ATOMIC POPULATION IN EACH MOLECULAR ORBITAL

                      1          2          3          4          5

                  2.000000   2.000000   2.000000   2.000000   2.000000

    1            -0.000001   2.000000  -0.000096   0.000025   0.000025
    2             2.000001   0.000000   2.000096   1.999975   1.999975

                      6

                  2.000000

    1             0.000268
    2             1.999732

               ----- POPULATIONS IN EACH AO -----
                             MULLIKEN      LOWDIN
              1  LI  1  S     2.00016     1.96914
              2  LI  1  S     0.00001     0.00403
              3  LI  1  S    -0.00036     0.02270
              4  LI  1  X     0.00000     0.00000
              5  LI  1  Y     0.00000     0.00000
              6  LI  1  Z    -0.00002     0.00001
              7  LI  1  X     0.00000     0.00000
              8  LI  1  Y     0.00000     0.00000
              9  LI  1  Z     0.00008     0.00005
             10  LI  1 XX     0.00000     0.00102
             11  LI  1 YY     0.00000     0.00102
             12  LI  1 ZZ     0.00000     0.00102
             13  LI  1 XY     0.00000     0.00000
             14  LI  1 XZ     0.00000     0.00000
             15  LI  1 YZ     0.00000     0.00000
             16  LI  1  S     0.00028     0.00106
             17  LI  1  X     0.00003     0.00005
             18  LI  1  Y     0.00003     0.00005
             19  LI  1  Z     0.00002     0.00061
             20  LI  1 XX     0.00000     0.00005
             21  LI  1 YY     0.00000     0.00005
             22  LI  1 ZZ     0.00000     0.00006
             23  LI  1 XY     0.00000     0.00000
             24  LI  1 XZ     0.00000     0.00000
             25  LI  1 YZ     0.00000     0.00000
             26  F   2  S     2.00134     1.88075
             27  F   2  S     0.88666     0.67780
             28  F   2  S     1.04156     0.48128
             29  F   2  X     1.09111     1.05440
             30  F   2  Y     1.09111     1.05440
             31  F   2  Z     1.08949     1.05271
             32  F   2  X     0.75567     0.76698
             33  F   2  Y     0.75567     0.76698
             34  F   2  Z     0.75523     0.76681
             35  F   2 XX     0.00000     0.20171
             36  F   2 YY     0.00000     0.20171
             37  F   2 ZZ     0.00000     0.20173
             38  F   2 XY     0.00000     0.00000
             39  F   2 XZ     0.00000     0.00000
             40  F   2 YZ     0.00000     0.00000
             41  F   2  S     0.07060     0.11526
             42  F   2  X     0.15319     0.17858
             43  F   2  Y     0.15319     0.17858
             44  F   2  Z     0.15496     0.18005
             45  F   2 XX     0.00000     0.07976
             46  F   2 YY     0.00000     0.07976
             47  F   2 ZZ     0.00000     0.07985
             48  F   2 XY     0.00000     0.00000
             49  F   2 XZ     0.00000     0.00000
             50  F   2 YZ     0.00000     0.00000

          ----- MULLIKEN ATOMIC OVERLAP POPULATIONS -----
          (OFF-DIAGONAL ELEMENTS NEED TO BE MULTIPLIED BY 2)

             1           2

    1    2.0000489
    2    0.0001720   9.9996071

          TOTAL MULLIKEN AND LOWDIN ATOMIC POPULATIONS
       ATOM         MULL.POP.    CHARGE          LOW.POP.     CHARGE
    1 LI            2.000221    0.999779         2.000912    0.999088
    2 F             9.999779   -0.999779         9.999088   -0.999088

          -------------------------------
          BOND ORDER AND VALENCE ANALYSIS     BOND ORDER THRESHOLD=0.050
          -------------------------------

                   BOND                       BOND                       BOND
  ATOM PAIR DIST  ORDER      ATOM PAIR DIST  ORDER      ATOM PAIR DIST  ORDER

                       TOTAL       BONDED        FREE
      ATOM            VALENCE     VALENCE     VALENCE
    1 LI                0.000       0.000       0.000
    2 F                 0.000       0.000       0.000

          ---------------------
          ELECTROSTATIC MOMENTS
          ---------------------

 POINT   1           X           Y           Z (BOHR)    CHARGE
                 0.000000    0.000000   11.730621        0.00 (A.U.)
         DX          DY          DZ         /D/  (DEBYE)
     0.000000    0.000000  -40.766549   40.766549
 ...... END OF PROPERTY EVALUATION ......

                         TIMING STATISTICS ON RANK 0:
 CPU        TIME:   STEP =      0.01 ,  TOTAL =        0.7 SECONDS (    0.0 MIN)
 WALL CLOCK TIME:   STEP =      0.01 ,  TOTAL =        1.2 SECONDS (    0.0 MIN)
 CPU UTILIZATION:   STEP =     95.48%,  TOTAL =      57.15%
 ......END OF NBO ANALYSIS......

                         TIMING STATISTICS ON RANK 0:
 CPU        TIME:   STEP =      0.00 ,  TOTAL =        0.7 SECONDS (    0.0 MIN)
 WALL CLOCK TIME:   STEP =      0.00 ,  TOTAL =        1.2 SECONDS (    0.0 MIN)
 CPU UTILIZATION:   STEP =      0.00%,  TOTAL =      56.96%

          --------------------
          2 ELECTRON INTEGRALS
          --------------------

 DIRECT SCF METHOD SKIPS INTEGRAL STORAGE ON DISK.
 DIRECT TRANSFORMATION SKIPS AO INTEGRAL STORAGE ON DISK.
 SCHWARZ INEQUALITY OVERHEAD:      1275 INTEGRALS, CPU TIME=        0.00
 ...... END OF TWO-ELECTRON INTEGRALS .....

 CPU        TIME:   STEP =      0.00 ,  TOTAL =        0.7 SECONDS (    0.0 MIN)
 WALL CLOCK TIME:   STEP =      0.00 ,  TOTAL =        1.3 SECONDS (    0.0 MIN)
 CPU UTILIZATION:   STEP =      0.00%,  TOTAL =      56.79%

 DETERMINANT CI OPTIONS   NRNFG   NPFLG
 INTEGRAL TRANSFORMATION    1       0
 DIAGONALIZE HAMILTONIAN    1       0
 FORM 1E- DENSITY MATRIX    1       0
 FORM 2E- DENSITY MATRIX    0       0

     --------------------------------------------------
          AMES LABORATORY DETERMINANTAL FULL CI
     PROGRAM WRITTEN BY JOE IVANIC AND KLAUS RUEDENBERG
     --------------------------------------------------

 THE POINT GROUP                  =   C2V     
 THE STATE SYMMETRY               =   A1      
 NUMBER OF CORE ORBITALS          =    3
 NUMBER OF ACTIVE ORBITALS        =   29
 NUMBER OF ALPHA ELECTRONS        =    6 (   3 ACTIVE)
 NUMBER OF BETA ELECTRONS         =    6 (   3 ACTIVE)
 NUMBER OF OCCUPIED ORBITALS      =   32
 NUMBER OF CI STATES REQUESTED    =    3
 NUMBER OF CI STARTING VECTORS    =    3
 MAX. NO. OF CI EXPANSION VECTORS =   12
 SIZE OF INITIAL CI GUESS MATRIX  =  300
 MAX. NO. OF CI ITERS/STATE       =  100
 CI DIAGONALIZATION CRITERION     = 1.00E-04
 CI PROPERTIES WILL BE FOUND FOR ROOT NUMBER   1
 1E- DENSITY MATRIX OPTIONS ARE 1 0 0

 SYMMETRIES FOR THE   3 CORE,  29 ACTIVE ARE

     CORE= A1    A1    A1  

   ACTIVE= B2    B1    A1    A1    B2    B1    A1    A1    B2    B1  
           A1    B2    B1    A1    A2    A1    B2    B1    A1    A1  
           A2    A1    B2    B1    A1    A1    B2    B1    A1  

     -------------------------------
     PARTIAL INTEGRAL TRANSFORMATION
     -------------------------------

 NUMBER OF CORE MOLECULAR ORBITALS     =    3
 NUMBER OF OCCUPIED MOLECULAR ORBITALS =   32
 TOTAL NUMBER OF MOLECULAR ORBITALS    =   32
 TOTAL NUMBER OF ATOMIC ORBITALS       =   50
 THRESHOLD FOR KEEPING TRANSFORMED 2E- INTEGRALS = 1.000E-09
 AO INTEGRALS WILL BE CALCULATED IN DIRECT MODE...
 DIRECT TRANSFORMATION SKIPS AO INTEGRAL STORAGE ON DISK.
 SCHWARZ INEQUALITY OVERHEAD:      1275 INTEGRALS, CPU TIME=        0.00
 EVALUATING THE FROZEN CORE ENERGY...
 ----- FROZEN CORE ENERGY =       -95.9445832766
 # OF WORDS AVAILABLE =  200000000
 # OF WORDS NEEDED    =    1896139 FOR IN MEMORY TRANSFORMATION

 PARALLEL ONLY WORKS WITH THE SEGMENTED ALGORITHM.
 ADJUSTING MEMORY TO USE SEGMENTED ALGORITHM.

 FOR THE SEGMENTED TRANSFORMATION:
 MINIMUM=    111139 WORDS FOR 1 MOLECULAR ORBITAL PER PASS
 MAXIMUM=    302389 WORDS FOR ALL MOLECULAR ORBITALS IN 1 PASS
        (     63750 EXTRA WORDS WOULD INCLUDE AN EXTRA ORBITAL/PASS)
 SEGMENTED PARTIAL TRANSFORMATION WOULD USE    302389 WORDS,
 DISTRIBUTING   8 PASSES EACH CONTAINING   4 ORBITALS OVER   8 RANK(S).   

 CHOOSING SEGMENTED PARTIAL TRANSFORMATION...
 DIRECT TRANSFORMATION SKIPS AO INTEGRAL STORAGE ON DISK.
 PASS #   1 TOOK        0.09 SECONDS.
 ASSIGNING PASS #   2 TO A DIFFERENT RANK.     
 ASSIGNING PASS #   3 TO A DIFFERENT RANK.     
 ASSIGNING PASS #   4 TO A DIFFERENT RANK.     
 ASSIGNING PASS #   5 TO A DIFFERENT RANK.     
 ASSIGNING PASS #   6 TO A DIFFERENT RANK.     
 ASSIGNING PASS #   7 TO A DIFFERENT RANK.     
 ASSIGNING PASS #   8 TO A DIFFERENT RANK.     
 TOTAL NUMBER OF TRANSFORMED 2E- INTEGRALS KEPT =     23377
 ... END OF INTEGRAL TRANSFORMATION ...

                         TIMING STATISTICS ON RANK 0:
 CPU        TIME:   STEP =      0.15 ,  TOTAL =        0.9 SECONDS (    0.0 MIN)
 WALL CLOCK TIME:   STEP =      0.30 ,  TOTAL =        1.5 SECONDS (    0.0 MIN)
 CPU UTILIZATION:   STEP =     50.16%,  TOTAL =      55.51%

     --------------------------------------------------
          AMES LABORATORY DETERMINANTAL FULL CI
     PROGRAM WRITTEN BY JOE IVANIC AND KLAUS RUEDENBERG
          PROGRAM REWRITTEN BY ALEX A. GRANOVSKY
     --------------------------------------------------

 THE NUMBER OF DETERMINANTS HAVING SPACE SYMMETRY A1 
 IN POINT GROUP C2V  WITH SZ=  0.0 IS        3340156
 THE DETERMINANT FULL CI REQUIRES    24300418 WORDS
 INITIAL CI VECTOR GUESS TIME  :          1.2
 INITIAL FULL CI ITERATION TIME:          4.0

 ITERATION      ENERGY           GRADIENT
     1     -106.7666925351     0.09098339
     1     -106.7666827950     0.09105249
     1     -106.7267659967     0.15943802

     2     -106.7693931296     0.03393117
     2     -106.7693919015     0.03397142
     2     -106.7434682150     0.09436328

     3     -106.7699916051     0.01804914
     3     -106.7699913915     0.01803034
     3     -106.7487404262     0.02970309

     4     -106.7701129628     0.00821482
     4     -106.7701120805     0.00818952
     4     -106.7489954776     0.01137687

     5     -106.7701315541     0.00370990
     5     -106.7701304954     0.00369894
     5     -106.7490287370     0.00471216

     6     -106.7701387792     0.00210061
     6     -106.7701376044     0.00205902
     6     -106.7490363841     0.00143824

     7     -106.7701410218     0.00159243
     7     -106.7701398038     0.00158353
     7     -106.7490370678     0.00057568

     8     -106.7701416337     0.00075048
     8     -106.7701404074     0.00074711
     8     -106.7490371745     0.00028234

     9     -106.7701419569     0.00041681
     9     -106.7701407262     0.00041494
     9     -106.7490372331     0.00021061

    10     -106.7701420712     0.00030306
    10     -106.7701408400     0.00030181
    10     -106.7490372514     0.00012391

    11     -106.7701421001     0.00014089
    11     -106.7701408685     0.00013823
    11     -106.7490372554     0.00005235


 CONVERGED STATE    3 ENERGY=     -106.7490372554 IN   10 ITERS

     0     -106.7701421001     0.00014089
     0     -106.7701408685     0.00013823

     1     -106.7701421083     0.00006788
     1     -106.7701408766     0.00006750


 CONVERGED STATE    1 ENERGY=     -106.7701421083 IN   12 ITERS


 CONVERGED STATE    2 ENERGY=     -106.7701408766 IN   12 ITERS

 ALL STATES CONVERGED.

 CI EIGENVECTORS WILL BE LABELED IN GROUP=C2V     
 PRINTING CI COEFFICIENTS LARGER THAN  0.050000

 STATE   1  ENERGY=      -106.7701421083  S=  0.00  SZ=  0.00  SPACE SYM=A1  

            ALPHA              |            BETA               | COEFFICIENT
-------------------------------|-------------------------------|------------
 11010000000000000000000000000 | 11100000000000000000000000000 |  -0.6698129
 11100000000000000000000000000 | 11010000000000000000000000000 |  -0.6698129
 11010000000000000000000000000 | 11000000000000000000000001000 |  -0.1020866
 11000000000000000000000001000 | 11010000000000000000000000000 |  -0.1020866
 11010000000000000000000000000 | 10100000000000000000000000010 |   0.0916049
 10100000000000000000000000010 | 11010000000000000000000000000 |   0.0916049
 11010000000000000000000000000 | 01100000000000000000000000100 |  -0.0916048
 01100000000000000000000000100 | 11010000000000000000000000000 |  -0.0916048
 11000010000000000000000000000 | 11100000000000000000000000000 |   0.0863376
 11100000000000000000000000000 | 11000010000000000000000000000 |   0.0863376
 10010000000000000000000000010 | 11100000000000000000000000000 |   0.0858515
 11100000000000000000000000000 | 10010000000000000000000000010 |   0.0858515
 01010000000000000000000000100 | 11100000000000000000000000000 |  -0.0858514
 11100000000000000000000000000 | 01010000000000000000000000100 |  -0.0858514

 STATE   2  ENERGY=      -106.7701408766  S=  1.00  SZ=  0.00  SPACE SYM=A1  

            ALPHA              |            BETA               | COEFFICIENT
-------------------------------|-------------------------------|------------
 11100000000000000000000000000 | 11010000000000000000000000000 |   0.6698605
 11010000000000000000000000000 | 11100000000000000000000000000 |  -0.6698605
 11000000000000000000000001000 | 11010000000000000000000000000 |   0.1020896
 11010000000000000000000000000 | 11000000000000000000000001000 |  -0.1020896
 10100000000000000000000000010 | 11010000000000000000000000000 |  -0.0916097
 11010000000000000000000000000 | 10100000000000000000000000010 |   0.0916097
 01100000000000000000000000100 | 11010000000000000000000000000 |   0.0916096
 11010000000000000000000000000 | 01100000000000000000000000100 |  -0.0916096
 11100000000000000000000000000 | 11000010000000000000000000000 |  -0.0863340
 11000010000000000000000000000 | 11100000000000000000000000000 |   0.0863340
 11100000000000000000000000000 | 10010000000000000000000000010 |  -0.0858561
 10010000000000000000000000010 | 11100000000000000000000000000 |   0.0858561
 11100000000000000000000000000 | 01010000000000000000000000100 |   0.0858560
 01010000000000000000000000100 | 11100000000000000000000000000 |  -0.0858560

 STATE   3  ENERGY=      -106.7490372558  S=  0.00  SZ=  0.00  SPACE SYM=A1  

            ALPHA              |            BETA               | COEFFICIENT
-------------------------------|-------------------------------|------------
 11100000000000000000000000000 | 11100000000000000000000000000 |  -0.9871157
 ..... DONE WITH DETERMINANT CI COMPUTATION .....

                         TIMING STATISTICS ON RANK 0:
 CPU        TIME:   STEP =     48.87 ,  TOTAL =       49.7 SECONDS (    0.8 MIN)
 WALL CLOCK TIME:   STEP =     85.10 ,  TOTAL =       86.6 SECONDS (    1.4 MIN)
 CPU UTILIZATION:   STEP =     57.43%,  TOTAL =      57.39%

     ---------------------------
     ONE PARTICLE DENSITY MATRIX
     ---------------------------

 DENSITY MATRIX WILL BE SAVED FOR PROPERTIES OF STATE   1

 CI EIGENSTATE   1 TOTAL ENERGY =     -106.7701421083

          NATURAL ORBITALS IN ATOMIC ORBITAL BASIS
          ----------------------------------------

                      1          2          3          4          5

                    2.0000     2.0000     2.0000     1.9993     1.9993

    1  LI  1  S  -0.000017  -1.000083  -0.000122   0.000000   0.000000
    2  LI  1  S  -0.000083   0.001091  -0.000579   0.000000   0.000000
    3  LI  1  S   0.000137   0.001075   0.001001   0.000000   0.000000
    4  LI  1  X   0.000000   0.000000   0.000000   0.000000  -0.000138
    5  LI  1  Y   0.000000   0.000000   0.000000  -0.000138   0.000000
    6  LI  1  Z  -0.000024   0.000611  -0.000134   0.000000   0.000000
    7  LI  1  X   0.000000   0.000000   0.000000   0.000000   0.000310
    8  LI  1  Y   0.000000   0.000000   0.000000   0.000310   0.000000
    9  LI  1  Z   0.000061  -0.000519   0.000394   0.000000   0.000000
   10  LI  1 XX  -0.000001  -0.000013  -0.000001   0.000000   0.000000
   11  LI  1 YY  -0.000001  -0.000013  -0.000001   0.000000   0.000000
   12  LI  1 ZZ   0.000002   0.000027   0.000001   0.000000   0.000000
   13  LI  1 XY   0.000000   0.000000   0.000000   0.000000   0.000000
   14  LI  1 XZ   0.000000   0.000000   0.000000   0.000000   0.000023
   15  LI  1 YZ   0.000000   0.000000   0.000000   0.000023   0.000000
   16  LI  1  S  -0.000074  -0.001310  -0.000576   0.000000   0.000000
   17  LI  1  X   0.000000   0.000000   0.000000   0.000000  -0.000407
   18  LI  1  Y   0.000000   0.000000   0.000000  -0.000407   0.000000
   19  LI  1  Z  -0.000092   0.000051  -0.000694   0.000000   0.000000
   20  LI  1 XX   0.000001   0.000010   0.000000   0.000000   0.000000
   21  LI  1 YY   0.000001   0.000010   0.000000   0.000000   0.000000
   22  LI  1 ZZ  -0.000002  -0.000019   0.000001   0.000000   0.000000
   23  LI  1 XY   0.000000   0.000000   0.000000   0.000000   0.000000
   24  LI  1 XZ   0.000000   0.000000   0.000000   0.000000  -0.000024
   25  LI  1 YZ   0.000000   0.000000   0.000000  -0.000024   0.000000
   26  F   2  S   1.000684   0.000008  -0.006352   0.000000   0.000000
   27  F   2  S   0.000510   0.000014   0.490907   0.000000   0.000000
   28  F   2  S  -0.003375  -0.000046   0.554516   0.000000   0.000000
   29  F   2  X   0.000000   0.000000   0.000000   0.000000  -0.650269
   30  F   2  Y   0.000000   0.000000   0.000000  -0.650269   0.000000
   31  F   2  Z  -0.000019  -0.000003  -0.000399   0.000000   0.000000
   32  F   2  X   0.000000   0.000000   0.000000   0.000000  -0.500410
   33  F   2  Y   0.000000   0.000000   0.000000  -0.500410   0.000000
   34  F   2  Z   0.000012   0.000014  -0.000956   0.000000   0.000000
   35  F   2 XX   0.000000   0.000000   0.000002   0.000000   0.000000
   36  F   2 YY   0.000000   0.000000   0.000002   0.000000   0.000000
   37  F   2 ZZ  -0.000001   0.000000  -0.000005   0.000000   0.000000
   38  F   2 XY   0.000000   0.000000   0.000000   0.000000   0.000000
   39  F   2 XZ   0.000000   0.000000   0.000000   0.000000   0.000058
   40  F   2 YZ   0.000000   0.000000   0.000000   0.000058   0.000000
   41  F   2  S   0.001105   0.000076   0.056303   0.000000   0.000000
   42  F   2  X   0.000000   0.000000   0.000000   0.000000  -0.010342
   43  F   2  Y   0.000000   0.000000   0.000000  -0.010342   0.000000
   44  F   2  Z  -0.000014  -0.000040  -0.000579   0.000000   0.000000
   45  F   2 XX   0.000000   0.000000  -0.000044   0.000000   0.000000
   46  F   2 YY   0.000000   0.000000  -0.000044   0.000000   0.000000
   47  F   2 ZZ   0.000000   0.000001   0.000088   0.000000   0.000000
   48  F   2 XY   0.000000   0.000000   0.000000   0.000000   0.000000
   49  F   2 XZ   0.000000   0.000000   0.000000   0.000000   0.001047
   50  F   2 YZ   0.000000   0.000000   0.000000   0.001047   0.000000

                      6          7          8          9         10

                    1.0101     0.9898     0.0006     0.0006     0.0002

    1  LI  1  S   0.001972  -0.001400   0.000000   0.000000   0.011262
    2  LI  1  S   0.710936  -0.710015   0.000000   0.000000   0.056320
    3  LI  1  S  -0.009608   0.004699   0.000000   0.000000  -0.097886
    4  LI  1  X   0.000000   0.000000  -0.005703   0.000000   0.000000
    5  LI  1  Y   0.000000   0.000000   0.000000  -0.005703   0.000000
    6  LI  1  Z  -0.000061  -0.001015   0.000000   0.000000  -0.026786
    7  LI  1  X   0.000000   0.000000   0.017826   0.000000   0.000000
    8  LI  1  Y   0.000000   0.000000   0.000000   0.017826   0.000000
    9  LI  1  Z   0.000705   0.000493   0.000000   0.000000   0.032691
   10  LI  1 XX   0.000160   0.000080   0.000000   0.000000   0.004568
   11  LI  1 YY   0.000160   0.000080   0.000000   0.000000   0.004568
   12  LI  1 ZZ  -0.000320  -0.000159   0.000000   0.000000  -0.009135
   13  LI  1 XY   0.000000   0.000000   0.000000   0.000000   0.000000
   14  LI  1 XZ   0.000000   0.000000   0.000543   0.000000   0.000000
   15  LI  1 YZ   0.000000   0.000000   0.000000   0.000543   0.000000
   16  LI  1  S   0.006801  -0.003589   0.000000   0.000000   0.066780
   17  LI  1  X   0.000000   0.000000  -0.025460   0.000000   0.000000
   18  LI  1  Y   0.000000   0.000000   0.000000  -0.025460   0.000000
   19  LI  1  Z   0.000706   0.000814   0.000000   0.000000   0.028606
   20  LI  1 XX  -0.000219  -0.000042   0.000000   0.000000  -0.005030
   21  LI  1 YY  -0.000219  -0.000042   0.000000   0.000000  -0.005030
   22  LI  1 ZZ   0.000439   0.000085   0.000000   0.000000   0.010060
   23  LI  1 XY   0.000000   0.000000   0.000000   0.000000   0.000000
   24  LI  1 XZ   0.000000   0.000000  -0.000317   0.000000   0.000000
   25  LI  1 YZ   0.000000   0.000000   0.000000  -0.000317   0.000000
   26  F   2  S  -0.000250  -0.000243   0.000000   0.000000  -0.001207
   27  F   2  S  -0.001178  -0.000937   0.000000   0.000000  -0.000751
   28  F   2  S  -0.000084   0.000411   0.000000   0.000000   0.011783
   29  F   2  X   0.000000   0.000000  -0.127042   0.000000   0.000000
   30  F   2  Y   0.000000   0.000000   0.000000  -0.127042   0.000000
   31  F   2  Z  -0.461628  -0.461091   0.000000   0.000000  -0.114481
   32  F   2  X   0.000000   0.000000  -0.382561  -0.000001   0.000000
   33  F   2  Y   0.000000   0.000000   0.000001  -0.382561   0.000000
   34  F   2  Z  -0.359085  -0.359500   0.000000   0.000000  -0.373707
   35  F   2 XX  -0.000026  -0.000022   0.000000   0.000000  -0.000117
   36  F   2 YY  -0.000026  -0.000022   0.000000   0.000000  -0.000117
   37  F   2 ZZ   0.000052   0.000045   0.000000   0.000000   0.000234
   38  F   2 XY   0.000000   0.000000   0.000000   0.000000   0.000000
   39  F   2 XZ   0.000000   0.000000   0.000199   0.000000   0.000000
   40  F   2 YZ   0.000000   0.000000   0.000000   0.000199   0.000000
   41  F   2  S  -0.000189  -0.000507   0.000000   0.000000  -0.020086
   42  F   2  X   0.000000   0.000000   1.150756   0.000002   0.000000
   43  F   2  Y   0.000000   0.000000  -0.000002   1.150756   0.000000
   44  F   2  Z   0.007136   0.010589   0.000000   0.000000   1.155267
   45  F   2 XX  -0.000434  -0.000432   0.000000   0.000000   0.000535
   46  F   2 YY  -0.000434  -0.000432   0.000000   0.000000   0.000535
   47  F   2 ZZ   0.000869   0.000864   0.000000   0.000000  -0.001071
   48  F   2 XY   0.000000   0.000000   0.000000   0.000000   0.000000
   49  F   2 XZ   0.000000   0.000000  -0.000904   0.000000   0.000000
   50  F   2 YZ   0.000000   0.000000   0.000000  -0.000904   0.000000

                     11         12         13         14         15

                    0.0001     0.0000     0.0000     0.0000     0.0000

    1  LI  1  S  -0.017616   0.000000   0.000000   0.000420  -0.228408
    2  LI  1  S  -0.085797   0.000000   0.000000   0.005037  -1.021677
    3  LI  1  S   0.141649   0.000000   0.000000  -0.001624   1.943471
    4  LI  1  X   0.000000   0.823511   0.000000   0.000000   0.000000
    5  LI  1  Y   0.000000   0.000000  -0.823519   0.000000   0.000000
    6  LI  1  Z  -0.022645   0.000000   0.000000  -0.680817   1.129684
    7  LI  1  X   0.000000   0.132003   0.000000   0.000000   0.000000
    8  LI  1  Y   0.000000   0.000000  -0.131992   0.000000   0.000000
    9  LI  1  Z   0.060029   0.000000   0.000000  -0.323173  -0.998871
   10  LI  1 XX  -0.000694   0.000000   0.000000  -0.128917  -0.197291
   11  LI  1 YY  -0.000694   0.000000   0.000000  -0.128917  -0.197291
   12  LI  1 ZZ   0.001388   0.000000   0.000000   0.257834   0.394582
   13  LI  1 XY   0.000000   0.000000   0.000000   0.000000   0.000000
   14  LI  1 XZ   0.000000  -0.178806   0.000000   0.000000   0.000000
   15  LI  1 YZ   0.000000   0.000000   0.178807   0.000000   0.000000
   16  LI  1  S  -0.077683   0.000000   0.000000  -0.004164  -1.252684
   17  LI  1  X   0.000000   0.069368   0.000000   0.000000   0.000000
   18  LI  1  Y   0.000000   0.000000  -0.069372   0.000000   0.000000
   19  LI  1  Z  -0.094529   0.000000   0.000000   0.055189  -0.426053
   20  LI  1 XX   0.000687   0.000000   0.000000   0.258848   0.170355
   21  LI  1 YY   0.000687   0.000000   0.000000   0.258848   0.170355
   22  LI  1 ZZ  -0.001374   0.000000   0.000000  -0.517696  -0.340710
   23  LI  1 XY   0.000000   0.000000   0.000000   0.000000   0.000000
   24  LI  1 XZ   0.000000   0.382936   0.000000   0.000000   0.000000
   25  LI  1 YZ   0.000000   0.000000  -0.382937   0.000000   0.000000
   26  F   2  S   0.058498   0.000000   0.000000   0.000190   0.005906
   27  F   2  S  -0.052760   0.000000   0.000000   0.000208   0.009489
   28  F   2  S  -0.900888   0.000000   0.000000  -0.002014  -0.052991
   29  F   2  X   0.000000   0.000235   0.000000   0.000000   0.000000
   30  F   2  Y   0.000000   0.000000  -0.000235   0.000000   0.000000
   31  F   2  Z   0.000341   0.000000   0.000000   0.000343   0.000337
   32  F   2  X   0.000000   0.001647   0.000000   0.000000   0.000000
   33  F   2  Y   0.000000   0.000000  -0.001647   0.000000   0.000000
   34  F   2  Z  -0.001178   0.000000   0.000000   0.003907   0.016064
   35  F   2 XX   0.000029   0.000000   0.000000   0.000028   0.000061
   36  F   2 YY   0.000029   0.000000   0.000000   0.000028   0.000061
   37  F   2 ZZ  -0.000058   0.000000   0.000000  -0.000056  -0.000123
   38  F   2 XY   0.000000   0.000000   0.000000   0.000000   0.000000
   39  F   2 XZ   0.000000  -0.000014   0.000000   0.000000   0.000000
   40  F   2 YZ   0.000000   0.000000   0.000014   0.000000   0.000000
   41  F   2  S   1.441648   0.000000   0.000000   0.002174   0.139412
   42  F   2  X   0.000000  -0.005753   0.000000   0.000000   0.000000
   43  F   2  Y   0.000000   0.000000   0.005753   0.000000   0.000000
   44  F   2  Z  -0.000372   0.000000   0.000000  -0.015158  -0.070940
   45  F   2 XX  -0.000166   0.000000   0.000000  -0.000049  -0.000144
   46  F   2 YY  -0.000166   0.000000   0.000000  -0.000049  -0.000144
   47  F   2 ZZ   0.000332   0.000000   0.000000   0.000098   0.000289
   48  F   2 XY   0.000000   0.000000   0.000000   0.000000   0.000000
   49  F   2 XZ   0.000000   0.000029   0.000000   0.000000   0.000000
   50  F   2 YZ   0.000000   0.000000  -0.000029   0.000000   0.000000

                     16         17         18         19         20

                    0.0000     0.0000     0.0000     0.0000     0.0000

    1  LI  1  S   0.000000   0.000000   0.000000   0.000000  -0.303061
    2  LI  1  S   0.000000   0.000000   0.000000   0.000000  -1.665636
    3  LI  1  S   0.000000   0.000000   0.000000   0.000000   2.043666
    4  LI  1  X   0.708698   0.000000   0.000005   0.507303   0.000000
    5  LI  1  Y   0.000000   0.708638   0.507229  -0.000005   0.000000
    6  LI  1  Z   0.000000   0.000000   0.000000   0.000000  -1.390427
    7  LI  1  X  -1.190403   0.000001   0.000000  -0.033953   0.000000
    8  LI  1  Y  -0.000001  -1.190337  -0.033868   0.000000   0.000000
    9  LI  1  Z   0.000000   0.000000   0.000000   0.000000   1.826326
   10  LI  1 XX   0.000000   0.000000   0.000000   0.000000   0.358246
   11  LI  1 YY   0.000000   0.000000   0.000000   0.000000   0.358247
   12  LI  1 ZZ   0.000000   0.000000   0.000000   0.000000  -0.716493
   13  LI  1 XY   0.000000   0.000000   0.000000   0.000000   0.000000
   14  LI  1 XZ   0.434326   0.000000   0.000009   0.943054   0.000000
   15  LI  1 YZ   0.000000   0.434332   0.943064  -0.000009   0.000000
   16  LI  1  S   0.000000   0.000000   0.000000   0.000000  -0.419971
   17  LI  1  X   1.080576  -0.000001  -0.000006  -0.612370   0.000000
   18  LI  1  Y   0.000001   1.080573  -0.612372   0.000006   0.000000
   19  LI  1  Z   0.000000   0.000000   0.000000   0.000000  -0.974744
   20  LI  1 XX   0.000000   0.000000   0.000000   0.000000  -0.379241
   21  LI  1 YY   0.000000   0.000000   0.000000   0.000000  -0.379242
   22  LI  1 ZZ   0.000000   0.000000   0.000000   0.000000   0.758483
   23  LI  1 XY   0.000000   0.000000   0.000000   0.000000   0.000000
   24  LI  1 XZ  -0.864847   0.000000  -0.000015  -1.554169   0.000000
   25  LI  1 YZ   0.000000  -0.864859  -1.554192   0.000015   0.000000
   26  F   2  S   0.000000   0.000000   0.000000   0.000000   0.006879
   27  F   2  S   0.000000   0.000000   0.000000   0.000000   0.011059
   28  F   2  S   0.000000   0.000000   0.000000   0.000000  -0.061337
   29  F   2  X  -0.000119   0.000000   0.000000   0.000035   0.000000
   30  F   2  Y   0.000000  -0.000119   0.000035   0.000000   0.000000
   31  F   2  Z   0.000000   0.000000   0.000000   0.000000  -0.001047
   32  F   2  X   0.007209   0.000000   0.000000  -0.004249   0.000000
   33  F   2  Y   0.000000   0.007209  -0.004249   0.000000   0.000000
   34  F   2  Z   0.000000   0.000000   0.000000   0.000000   0.006201
   35  F   2 XX   0.000000   0.000000   0.000000   0.000000  -0.000008
   36  F   2 YY   0.000000   0.000000   0.000000   0.000000  -0.000008
   37  F   2 ZZ   0.000000   0.000000   0.000000   0.000000   0.000015
   38  F   2 XY   0.000000   0.000000   0.000000   0.000000   0.000000
   39  F   2 XZ  -0.000067   0.000000   0.000000   0.000041   0.000000
   40  F   2 YZ   0.000000  -0.000067   0.000041   0.000000   0.000000
   41  F   2  S   0.000000   0.000000   0.000000   0.000000   0.169069
   42  F   2  X  -0.029774   0.000000   0.000000   0.017597   0.000000
   43  F   2  Y   0.000000  -0.029774   0.017597   0.000000   0.000000
   44  F   2  Z   0.000000   0.000000   0.000000   0.000000  -0.030720
   45  F   2 XX   0.000000   0.000000   0.000000   0.000000  -0.000060
   46  F   2 YY   0.000000   0.000000   0.000000   0.000000  -0.000060
   47  F   2 ZZ   0.000000   0.000000   0.000000   0.000000   0.000120
   48  F   2 XY   0.000000   0.000000   0.000000   0.000000   0.000000
   49  F   2 XZ   0.000191   0.000000   0.000000  -0.000108   0.000000
   50  F   2 YZ   0.000000   0.000191  -0.000108   0.000000   0.000000

                     21         22         23         24         25

                    0.0000     0.0000     0.0000     0.0000     0.0000

    1  LI  1  S  -0.579927  -0.077981   0.000000   0.000001   0.000000
    2  LI  1  S  -3.323570  -0.543264   0.000000   0.000006  -0.000001
    3  LI  1  S   3.683100   0.331608   0.000000  -0.000011   0.000003
    4  LI  1  X   0.000000   0.000000   0.000000   0.000000   0.516744
    5  LI  1  Y   0.000000   0.000000   0.000000   0.000000   0.002266
    6  LI  1  Z   0.772398   0.211875   0.000000   0.000003  -0.000001
    7  LI  1  X   0.000000   0.000000   0.000000   0.000000  -0.525866
    8  LI  1  Y   0.000000   0.000000   0.000000   0.000000  -0.002305
    9  LI  1  Z  -1.058539   0.196853   0.000000  -0.000003   0.000001
   10  LI  1 XX   0.337995  -0.389248  -0.000050  -0.769526   0.000000
   11  LI  1 YY   0.337996  -0.389253   0.000050   0.769523   0.000000
   12  LI  1 ZZ  -0.675991   0.778501   0.000000   0.000003  -0.000001
   13  LI  1 XY   0.000001   0.000002   0.888562  -0.000058   0.000000
   14  LI  1 XZ   0.000000   0.000000   0.000000   0.000000  -2.265417
   15  LI  1 YZ   0.000000   0.000000   0.000000   0.000000  -0.009937
   16  LI  1  S  -0.267595   0.345913   0.000000   0.000007  -0.000002
   17  LI  1  X   0.000000   0.000000   0.000000   0.000000  -0.034097
   18  LI  1  Y   0.000000   0.000000   0.000000   0.000000  -0.000150
   19  LI  1  Z   0.431423  -0.300131   0.000000  -0.000003   0.000001
   20  LI  1 XX  -0.345514   0.764648   0.000099   1.516334   0.000000
   21  LI  1 YY  -0.345514   0.764654  -0.000099  -1.516332   0.000000
   22  LI  1 ZZ   0.691028  -1.529302   0.000000  -0.000001   0.000000
   23  LI  1 XY  -0.000001  -0.000002  -1.750904   0.000114   0.000000
   24  LI  1 XZ   0.000000   0.000000   0.000000   0.000000   1.734399
   25  LI  1 YZ   0.000000   0.000000   0.000000   0.000000   0.007607
   26  F   2  S  -0.002514   0.001135   0.000000   0.000000   0.000000
   27  F   2  S  -0.004308   0.001772   0.000000   0.000000   0.000000
   28  F   2  S   0.020371  -0.010404   0.000000   0.000000   0.000000
   29  F   2  X   0.000000   0.000000   0.000000   0.000000   0.000079
   30  F   2  Y   0.000000   0.000000   0.000000   0.000000   0.000000
   31  F   2  Z   0.000155   0.000332   0.000000   0.000000   0.000000
   32  F   2  X   0.000000   0.000000   0.000000   0.000000  -0.000534
   33  F   2  Y   0.000000   0.000000   0.000000   0.000000  -0.000002
   34  F   2  Z  -0.000633  -0.001747   0.000000   0.000000   0.000000
   35  F   2 XX   0.000015  -0.000022   0.000000   0.000000   0.000000
   36  F   2 YY   0.000015  -0.000022   0.000000   0.000000   0.000000
   37  F   2 ZZ  -0.000030   0.000043   0.000000   0.000000   0.000000
   38  F   2 XY   0.000000   0.000000   0.000000   0.000000   0.000000
   39  F   2 XZ   0.000000   0.000000   0.000000   0.000000   0.000007
   40  F   2 YZ   0.000000   0.000000   0.000000   0.000000   0.000000
   41  F   2  S  -0.054427   0.029992   0.000000   0.000000   0.000000
   42  F   2  X   0.000000   0.000000   0.000000   0.000000   0.001709
   43  F   2  Y   0.000000   0.000000   0.000000   0.000000   0.000007
   44  F   2  Z   0.003997   0.003829   0.000000   0.000000   0.000000
   45  F   2 XX  -0.000027   0.000053   0.000000   0.000000   0.000000
   46  F   2 YY  -0.000027   0.000053   0.000000   0.000000   0.000000
   47  F   2 ZZ   0.000054  -0.000107   0.000000   0.000000   0.000000
   48  F   2 XY   0.000000   0.000000   0.000000   0.000000   0.000000
   49  F   2 XZ   0.000000   0.000000   0.000000   0.000000  -0.000016
   50  F   2 YZ   0.000000   0.000000   0.000000   0.000000   0.000000

                     26         27         28         29         30

                    0.0000     0.0000     0.0000     0.0000     0.0000

    1  LI  1  S   0.000000   0.292837   0.000000   0.000000  -0.244157
    2  LI  1  S  -0.000001   1.373707   0.000001   0.000000  -1.364685
    3  LI  1  S   0.000001  -2.377513  -0.000001   0.000000   1.608354
    4  LI  1  X   0.002267   0.000000   1.800775   0.000195   0.000000
    5  LI  1  Y  -0.516549   0.000000   0.000196  -1.800872   0.000000
    6  LI  1  Z   0.000000   0.635448   0.000000   0.000000  -0.489112
    7  LI  1  X  -0.002307   0.000000  -2.095339  -0.000227   0.000000
    8  LI  1  Y   0.525637   0.000000  -0.000227   2.095436   0.000000
    9  LI  1  Z   0.000000  -0.560959   0.000000   0.000000   0.485937
   10  LI  1 XX   0.000000  -0.100122   0.000000   0.000000  -1.059555
   11  LI  1 YY   0.000000  -0.100191   0.000000   0.000000  -1.059567
   12  LI  1 ZZ   0.000000   0.200312   0.000000   0.000000   2.119122
   13  LI  1 XY   0.000000   0.000031   0.000000   0.000000   0.000004
   14  LI  1 XZ  -0.009936  -0.000003   0.295247   0.000032  -0.000001
   15  LI  1 YZ   2.265438   0.000002   0.000032  -0.295041   0.000000
   16  LI  1  S  -0.000001   1.343591   0.000001   0.000000  -0.248376
   17  LI  1  X  -0.000150   0.000000   0.146589   0.000016   0.000000
   18  LI  1  Y   0.034112   0.000000   0.000016  -0.146593   0.000000
   19  LI  1  Z   0.000000  -0.483846   0.000000   0.000000   0.036184
   20  LI  1 XX   0.000000  -0.078239   0.000000   0.000000   0.795174
   21  LI  1 YY   0.000000  -0.078176   0.000000   0.000000   0.795185
   22  LI  1 ZZ   0.000000   0.156415   0.000000   0.000000  -1.590359
   23  LI  1 XY   0.000000  -0.000024   0.000000   0.000000  -0.000003
   24  LI  1 XZ   0.007607   0.000002   0.105379   0.000011   0.000000
   25  LI  1 YZ  -1.734366  -0.000001   0.000011  -0.105487   0.000000
   26  F   2  S   0.000000   0.001259   0.000000   0.000000  -0.000260
   27  F   2  S   0.000000   0.002245   0.000000   0.000000  -0.000635
   28  F   2  S   0.000000  -0.009362   0.000000   0.000000   0.000684
   29  F   2  X   0.000000   0.000000   0.000008   0.000000   0.000000
   30  F   2  Y  -0.000079   0.000000   0.000000  -0.000008   0.000000
   31  F   2  Z   0.000000   0.000249   0.000000   0.000000   0.000429
   32  F   2  X  -0.000002   0.000000   0.000049   0.000000   0.000000
   33  F   2  Y   0.000534   0.000000   0.000000  -0.000049   0.000000
   34  F   2  Z   0.000000  -0.001759   0.000000   0.000000  -0.001667
   35  F   2 XX   0.000000  -0.000023   0.000000   0.000000  -0.000006
   36  F   2 YY   0.000000  -0.000023   0.000000   0.000000  -0.000006
   37  F   2 ZZ   0.000000   0.000046   0.000000   0.000000   0.000013
   38  F   2 XY   0.000000   0.000000   0.000000   0.000000   0.000000
   39  F   2 XZ   0.000000   0.000000   0.000006   0.000000   0.000000
   40  F   2 YZ  -0.000007   0.000000   0.000000  -0.000006   0.000000
   41  F   2  S   0.000000   0.023851   0.000000   0.000000   0.000777
   42  F   2  X   0.000007   0.000000  -0.000944   0.000000   0.000000
   43  F   2  Y  -0.001709   0.000000   0.000000   0.000944   0.000000
   44  F   2  Z   0.000000   0.007791   0.000000   0.000000   0.003045
   45  F   2 XX   0.000000   0.000088   0.000000   0.000000   0.000004
   46  F   2 YY   0.000000   0.000088   0.000000   0.000000   0.000004
   47  F   2 ZZ   0.000000  -0.000176   0.000000   0.000000  -0.000009
   48  F   2 XY   0.000000   0.000000   0.000000   0.000000   0.000000
   49  F   2 XZ   0.000000   0.000000   0.000002   0.000000   0.000000
   50  F   2 YZ   0.000016   0.000000   0.000000  -0.000002   0.000000

                     31         32

                    0.0000     0.0000

    1  LI  1  S   0.000004   0.000003
    2  LI  1  S   0.000016   0.000015
    3  LI  1  S  -0.000030  -0.000028
    4  LI  1  X   0.000000   0.000000
    5  LI  1  Y   0.000000   0.000000
    6  LI  1  Z   0.000008   0.000008
    7  LI  1  X   0.000000   0.000000
    8  LI  1  Y   0.000000   0.000000
    9  LI  1  Z  -0.000007  -0.000007
   10  LI  1 XX  -2.035511  -0.107495
   11  LI  1 YY   2.035501   0.107488
   12  LI  1 ZZ   0.000010   0.000007
   13  LI  1 XY   0.124121  -2.350403
   14  LI  1 XZ   0.000000   0.000000
   15  LI  1 YZ   0.000000   0.000000
   16  LI  1  S   0.000019   0.000018
   17  LI  1  X   0.000000   0.000000
   18  LI  1  Y   0.000000   0.000000
   19  LI  1  Z  -0.000007  -0.000007
   20  LI  1 XX   1.562351   0.082506
   21  LI  1 YY  -1.562347  -0.082504
   22  LI  1 ZZ  -0.000004  -0.000002
   23  LI  1 XY  -0.095269   1.804052
   24  LI  1 XZ   0.000000   0.000000
   25  LI  1 YZ   0.000000   0.000000
   26  F   2  S   0.000000   0.000000
   27  F   2  S   0.000000   0.000000
   28  F   2  S   0.000000   0.000000
   29  F   2  X   0.000000   0.000000
   30  F   2  Y   0.000000   0.000000
   31  F   2  Z   0.000000   0.000000
   32  F   2  X   0.000000   0.000000
   33  F   2  Y   0.000000   0.000000
   34  F   2  Z   0.000000   0.000000
   35  F   2 XX   0.000000   0.000000
   36  F   2 YY   0.000000   0.000000
   37  F   2 ZZ   0.000000   0.000000
   38  F   2 XY   0.000000   0.000000
   39  F   2 XZ   0.000000   0.000000
   40  F   2 YZ   0.000000   0.000000
   41  F   2  S   0.000000   0.000000
   42  F   2  X   0.000000   0.000000
   43  F   2  Y   0.000000   0.000000
   44  F   2  Z   0.000000   0.000000
   45  F   2 XX   0.000000   0.000000
   46  F   2 YY   0.000000   0.000000
   47  F   2 ZZ   0.000000   0.000000
   48  F   2 XY   0.000000   0.000000
   49  F   2 XZ   0.000000   0.000000
   50  F   2 YZ   0.000000   0.000000

 WARNING! THIS VERSION OF FIREFLY IS PROBABLY OUTDATED!
 PLEASE CHECK FIREFLY HOMEPAGE FOR INFORMATION ON UPDATES!

 ..... DONE WITH ONE PARTICLE DENSITY MATRIX .....

                         TIMING STATISTICS ON RANK 0:
 CPU        TIME:   STEP =      0.11 ,  TOTAL =       49.8 SECONDS (    0.8 MIN)
 WALL CLOCK TIME:   STEP =      0.17 ,  TOTAL =       86.8 SECONDS (    1.4 MIN)
 CPU UTILIZATION:   STEP =     65.00%,  TOTAL =      57.41%


                         -----------------------------
                         properties for the CI density
                         -----------------------------

          -----------------
          ENERGY COMPONENTS
          -----------------

         WAVEFUNCTION NORMALIZATION =       1.0000000000

                ONE ELECTRON ENERGY =    -150.9467025878
                TWO ELECTRON ENERGY =      42.4956446338
           NUCLEAR REPULSION ENERGY =       1.6809158457
                                      ------------------
                       TOTAL ENERGY =    -106.7701421083

 ELECTRON-ELECTRON POTENTIAL ENERGY =      42.4956446338
  NUCLEUS-ELECTRON POTENTIAL ENERGY =    -256.0235124183
   NUCLEUS-NUCLEUS POTENTIAL ENERGY =       1.6809158457
                                      ------------------
             TOTAL POTENTIAL ENERGY =    -211.8469519389
               TOTAL KINETIC ENERGY =     105.0768098305
                 VIRIAL RATIO (V/T) =       2.0161151855

          ---------------------------------------
          MULLIKEN AND LOWDIN POPULATION ANALYSES
          ---------------------------------------

     MULLIKEN ATOMIC POPULATION IN EACH MOLECULAR ORBITAL

                      1          2          3          4          5

                  2.000000   2.000000   2.000000   1.999292   1.999292

    1            -0.000001   2.000000  -0.000096   0.000004   0.000004
    2             2.000001   0.000000   2.000096   1.999288   1.999288

                      6          7          8          9         10

                  1.010144   0.989789   0.000556   0.000556   0.000238

    1             0.504006   0.495946   0.000000   0.000000  -0.000001
    2             0.506138   0.493843   0.000556   0.000556   0.000239

                     11         12         13         14         15

                  0.000133   0.000000   0.000000   0.000000   0.000000

    1            -0.000002   0.000000   0.000000   0.000000   0.000000
    2             0.000135   0.000000   0.000000   0.000000   0.000000

                     16         17         18         19         20

                  0.000000   0.000000   0.000000   0.000000   0.000000

    1             0.000000   0.000000   0.000000   0.000000   0.000000
    2             0.000000   0.000000   0.000000   0.000000   0.000000

                     21         22         23         24         25

                  0.000000   0.000000   0.000000   0.000000   0.000000

    1             0.000000   0.000000   0.000000   0.000000   0.000000
    2             0.000000   0.000000   0.000000   0.000000   0.000000

                     26         27         28         29         30

                  0.000000   0.000000   0.000000   0.000000   0.000000

    1             0.000000   0.000000   0.000000   0.000000   0.000000
    2             0.000000   0.000000   0.000000   0.000000   0.000000

                     31         32

                  0.000000   0.000000

    1             0.000000   0.000000
    2             0.000000   0.000000

 WARNING! CI POPULATIONS SHOWN ABOVE ARE FOR THE NATURAL ORBITALS.
 IGNORE THE ABOVE DATA FOR CI FUNCTIONS WHICH ARE NOT OF -FORS- TYPE.
 THE FOLLOWING POPULATIONS ARE CORRECT FOR ANY CI WAVEFUNCTION.

               ----- POPULATIONS IN EACH AO -----
                             MULLIKEN      LOWDIN
              1  LI  1  S     2.00017     1.97098
              2  LI  1  S     1.00472     0.31804
              3  LI  1  S    -0.00999     0.20570
              4  LI  1  X     0.00000     0.00000
              5  LI  1  Y     0.00000     0.00000
              6  LI  1  Z     0.00000     0.00000
              7  LI  1  X     0.00000     0.00000
              8  LI  1  Y     0.00000     0.00000
              9  LI  1  Z     0.00001     0.00000
             10  LI  1 XX     0.00000     0.09642
             11  LI  1 YY     0.00000     0.09642
             12  LI  1 ZZ     0.00000     0.09645
             13  LI  1 XY     0.00000     0.00000
             14  LI  1 XZ     0.00000     0.00000
             15  LI  1 YZ     0.00000     0.00000
             16  LI  1  S     0.00503     0.05230
             17  LI  1  X     0.00000     0.00000
             18  LI  1  Y     0.00000     0.00000
             19  LI  1  Z    -0.00007     0.00042
             20  LI  1 XX     0.00000     0.05453
             21  LI  1 YY     0.00000     0.05453
             22  LI  1 ZZ     0.00000     0.05461
             23  LI  1 XY     0.00000     0.00000
             24  LI  1 XZ     0.00000     0.00000
             25  LI  1 YZ     0.00000     0.00000
             26  F   2  S     2.00134     1.88075
             27  F   2  S     0.88665     0.67779
             28  F   2  S     1.04154     0.48128
             29  F   2  X     1.16609     1.14496
             30  F   2  Y     1.16609     1.14496
             31  F   2  Z     0.58725     0.57800
             32  F   2  X     0.82544     0.79308
             33  F   2  Y     0.82544     0.79308
             34  F   2  Z     0.41715     0.39771
             35  F   2 XX     0.00000     0.20171
             36  F   2 YY     0.00000     0.20171
             37  F   2 ZZ     0.00000     0.20174
             38  F   2 XY     0.00000     0.00000
             39  F   2 XZ     0.00000     0.00000
             40  F   2 YZ     0.00000     0.00000
             41  F   2  S     0.07070     0.11534
             42  F   2  X     0.00831     0.06181
             43  F   2  Y     0.00831     0.06181
             44  F   2  Z    -0.00417     0.02451
             45  F   2 XX     0.00000     0.07977
             46  F   2 YY     0.00000     0.07977
             47  F   2 ZZ     0.00000     0.07985
             48  F   2 XY     0.00000     0.00000
             49  F   2 XZ     0.00000     0.00000
             50  F   2 YZ     0.00000     0.00000

          ----- MULLIKEN ATOMIC OVERLAP POPULATIONS -----
          (OFF-DIAGONAL ELEMENTS NEED TO BE MULTIPLIED BY 2)

             1           2

    1    2.9999237
    2   -0.0000626   9.0002016

          TOTAL MULLIKEN AND LOWDIN ATOMIC POPULATIONS
       ATOM         MULL.POP.    CHARGE          LOW.POP.     CHARGE
    1 LI            2.999861    0.000139         3.000394   -0.000394
    2 F             9.000139   -0.000139         8.999606    0.000394

          -------------------------------
          BOND ORDER AND VALENCE ANALYSIS     BOND ORDER THRESHOLD=0.050
          -------------------------------

                   BOND                       BOND                       BOND
  ATOM PAIR DIST  ORDER      ATOM PAIR DIST  ORDER      ATOM PAIR DIST  ORDER

                       TOTAL       BONDED        FREE
      ATOM            VALENCE     VALENCE     VALENCE
    1 LI                1.000       0.000       1.000
    2 F                 1.006       0.000       1.006

          ---------------------
          ELECTROSTATIC MOMENTS
          ---------------------

 POINT   1           X           Y           Z (BOHR)    CHARGE
                 0.000000    0.000000   11.730621        0.00 (A.U.)
         DX          DY          DZ         /D/  (DEBYE)
     0.000000    0.000000    0.010841    0.010841
 ...... END OF PROPERTY EVALUATION ......

                         TIMING STATISTICS ON RANK 0:
 CPU        TIME:   STEP =      0.11 ,  TOTAL =       49.9 SECONDS (    0.8 MIN)
 WALL CLOCK TIME:   STEP =      0.17 ,  TOTAL =       87.0 SECONDS (    1.4 MIN)
 CPU UTILIZATION:   STEP =     64.00%,  TOTAL =      57.42%
 ......END OF NBO ANALYSIS......

                         TIMING STATISTICS ON RANK 0:
 CPU        TIME:   STEP =      0.00 ,  TOTAL =       49.9 SECONDS (    0.8 MIN)
 WALL CLOCK TIME:   STEP =      0.00 ,  TOTAL =       87.0 SECONDS (    1.4 MIN)
 CPU UTILIZATION:   STEP =      0.00%,  TOTAL =      57.42%

                         OVERALL  TIMING  STATISTICS:
 GLOBAL CPU TIME ELAPSED      =       471.3 SECONDS (     7.9 MIN)
 RANK 0 WALL CLOCK TIME       =        87.0 SECONDS (     1.4 MIN)
 JOB CPU UTILIZATION:   TOTAL =    541.81%, PER RANK AVERAGE =     67.73%

    24300418 WORDS OF    DYNAMIC MEMORY USED
     5602051 BYTES OF    HEAP MEMORY    USED,      121911 BYTES REMAIN IN USE

 WARNING! THIS VERSION OF FIREFLY IS PROBABLY OUTDATED!
 PLEASE CHECK FIREFLY HOMEPAGE FOR INFORMATION ON UPDATES!

 EXECUTION OF FIREFLY TERMINATED NORMALLY  9:57:11  7-MAY-2026    
