              Grand Master is running on host yaroslavhonor
              rank #     1 is running on host yaroslavhonor
              rank #     2 is running on host yaroslavhonor
              rank #     3 is running on host yaroslavhonor
              rank #     4 is running on host yaroslavhonor
              rank #     5 is running on host yaroslavhonor
              rank #     6 is running on host yaroslavhonor
              rank #     7 is running on host yaroslavhonor

          ******************************************************
          *      Firefly version 8.2.0, build number 10203     *
          *   Compiled on    Monday,    19-09-2016, 15:30:23   *
          *Code development and Intel/AMD specific optimization*
          *  Copyright (c) 1994, 2016 by  Alex A. Granovsky,   *
          *          Firefly Project, Moscow, Russia.          *
          *   Some parts of this program include code due to   *
          * work of Jim Kress, Peter Burger, and Robert Ponec. *
          ******************************************************
          *             Firefly Project homepage:              *
          * http://classic.chem.msu.su/gran/firefly/index.html *
          *                      e-mail:                       *
          *               gran@classic.chem.msu.su             *
          *This program is not a free software and is provided *
          *exclusively to its registered users under the terms *
          *       of Firefly package license agreement         *
          * Unauthorized use of Firefly is strongly prohibited *
          *   This program may not be redistributed without    *
          * the specific, written permission of its developers.*
          ******************************************************

          ******************************************************
          *  PARTIALLY BASED ON  US GAMESS VERSION 6 JUN 1999, *
          *   US GAMESS VERSIONS  6 SEP 2001 AND 12 DEC 2003   *
          *             FROM IOWA STATE UNIVERSITY             *
          * M.W.SCHMIDT, K.K.BALDRIDGE, J.A.BOATZ, S.T.ELBERT, *
          *   M.S.GORDON, J.H.JENSEN, S.KOSEKI, N.MATSUNAGA,   *
          *          K.A.NGUYEN, S.J.SU, T.L.WINDUS,           *
          *       TOGETHER WITH M.DUPUIS, J.A.MONTGOMERY       *
          *         J.COMPUT.CHEM.  14, 1347-1363(1993)        *
          ******************************************************


 Core i7    / Linux  Firefly version running under Linux.
 Running on Intel CPU:  Brand ID  0, Family  6, Model 170, Stepping  4
 CPU Brand String    :  Intel(R) Core(TM) Ultra 5 125H                  
 CPU Features        :  x87 FPU, CMOV, MMX, SSE, SSE2, SSE3, SSSE3, SSE4.1, SSE4.2, AVX, AVX2, FMA3, HTT, MWAIT, EM64T
 Data cache size     :  L1 48 KB, L2 2048 KB, L3 18432 KB
 max    # of   cores/package :  64
 max    # of threads/package : 128
 max     cache sharing level :  64
 actual # of   cores/package :   9
 actual # of threads/package :  18
 actual # of threads/core    :   2
 Operating System successfully passed SSE support test.
 Operating System supports AVX/FMA.


 PARALLEL VERSION (MPICH) RUNNING USING    8 PROCESSES (RANKS)


 WARNING! THIS VERSION OF FIREFLY IS PROBABLY OUTDATED!
 PLEASE CHECK FIREFLY HOMEPAGE FOR INFORMATION ON UPDATES!

 EXECUTION OF FIREFLY BEGUN  9:58:30  7-MAY-2026    

            ECHO OF THE FIRST FEW INPUT CARDS -
 INPUT CARD> $CONTRL CITYP=ALDET D5=.T. EXETYP=RUN FSTINT=.T. GENCON=.F.                    
 INPUT CARD>      ICHARG=0 ICUT=13 INTTYP=HONDO ITOL=30 MAXIT=100 MULT=1                    
 INPUT CARD>      RUNTYP=ENERGY SCFTYP=RHF WIDE=1 NOSYM=0                                   
 INPUT CARD> $END                                                                           
 INPUT CARD> $MOORTH NOSTF=.T. NOZERO=.T. SYMDEN=.T. SYMS=.T. SYMVEC=.T. SYMVX=.T.          
 INPUT CARD>      TOLE=0.0D0 TOLZ=0.0D0 $END                                                
 INPUT CARD> $GUESS GUESS=HUCKEL $END                                                       
 INPUT CARD> $BASIS EXTFIL=.T. GBASIS=acc-pVDZ $END                                         
 INPUT CARD> $SYSTEM KDIAG=0 MASMEM=200000000 MWORDS=200 MXBCST=-1 NOJAC=1 TIMLIM=60000 $END
 INPUT CARD> $SCF DAMP=.T. DIIS=.T. DIRSCF=.T. FDIFF=.F. SHIFT=.T. SOSCF=.F. $END           
 INPUT CARD> $CIDET NACT=29 NCORE=3 NELS=6 NSTATE=3 GROUP=c2v CVGTOL=1e-4 $END              
 INPUT CARD> $DATA                                                                          
 INPUT CARD> LiF single-point properties R=9.00 Ang                                         
 INPUT CARD> Cnv 2                                                                          
 INPUT CARD>                                                                                
 INPUT CARD>Li    3.0     0.0000000000     0.0000000000     0.0000000000                    
 INPUT CARD>F     9.0     0.0000000000     0.0000000000     9.0000000000                    
 INPUT CARD>$END                                                                            
  200000000 WORDS OF MEMORY AVAILABLE

 This job is executing on     1 unique host(s)
 Minimum number of processes per host is:    8
 Maximum number of processes per host is:    8

 On master's host, detected   18 CPU core(s) in aggregate

 Using processor-specific dynamic link DGEMM library code.


 Warning: HTT is enabled, bitmask of physically unique cores is 0x000000B4

 SMT aware parts of program will use              2 threads.

 Creating thread pool to serve up to            128 threads.


 Loading P2P interface library... loaded successfully (version 2.4).
 Initializing global P2P interface... topology done.


     $BASIS REQUESTS READING THE "ACC-PVDZ" BASIS SET FROM AN EXTERNAL FILE


     RUN TITLE
     ---------
  LiF single-point properties R=9.00 Ang                                         

 THE POINT GROUP OF THE MOLECULE IS CNV     
 THE ORDER OF THE PRINCIPAL AXIS IS     2
 *** WARNING! ATOM   2 SHELL   10 TYPE S HAS NORMALIZATION   0.99954745
 *** WARNING! ATOM   2 SHELL   11 TYPE S HAS NORMALIZATION   1.94662964
 *** WARNING! ATOM   2 SHELL   13 TYPE P HAS NORMALIZATION   1.44467270

 ATOM      ATOMIC                      COORDINATES (BOHR)
           CHARGE         X                   Y                   Z
 LI          3.0     0.0000000000        0.0000000000        0.0000000000
 F           9.0     0.0000000000        0.0000000000       17.0075351291

          INTERNUCLEAR DISTANCES (ANGS.)
          ------------------------------

                    LI             F         

  1  LI              0.0000000      9.0000000    
  2  F               9.0000000      0.0000000    

  * ... LESS THAN  3.000


     ATOMIC BASIS SET
     ----------------
 THE CONTRACTED PRIMITIVE FUNCTIONS HAVE BEEN UNNORMALIZED
 THE CONTRACTED BASIS FUNCTIONS ARE NOW NORMALIZED TO UNITY

 SHELL TYPE PRIM    EXPONENT          CONTRACTION COEFFICIENTS

 LI        

   1   S    1    1469.000000    0.129540 (  0.000766) 
   1   S    2     220.500000    0.240287 (  0.005892) 
   1   S    3      50.260000    0.399171 (  0.029671) 
   1   S    4      14.240000    0.570408 (  0.109180) 
   1   S    5       4.581000    0.631093 (  0.282789) 
   1   S    6       1.580000    0.455113 (  0.453123) 
   1   S    7       0.564000    0.127452 (  0.274774) 
   1   S    8       0.073450    0.000981 (  0.009751) 
   1   S    9       0.028050   -0.000155 ( -0.003180) 

   2   S   10    1469.000000   -0.020294 ( -0.000120) 
   2   S   11     220.500000   -0.037642 ( -0.000923) 
   2   S   12      50.260000   -0.063082 ( -0.004689) 
   2   S   13      14.240000   -0.092379 ( -0.017682) 
   2   S   14       4.581000   -0.109133 ( -0.048902) 
   2   S   15       1.580000   -0.096431 ( -0.096009) 
   2   S   16       0.564000   -0.063259 ( -0.136380) 
   2   S   17       0.073450    0.057829 (  0.575102) 
   2   S   18       0.028050    0.025287 (  0.517661) 

   3   S   19       0.028050    0.048849 (  1.000000) 

   4   P   20       1.534000    0.055444 (  0.022784) 
   4   P   21       0.274900    0.039469 (  0.139107) 
   4   P   22       0.073620    0.027351 (  0.500375) 
   4   P   23       0.024030    0.006857 (  0.508474) 

   5   P   24       0.024030    0.013486 (  1.000000) 

   6   D   25       0.114400    0.037039 (  1.000000) 

   7   S   26       0.008600    0.020127 (  1.000000) 

   8   P   27       0.005800    0.002282 (  1.000000) 

   9   D   28       0.073300    0.016996 (  1.000000) 

 F         

  10   S   29   14710.000000    0.686054 (  0.000721) 
  10   S   30    2207.000000    1.273776 (  0.005553) 
  10   S   31     502.800000    2.138157 (  0.028267) 
  10   S   32     142.600000    3.129135 (  0.106444) 
  10   S   33      46.470000    3.636582 (  0.286814) 
  10   S   34      16.700000    2.640279 (  0.448641) 
  10   S   35       6.356000    0.755015 (  0.264761) 
  10   S   36       1.316000    0.013421 (  0.015333) 

  11   S   37   14710.000000   -0.305764 ( -0.000165) 
  11   S   38    2207.000000   -0.584323 ( -0.001308) 
  11   S   39     502.800000   -0.956795 ( -0.006495) 
  11   S   40     142.600000   -1.528086 ( -0.026691) 
  11   S   41      46.470000   -1.819623 ( -0.073690) 
  11   S   42      16.700000   -1.957301 ( -0.170776) 
  11   S   43       6.356000   -0.623829 ( -0.112327) 
  11   S   44       1.316000    0.959401 (  0.562814) 

  12   S   45       0.389700    0.351526 (  1.000000) 

  13   P   46      22.670000    4.571487 (  0.044878) 
  13   P   47       4.977000    3.608377 (  0.235718) 
  13   P   48       1.347000    1.519595 (  0.508521) 

  14   P   49       0.347100    0.379759 (  1.000000) 

  15   D   50       1.640000    3.911886 (  1.000000) 

  16   S   51       0.098630    0.125434 (  1.000000) 

  17   P   52       0.085020    0.065440 (  1.000000) 

  18   D   53       0.464000    0.429354 (  1.000000) 

 TOTAL NUMBER OF SHELLS              =   18
 TOTAL NUMBER OF BASIS FUNCTIONS     =   50
 NUMBER OF ELECTRONS                 =   12
 CHARGE OF MOLECULE                  =    0
 STATE MULTIPLICITY                  =    1
 NUMBER OF OCCUPIED ORBITALS (ALPHA) =    6
 NUMBER OF OCCUPIED ORBITALS (BETA ) =    6
 TOTAL NUMBER OF ATOMS               =    2
 THE NUCLEAR REPULSION ENERGY IS        1.5875316320
 TOTAL NUMBER OF CONTAMINANTS DROPPED=    4


 THIS MOLECULE IS RECOGNIZED AS BEING LINEAR.

     $CONTRL OPTIONS
     ---------------
     SCFTYP=RHF          RUNTYP=ENERGY       EXETYP=RUN     
     MPLEVL=       0     LOCAL =NONE         UNITS =ANGS    
     MULT  =       1     ICHARG=       0     MAXIT =     100
     NPRINT=       7     IREST =       0     COORD =UNIQUE  
     ECP   =NONE         NORMF =       0     NORMP =       0
     ITOL  =      30     ICUT  =      13     NZVAR =       0
     NOSYM =       0     INTTYP=HONDO        GEOM  =INPUT   
     PLTORB=       F     MOLPLT=       F     RPAC  =       F
     AIMPAC=       0     FRIEND=             CITYP =ALDET   
     DFTTYP=NONE    

     $SYSTEM OPTIONS
     ---------------
     KDIAG =       0     MEMORY=200000000     TIMLIM=  3600000.0 SEC.
     COREFL=       F     PTIME =        F     XDR   =       F
     BALTYP=NXTVAL       CBASE = AAE71000     FBASE = B03B10C0

          ----------------
          PROPERTIES INPUT
          ----------------

     MOMENTS            FIELD           POTENTIAL          DENSITY
 IEMOM =       1   IEFLD =       0   IEPOT =       0   IEDEN =       0
 WHERE =COMASS     WHERE =NUCLEI     WHERE =NUCLEI     WHERE =NUCLEI  
 OUTPUT=BOTH       OUTPUT=BOTH       OUTPUT=BOTH       OUTPUT=BOTH    
 IEMINT=       0   IEFINT=       0                     IEDINT=       0
                                                       MORB  =       0

          EXTRAPOLATION IN EFFECT
          DAMPING IN EFFECT
          LEVEL SHIFTING IN EFFECT
          DIIS IN EFFECT

          ----------------------
          INTEGRAL INPUT OPTIONS
          ----------------------
 NOPK  =       1 NORDER=       0 SCHWRZ=       T

 ATTENTION! AO INTEGRALS WILL BE PACKED.
 THRESHOLD FOR PACKING PKTHR =  0.10000000D-05

     -------------------------------
     INTEGRAL TRANSFORMATION OPTIONS
     -------------------------------
     NWORD  =       0     CUTTRF = 1.0E-09
     MPTRAN =       0     DIRTRF =       T
     AOINTS =DUP          IREST  =       0

     ------------------------------------------
     THE POINT GROUP IS CNV, NAXIS= 2, ORDER= 4
     ------------------------------------------

     DIMENSIONS OF THE SYMMETRY SUBSPACES ARE
 A1  =  26      A2  =   4      B1  =  10      B2  =  10

 ..... DONE SETTING UP THE RUN .....

                         TIMING STATISTICS ON RANK 0:
 CPU        TIME:   STEP =      0.19 ,  TOTAL =        0.4 SECONDS (    0.0 MIN)
 WALL CLOCK TIME:   STEP =      0.30 ,  TOTAL =        0.3 SECONDS (    0.0 MIN)
 CPU UTILIZATION:   STEP =     63.89%,  TOTAL =     127.78%

          ********************
          1 ELECTRON INTEGRALS
          ********************
 ...... END OF ONE-ELECTRON INTEGRALS ......

                         TIMING STATISTICS ON RANK 0:
 CPU        TIME:   STEP =      0.00 ,  TOTAL =        0.4 SECONDS (    0.0 MIN)
 WALL CLOCK TIME:   STEP =      0.00 ,  TOTAL =        0.3 SECONDS (    0.0 MIN)
 CPU UTILIZATION:   STEP =      0.00%,  TOTAL =     125.93%

          -------------
          GUESS OPTIONS
          -------------
          GUESS =HUCKEL            NORB  =       0          NORDER=       0
          MIX   =       F          PRTMO =       F          SYMDEN=       F
          TOLZ  = 0.0E+00          TOLE  = 0.0E+00

 INITIAL GUESS ORBITALS GENERATED BY HUCKEL   ROUTINE.
 HUCKEL GUESS REQUIRES     19614 WORDS.

 LOG10 OF CONDITION NUMBER OF OVERLAP MATRIX IS:  2.12526475E+00

 SYMMETRIES FOR INITIAL GUESS ORBITALS FOLLOW.   BOTH SET(S).
     6 ORBITALS ARE OCCUPIED (    2 CORE ORBITALS).
     3=A1       4=A1       5=B1       6=B2       7=A1       8=A1       9=A1  
    10=B2      11=B1      12=A1      13=A1      14=B1      15=B2      16=A2  
 ...... END OF INITIAL ORBITAL SELECTION ......

                         TIMING STATISTICS ON RANK 0:
 CPU        TIME:   STEP =      0.02 ,  TOTAL =        0.4 SECONDS (    0.0 MIN)
 WALL CLOCK TIME:   STEP =      0.06 ,  TOTAL =        0.4 SECONDS (    0.0 MIN)
 CPU UTILIZATION:   STEP =     36.10%,  TOTAL =     111.99%

          --------------------
          2 ELECTRON INTEGRALS
          --------------------

 DIRECT SCF METHOD SKIPS INTEGRAL STORAGE ON DISK.
 DIRECT TRANSFORMATION SKIPS AO INTEGRAL STORAGE ON DISK.
 SCHWARZ INEQUALITY OVERHEAD:      1275 INTEGRALS, CPU TIME=        0.00
 ...... END OF TWO-ELECTRON INTEGRALS .....

                         TIMING STATISTICS ON RANK 0:
 CPU        TIME:   STEP =      0.00 ,  TOTAL =        0.4 SECONDS (    0.0 MIN)
 WALL CLOCK TIME:   STEP =      0.01 ,  TOTAL =        0.4 SECONDS (    0.0 MIN)
 CPU UTILIZATION:   STEP =      0.00%,  TOTAL =     107.94%

          -------------------
          RHF SCF CALCULATION
          -------------------

     NUCLEAR ENERGY =         1.5875316320
     MAXIT =  100     NPUNCH=    2
     EXTRAP=T  DAMP=T  SHIFT=T  RSTRCT=F  DIIS=T  DEM=F  SOSCF=F
     DENSITY CONV=  2.00E-05
     MEMORY REQUIRED FOR RHF STEP=     48119 WORDS.

 DIRECT SCF CALCULATION, SCHWRZ=T   FDIFF=F
 SCHWARZ INEQUALITY OVERHEAD:      1275 INTEGRALS, CPU TIME=        0.00

                                                                                                              NONZERO    BLOCKS
 ITER EX DEM  TOTAL ENERGY      E CHANGE  DENSITY CHANGE    DIIS ERROR      VIR. SHIFT       DAMPING        INTEGRALS   SKIPPED
   1  0  0  -106.451367911  -106.451367911   1.931943728   0.942060935     0.000000000     1.000000000         665207      2390
   2  1  0   -93.924401469    12.526966441   1.956894779   1.181607336     2.000000000     1.000000000         701572      2344
   3  2  0  -105.671982775   -11.747581306   0.079120536   0.802366023     4.000000000    48.690801883         671157      2501
   4  3  0  -105.638844101     0.033138674   0.026623238   0.807373733     8.000000000   194.763207532         666728      2546
   5  4  0  -105.629408522     0.009435579   0.012988174   0.808122345    10.000000000    63.158778189         666908      2562
   6  5  0  -105.631331919    -0.001923397   0.011379412   0.806494834    10.000000000    15.789694547         666695      2569
   7  6  0  -105.661160533    -0.029828613   0.016925430   0.797694381    10.000000000    15.789694547         668320      2563
   8  7  0  -105.710830473    -0.049669940   0.021044665   0.783350481    10.000000000    15.789694547         668174      2532
   9  8  0  -105.773682979    -0.062852506   0.099467703   0.764634563     0.800000000    15.789694547         669935      2520
  10  9  0  -106.046519833    -0.272836854   0.044176213   0.671555934     1.364184268    15.789694547         669576      2494
  11 10  0  -106.156843605    -0.110323772   0.109587000   0.625331445     1.364184268     2.581700550         667206      2502
          * * *   INITIATING DIIS PROCEDURE   * * *
  12 11  0  -106.395211623    -0.238368018   1.951170469   0.494575177     0.000000000     2.581700550         658276      2541
  13 12  0   -93.870894237    12.524317386   1.951126524   1.219782584     0.096553184     2.581700550         700296      2407
  14 13  0  -106.390034991   -12.519140753   0.223635168   0.505924513     0.000000000     2.581700550         655317      2553
  15 14  0  -106.650966529    -0.260931538   0.164105803   0.186470317     0.000000000     2.581700550         662534      2510
  16 15  0  -106.721496239    -0.070529710   0.030159505   0.029398572     0.000000000     2.581700550         675187      2474
  17 16  0  -106.723217313    -0.001721074   0.001534535   0.004783523     0.003171118     2.581700550         679052      2481
  18 17  0  -106.723239660    -0.000022347   0.000751994   0.001478598     0.000521816     2.581700550         680396      2465
  19 18  0  -106.723241857    -0.000002197   0.000089110   0.000156248     0.000000000     2.581700550         682184      2453
  20 19  0  -106.723241880    -0.000000023   0.000052230   0.000097635     0.000000000     2.581700550         682292      2452
  21 20  0  -106.723241889    -0.000000009   0.000018077   0.000010047     0.000000000     2.581700550         681968      2453
  22 21  0  -106.723241889     0.000000000   0.000011161   0.000001917     0.000000000     2.581700550         681968      2453
  23 22  0  -106.723241889     0.000000000   0.000001698   0.000000810     0.000000000     2.581700550         681968      2453

          -----------------
          DENSITY CONVERGED
          -----------------
     TIME TO FORM FOCK OPERATORS =       0.23 SECONDS (       0.01 SEC/ITER)
     FOCK TIME ON FIRST ITERATION=       0.02, LAST ITERATION=       0.00
     TIME TO SOLVE SCF EQUATIONS =       0.10 SECONDS (       0.00 SEC/ITER)

 FINAL ENERGY IS     -106.7232418888 AFTER  23 ITERATIONS

          ------------
          EIGENVECTORS
          ------------

                      1          2          3          4          5
                  -25.9067    -2.7339    -1.1391    -0.2401    -0.2401
                     A1         A1         A1         B1         B2  
    1  LI  1  S   0.000015   1.000082  -0.000109   0.000000   0.000000
    2  LI  1  S   0.000072  -0.001096  -0.000520   0.000000   0.000000
    3  LI  1  S  -0.000117  -0.001067   0.000878   0.000000   0.000000
    4  LI  1  X   0.000000   0.000000   0.000000  -0.000115   0.000000
    5  LI  1  Y   0.000000   0.000000   0.000000   0.000000  -0.000115
    6  LI  1  Z   0.000029  -0.000544  -0.000186   0.000000   0.000000
    7  LI  1  X   0.000000   0.000000   0.000000   0.000367   0.000000
    8  LI  1  Y   0.000000   0.000000   0.000000   0.000000   0.000367
    9  LI  1  Z  -0.000066   0.000461   0.000460   0.000000   0.000000
   10  LI  1 XX   0.000000   0.000011   0.000001   0.000000   0.000000
   11  LI  1 YY   0.000000   0.000011   0.000001   0.000000   0.000000
   12  LI  1 ZZ   0.000000  -0.000023  -0.000003   0.000000   0.000000
   13  LI  1 XY   0.000000   0.000000   0.000000   0.000000   0.000000
   14  LI  1 XZ   0.000000   0.000000   0.000000   0.000047   0.000000
   15  LI  1 YZ   0.000000   0.000000   0.000000   0.000000   0.000047
   16  LI  1  S   0.000061   0.001305  -0.000483   0.000000   0.000000
   17  LI  1  X   0.000000   0.000000   0.000000  -0.001021   0.000000
   18  LI  1  Y   0.000000   0.000000   0.000000   0.000000  -0.001021
   19  LI  1  Z   0.000086  -0.000046  -0.000659   0.000000   0.000000
   20  LI  1 XX   0.000000  -0.000008  -0.000002   0.000000   0.000000
   21  LI  1 YY   0.000000  -0.000008  -0.000002   0.000000   0.000000
   22  LI  1 ZZ   0.000001   0.000016   0.000004   0.000000   0.000000
   23  LI  1 XY   0.000000   0.000000   0.000000   0.000000   0.000000
   24  LI  1 XZ   0.000000   0.000000   0.000000  -0.000064   0.000000
   25  LI  1 YZ   0.000000   0.000000   0.000000   0.000000  -0.000064
   26  F   2  S  -1.000683  -0.000007  -0.006356   0.000000   0.000000
   27  F   2  S  -0.000508  -0.000012   0.490900   0.000000   0.000000
   28  F   2  S   0.003371   0.000040   0.554535   0.000000   0.000000
   29  F   2  X   0.000000   0.000000   0.000000  -0.628694   0.000000
   30  F   2  Y   0.000000   0.000000   0.000000   0.000000  -0.628694
   31  F   2  Z   0.000017   0.000003  -0.000357   0.000000   0.000000
   32  F   2  X   0.000000   0.000000   0.000000  -0.447475   0.000000
   33  F   2  Y   0.000000   0.000000   0.000000   0.000000  -0.447475
   34  F   2  Z  -0.000011  -0.000016  -0.000853   0.000000   0.000000
   35  F   2 XX   0.000000   0.000000   0.000002   0.000000   0.000000
   36  F   2 YY   0.000000   0.000000   0.000002   0.000000   0.000000
   37  F   2 ZZ   0.000001   0.000000  -0.000004   0.000000   0.000000
   38  F   2 XY   0.000000   0.000000   0.000000   0.000000   0.000000
   39  F   2 XZ   0.000000   0.000000   0.000000   0.000029   0.000000
   40  F   2 YZ   0.000000   0.000000   0.000000   0.000000   0.000029
   41  F   2  S  -0.001099  -0.000064   0.056271   0.000000   0.000000
   42  F   2  X   0.000000   0.000000   0.000000  -0.157161   0.000000
   43  F   2  Y   0.000000   0.000000   0.000000   0.000000  -0.157161
   44  F   2  Z   0.000012   0.000042  -0.000518   0.000000   0.000000
   45  F   2 XX   0.000000   0.000000  -0.000037   0.000000   0.000000
   46  F   2 YY   0.000000   0.000000  -0.000037   0.000000   0.000000
   47  F   2 ZZ   0.000000  -0.000001   0.000074   0.000000   0.000000
   48  F   2 XY   0.000000   0.000000   0.000000   0.000000   0.000000
   49  F   2 XZ   0.000000   0.000000   0.000000   0.001030   0.000000
   50  F   2 YZ   0.000000   0.000000   0.000000   0.000000   0.001030

                      6          7          8          9         10
                   -0.2400    -0.1384    -0.0711    -0.0711    -0.0676
                     A1         A1         B2         B1         A1  
    1  LI  1  S  -0.000243   0.000832   0.000000   0.000000   0.018704
    2  LI  1  S  -0.001596   0.987578   0.000000   0.000000   0.255919
    3  LI  1  S   0.003026  -0.003420   0.000000   0.000000  -0.055761
    4  LI  1  X   0.000000   0.000000   0.000000  -0.981351   0.000000
    5  LI  1  Y   0.000000   0.000000  -0.981351   0.000000   0.000000
    6  LI  1  Z   0.000773  -0.104181   0.000000   0.000000   0.993707
    7  LI  1  X   0.000000   0.000000   0.000000  -0.006959   0.000000
    8  LI  1  Y   0.000000   0.000000  -0.006959   0.000000   0.000000
    9  LI  1  Z  -0.001562  -0.012678   0.000000   0.000000  -0.022058
   10  LI  1 XX  -0.000227  -0.001488   0.000000   0.000000  -0.018191
   11  LI  1 YY  -0.000227  -0.001488   0.000000   0.000000  -0.018191
   12  LI  1 ZZ   0.000455   0.002975   0.000000   0.000000   0.036383
   13  LI  1 XY   0.000000   0.000000   0.000000   0.000000   0.000000
   14  LI  1 XZ   0.000000   0.000000   0.000000  -0.026865   0.000000
   15  LI  1 YZ   0.000000   0.000000  -0.026865   0.000000   0.000000
   16  LI  1  S  -0.003585   0.013632   0.000000   0.000000  -0.133997
   17  LI  1  X   0.000000   0.000000   0.000000  -0.028437   0.000000
   18  LI  1  Y   0.000000   0.000000  -0.028437   0.000000   0.000000
   19  LI  1  Z  -0.002364   0.000672   0.000000   0.000000   0.027665
   20  LI  1 XX   0.000312   0.003326   0.000000   0.000000   0.046413
   21  LI  1 YY   0.000312   0.003326   0.000000   0.000000   0.046413
   22  LI  1 ZZ  -0.000625  -0.006652   0.000000   0.000000  -0.092827
   23  LI  1 XY   0.000000   0.000000   0.000000   0.000000   0.000000
   24  LI  1 XZ   0.000000   0.000000   0.000000   0.070146   0.000000
   25  LI  1 YZ   0.000000   0.000000   0.070146   0.000000   0.000000
   26  F   2  S  -0.000001  -0.000016   0.000000   0.000000  -0.000110
   27  F   2  S   0.001508  -0.000045   0.000000   0.000000  -0.000354
   28  F   2  S   0.004047   0.000097   0.000000   0.000000   0.000534
   29  F   2  X   0.000000   0.000000   0.000000   0.000341   0.000000
   30  F   2  Y   0.000000   0.000000   0.000341   0.000000   0.000000
   31  F   2  Z   0.628245   0.000689   0.000000   0.000000   0.001927
   32  F   2  X   0.000000   0.000000   0.000000   0.000005   0.000000
   33  F   2  Y   0.000000   0.000000   0.000005   0.000000   0.000000
   34  F   2  Z   0.447173   0.000491   0.000000   0.000000   0.000698
   35  F   2 XX   0.000015   0.000000   0.000000   0.000000  -0.000009
   36  F   2 YY   0.000015   0.000000   0.000000   0.000000  -0.000009
   37  F   2 ZZ  -0.000030   0.000000   0.000000   0.000000   0.000018
   38  F   2 XY   0.000000   0.000000   0.000000   0.000000   0.000000
   39  F   2 XZ   0.000000   0.000000   0.000000   0.000006   0.000000
   40  F   2 YZ   0.000000   0.000000   0.000006   0.000000   0.000000
   41  F   2  S  -0.005971  -0.000336   0.000000   0.000000  -0.001640
   42  F   2  X   0.000000   0.000000   0.000000   0.000918   0.000000
   43  F   2  Y   0.000000   0.000000   0.000918   0.000000   0.000000
   44  F   2  Z   0.158274   0.000206   0.000000   0.000000   0.002568
   45  F   2 XX   0.000609  -0.000002   0.000000   0.000000   0.000016
   46  F   2 YY   0.000609  -0.000002   0.000000   0.000000   0.000016
   47  F   2 ZZ  -0.001219   0.000004   0.000000   0.000000  -0.000031
   48  F   2 XY   0.000000   0.000000   0.000000   0.000000   0.000000
   49  F   2 XZ   0.000000   0.000000   0.000000  -0.000011   0.000000
   50  F   2 YZ   0.000000   0.000000  -0.000011   0.000000   0.000000

                     11         12         13         14         15
                   -0.0246    -0.0055    -0.0055     0.0186     0.0542
                     A1         B2         B1         A1         B2  
    1  LI  1  S  -0.028608   0.000000   0.000000   0.101604   0.000000
    2  LI  1  S  -0.476502   0.000000   0.000000   0.726935   0.000000
    3  LI  1  S  -0.359766   0.000000   0.000000  -0.390999   0.000000
    4  LI  1  X   0.000000   0.000000  -0.578474   0.000000   0.000000
    5  LI  1  Y   0.000000  -0.578474   0.000000   0.000000  -1.897398
    6  LI  1  Z   0.467426   0.000000   0.000000   0.494651   0.000000
    7  LI  1  X   0.000000   0.000000   0.167130   0.000000   0.000000
    8  LI  1  Y   0.000000   0.167130   0.000000   0.000000   2.440124
    9  LI  1  Z  -0.208442   0.000000   0.000000  -0.204289   0.000000
   10  LI  1 XX  -0.003022   0.000000   0.000000   0.019592   0.000000
   11  LI  1 YY  -0.003022   0.000000   0.000000   0.019592   0.000000
   12  LI  1 ZZ   0.006044   0.000000   0.000000  -0.039184   0.000000
   13  LI  1 XY   0.000000   0.000000   0.000000   0.000000   0.000000
   14  LI  1 XZ   0.000000   0.000000   0.012991   0.000000   0.000000
   15  LI  1 YZ   0.000000   0.012991   0.000000   0.000000   0.111935
   16  LI  1  S   1.249781   0.000000   0.000000  -0.544890   0.000000
   17  LI  1  X   0.000000   0.000000   1.039971   0.000000   0.000000
   18  LI  1  Y   0.000000   1.039971   0.000000   0.000000  -0.690638
   19  LI  1  Z  -0.458796   0.000000   0.000000  -0.906925   0.000000
   20  LI  1 XX   0.010269   0.000000   0.000000  -0.030562   0.000000
   21  LI  1 YY   0.010269   0.000000   0.000000  -0.030562   0.000000
   22  LI  1 ZZ  -0.020538   0.000000   0.000000   0.061124   0.000000
   23  LI  1 XY   0.000000   0.000000   0.000000   0.000000   0.000000
   24  LI  1 XZ   0.000000   0.000000  -0.010341   0.000000   0.000000
   25  LI  1 YZ   0.000000  -0.010341   0.000000   0.000000  -0.235568
   26  F   2  S   0.000929   0.000000   0.000000   0.005341   0.000000
   27  F   2  S   0.001759   0.000000   0.000000   0.012961   0.000000
   28  F   2  S  -0.006994   0.000000   0.000000  -0.035334   0.000000
   29  F   2  X   0.000000   0.000000  -0.003332   0.000000   0.000000
   30  F   2  Y   0.000000  -0.003332   0.000000   0.000000   0.001770
   31  F   2  Z   0.001867   0.000000   0.000000  -0.009900   0.000000
   32  F   2  X   0.000000   0.000000   0.001891   0.000000   0.000000
   33  F   2  Y   0.000000   0.001891   0.000000   0.000000  -0.000767
   34  F   2  Z  -0.000458   0.000000   0.000000   0.001128   0.000000
   35  F   2 XX  -0.000028   0.000000   0.000000   0.000036   0.000000
   36  F   2 YY  -0.000028   0.000000   0.000000   0.000036   0.000000
   37  F   2 ZZ   0.000055   0.000000   0.000000  -0.000072   0.000000
   38  F   2 XY   0.000000   0.000000   0.000000   0.000000   0.000000
   39  F   2 XZ   0.000000   0.000000  -0.000065   0.000000   0.000000
   40  F   2 YZ   0.000000  -0.000065   0.000000   0.000000   0.000032
   41  F   2  S   0.021019   0.000000   0.000000   0.119406   0.000000
   42  F   2  X   0.000000   0.000000  -0.017795   0.000000   0.000000
   43  F   2  Y   0.000000  -0.017795   0.000000   0.000000   0.009431
   44  F   2  Z   0.006886   0.000000   0.000000  -0.039411   0.000000
   45  F   2 XX   0.000076   0.000000   0.000000  -0.000097   0.000000
   46  F   2 YY   0.000076   0.000000   0.000000  -0.000097   0.000000
   47  F   2 ZZ  -0.000152   0.000000   0.000000   0.000194   0.000000
   48  F   2 XY   0.000000   0.000000   0.000000   0.000000   0.000000
   49  F   2 XZ   0.000000   0.000000   0.000173   0.000000   0.000000
   50  F   2 YZ   0.000000   0.000173   0.000000   0.000000  -0.000092

                     16         17         18         19         20
                    0.0542     0.0591     0.0708     0.0708     0.0738
                     B1         A1         A2         A1         B2  
    1  LI  1  S   0.000000   0.154959   0.000000   0.000000   0.000000
    2  LI  1  S   0.000000   0.833894   0.000000   0.000000   0.000000
    3  LI  1  S   0.000000  -1.084847   0.000000   0.000000   0.000000
    4  LI  1  X  -1.897398   0.000000   0.000000   0.000000   0.000000
    5  LI  1  Y   0.000000   0.000000   0.000000   0.000000   0.220276
    6  LI  1  Z   0.000000  -1.807765   0.000000   0.000000   0.000000
    7  LI  1  X   2.440124   0.000000   0.000000   0.000000   0.000000
    8  LI  1  Y   0.000000   0.000000   0.000000   0.000000  -0.343503
    9  LI  1  Z   0.000000   2.351218   0.000000   0.000000   0.000000
   10  LI  1 XX   0.000000  -0.081151   0.000000  -0.452462   0.000000
   11  LI  1 YY   0.000000  -0.081151   0.000000   0.452462   0.000000
   12  LI  1 ZZ   0.000000   0.162302   0.000000   0.000000   0.000000
   13  LI  1 XY   0.000000   0.000000   0.522458   0.000000   0.000000
   14  LI  1 XZ   0.111935   0.000000   0.000000   0.000000   0.000000
   15  LI  1 YZ   0.000000   0.000000   0.000000   0.000000   0.503335
   16  LI  1  S   0.000000   0.304074   0.000000   0.000000   0.000000
   17  LI  1  X  -0.690638   0.000000   0.000000   0.000000   0.000000
   18  LI  1  Y   0.000000   0.000000   0.000000   0.000000   0.096326
   19  LI  1  Z   0.000000  -0.709493   0.000000   0.000000   0.000000
   20  LI  1 XX   0.000000   0.180700   0.000000   1.262328   0.000000
   21  LI  1 YY   0.000000   0.180700   0.000000  -1.262328   0.000000
   22  LI  1 ZZ   0.000000  -0.361399   0.000000   0.000000   0.000000
   23  LI  1 XY   0.000000   0.000000  -1.457611   0.000000   0.000000
   24  LI  1 XZ  -0.235568   0.000000   0.000000   0.000000   0.000000
   25  LI  1 YZ   0.000000   0.000000   0.000000   0.000000  -1.430593
   26  F   2  S   0.000000   0.002749   0.000000   0.000000   0.000000
   27  F   2  S   0.000000   0.006454   0.000000   0.000000   0.000000
   28  F   2  S   0.000000  -0.018809   0.000000   0.000000   0.000000
   29  F   2  X   0.001770   0.000000   0.000000   0.000000   0.000000
   30  F   2  Y   0.000000   0.000000   0.000000   0.000000  -0.000199
   31  F   2  Z   0.000000   0.000958   0.000000   0.000000   0.000000
   32  F   2  X  -0.000767   0.000000   0.000000   0.000000   0.000000
   33  F   2  Y   0.000000   0.000000   0.000000   0.000000   0.000177
   34  F   2  Z   0.000000   0.003800   0.000000   0.000000   0.000000
   35  F   2 XX   0.000000  -0.000017   0.000000   0.000000   0.000000
   36  F   2 YY   0.000000  -0.000017   0.000000   0.000000   0.000000
   37  F   2 ZZ   0.000000   0.000034   0.000000   0.000000   0.000000
   38  F   2 XY   0.000000   0.000000   0.000000   0.000000   0.000000
   39  F   2 XZ   0.000032   0.000000   0.000000   0.000000   0.000000
   40  F   2 YZ   0.000000   0.000000   0.000000   0.000000  -0.000004
   41  F   2  S   0.000000   0.066341   0.000000   0.000000   0.000000
   42  F   2  X   0.009431   0.000000   0.000000   0.000000   0.000000
   43  F   2  Y   0.000000   0.000000   0.000000   0.000000  -0.001397
   44  F   2  Z   0.000000  -0.013479   0.000000   0.000000   0.000000
   45  F   2 XX   0.000000  -0.000008   0.000000   0.000000   0.000000
   46  F   2 YY   0.000000  -0.000008   0.000000   0.000000   0.000000
   47  F   2 ZZ   0.000000   0.000016   0.000000   0.000000   0.000000
   48  F   2 XY   0.000000   0.000000   0.000000   0.000000   0.000000
   49  F   2 XZ  -0.000092   0.000000   0.000000   0.000000   0.000000
   50  F   2 YZ   0.000000   0.000000   0.000000   0.000000   0.000013

                     21         22         23         24         25
                    0.0738     0.0755     0.1119     0.3668     0.3668
                     B1         A1         A1         A2         A1  
    1  LI  1  S   0.000000  -0.089977  -0.765681   0.000000   0.000000
    2  LI  1  S   0.000000  -0.489384  -4.140246   0.000000   0.000000
    3  LI  1  S   0.000000   0.637089   5.280204   0.000000   0.000000
    4  LI  1  X   0.220276   0.000000   0.000000   0.000000   0.000000
    5  LI  1  Y   0.000000   0.000000   0.000000   0.000000   0.000000
    6  LI  1  Z   0.000000   0.331633  -0.337131   0.000000   0.000000
    7  LI  1  X  -0.343503   0.000000   0.000000   0.000000   0.000000
    8  LI  1  Y   0.000000   0.000000   0.000000   0.000000   0.000000
    9  LI  1  Z   0.000000  -0.498074   0.524174   0.000000   0.000000
   10  LI  1 XX   0.000000  -0.241894   0.005211   0.000000  -2.131264
   11  LI  1 YY   0.000000  -0.241894   0.005211   0.000000   2.131264
   12  LI  1 ZZ   0.000000   0.483787  -0.010421   0.000000   0.000000
   13  LI  1 XY   0.000000   0.000000   0.000000   2.460972   0.000000
   14  LI  1 XZ   0.503335   0.000000   0.000000   0.000000   0.000000
   15  LI  1 YZ   0.000000   0.000000   0.000000   0.000000   0.000000
   16  LI  1  S   0.000000  -0.194567  -1.328141   0.000000   0.000000
   17  LI  1  X   0.096326   0.000000   0.000000   0.000000   0.000000
   18  LI  1  Y   0.000000   0.000000   0.000000   0.000000   0.000000
   19  LI  1  Z   0.000000   0.120992  -0.272209   0.000000   0.000000
   20  LI  1 XX   0.000000   0.697406  -0.041141   0.000000   1.775820
   21  LI  1 YY   0.000000   0.697406  -0.041141   0.000000  -1.775820
   22  LI  1 ZZ   0.000000  -1.394813   0.082282   0.000000   0.000000
   23  LI  1 XY   0.000000   0.000000   0.000000  -2.050540   0.000000
   24  LI  1 XZ  -1.430593   0.000000   0.000000   0.000000   0.000000
   25  LI  1 YZ   0.000000   0.000000   0.000000   0.000000   0.000000
   26  F   2  S   0.000000  -0.000359   0.001753   0.000000   0.000000
   27  F   2  S   0.000000  -0.000640   0.006391   0.000000   0.000000
   28  F   2  S   0.000000   0.002799  -0.008058   0.000000   0.000000
   29  F   2  X  -0.000199   0.000000   0.000000   0.000000   0.000000
   30  F   2  Y   0.000000   0.000000   0.000000   0.000000   0.000000
   31  F   2  Z   0.000000  -0.001584  -0.005336   0.000000   0.000000
   32  F   2  X   0.000177   0.000000   0.000000   0.000000   0.000000
   33  F   2  Y   0.000000   0.000000   0.000000   0.000000   0.000000
   34  F   2  Z   0.000000  -0.002155   0.000110   0.000000   0.000000
   35  F   2 XX   0.000000   0.000007   0.000028   0.000000   0.000000
   36  F   2 YY   0.000000   0.000007   0.000028   0.000000   0.000000
   37  F   2 ZZ   0.000000  -0.000014  -0.000057   0.000000   0.000000
   38  F   2 XY   0.000000   0.000000   0.000000   0.000000   0.000000
   39  F   2 XZ  -0.000004   0.000000   0.000000   0.000000   0.000000
   40  F   2 YZ   0.000000   0.000000   0.000000   0.000000   0.000000
   41  F   2  S   0.000000  -0.008314   0.049250   0.000000   0.000000
   42  F   2  X  -0.001397   0.000000   0.000000   0.000000   0.000000
   43  F   2  Y   0.000000   0.000000   0.000000   0.000000   0.000000
   44  F   2  Z   0.000000   0.002374  -0.022259   0.000000   0.000000
   45  F   2 XX   0.000000  -0.000004  -0.000091   0.000000   0.000000
   46  F   2 YY   0.000000  -0.000004  -0.000091   0.000000   0.000000
   47  F   2 ZZ   0.000000   0.000007   0.000182   0.000000   0.000000
   48  F   2 XY   0.000000   0.000000   0.000000   0.000000   0.000000
   49  F   2 XZ   0.000013   0.000000   0.000000   0.000000   0.000000
   50  F   2 YZ   0.000000   0.000000   0.000000   0.000000   0.000000

                     26         27         28         29         30
                    0.3686     0.3686     0.3695     0.4510     0.4511
                     B1         B2         A1         A1         B2  
    1  LI  1  S   0.000000   0.000000   0.006092   0.025949   0.000000
    2  LI  1  S   0.000000   0.000000   0.033634   0.126969   0.000000
    3  LI  1  S   0.000000   0.000000  -0.039396  -0.206403   0.000000
    4  LI  1  X  -0.033587   0.000000   0.000000   0.000000   0.000000
    5  LI  1  Y   0.000000  -0.033587   0.000000   0.000000  -0.013791
    6  LI  1  Z   0.000000   0.000000   0.044379  -0.019455   0.000000
    7  LI  1  X   0.041698   0.000000   0.000000   0.000000   0.000000
    8  LI  1  Y   0.000000   0.041698   0.000000   0.000000   0.028991
    9  LI  1  Z   0.000000   0.000000  -0.057112   0.008578   0.000000
   10  LI  1 XX   0.000000   0.000000  -1.231234   0.023453   0.000000
   11  LI  1 YY   0.000000   0.000000  -1.231234   0.023453   0.000000
   12  LI  1 ZZ   0.000000   0.000000   2.462468  -0.046905   0.000000
   13  LI  1 XY   0.000000   0.000000   0.000000   0.000000   0.000000
   14  LI  1 XZ  -2.462228   0.000000   0.000000   0.000000   0.000000
   15  LI  1 YZ   0.000000  -2.462228   0.000000   0.000000   0.003094
   16  LI  1  S   0.000000   0.000000   0.004655   0.109060   0.000000
   17  LI  1  X  -0.005944   0.000000   0.000000   0.000000   0.000000
   18  LI  1  Y   0.000000  -0.005944   0.000000   0.000000  -0.033808
   19  LI  1  Z   0.000000   0.000000   0.009207   0.064030   0.000000
   20  LI  1 XX   0.000000   0.000000   1.028575  -0.021161   0.000000
   21  LI  1 YY   0.000000   0.000000   1.028575  -0.021161   0.000000
   22  LI  1 ZZ   0.000000   0.000000  -2.057150   0.042323   0.000000
   23  LI  1 XY   0.000000   0.000000   0.000000   0.000000   0.000000
   24  LI  1 XZ   2.054805   0.000000   0.000000   0.000000   0.000000
   25  LI  1 YZ   0.000000   2.054805   0.000000   0.000000  -0.002769
   26  F   2  S   0.000000   0.000000  -0.000173  -0.005281   0.000000
   27  F   2  S   0.000000   0.000000  -0.000073   0.002419   0.000000
   28  F   2  S   0.000000   0.000000   0.001916   0.073476   0.000000
   29  F   2  X  -0.000215   0.000000   0.000000   0.000000   0.000000
   30  F   2  Y   0.000000  -0.000215   0.000000   0.000000  -0.208999
   31  F   2  Z   0.000000   0.000000  -0.003513  -0.209335   0.000000
   32  F   2  X  -0.000533   0.000000   0.000000   0.000000   0.000000
   33  F   2  Y   0.000000  -0.000533   0.000000   0.000000  -0.443400
   34  F   2  Z   0.000000   0.000000  -0.008161  -0.443971   0.000000
   35  F   2 XX   0.000000   0.000000  -0.000002  -0.000111   0.000000
   36  F   2 YY   0.000000   0.000000  -0.000002  -0.000111   0.000000
   37  F   2 ZZ   0.000000   0.000000   0.000005   0.000223   0.000000
   38  F   2 XY   0.000000   0.000000   0.000000   0.000000   0.000000
   39  F   2 XZ   0.000000   0.000000   0.000000   0.000000   0.000000
   40  F   2 YZ   0.000000   0.000000   0.000000   0.000000   0.000184
   41  F   2  S   0.000000   0.000000  -0.003469  -0.120782   0.000000
   42  F   2  X   0.001318   0.000000   0.000000   0.000000   0.000000
   43  F   2  Y   0.000000   0.001318   0.000000   0.000000   1.140032
   44  F   2  Z   0.000000   0.000000   0.019569   1.142660   0.000000
   45  F   2 XX   0.000000   0.000000   0.000015   0.000408   0.000000
   46  F   2 YY   0.000000   0.000000   0.000015   0.000408   0.000000
   47  F   2 ZZ   0.000000   0.000000  -0.000030  -0.000816   0.000000
   48  F   2 XY   0.000000   0.000000   0.000000   0.000000   0.000000
   49  F   2 XZ  -0.000002   0.000000   0.000000   0.000000   0.000000
   50  F   2 YZ   0.000000  -0.000002   0.000000   0.000000  -0.000684

                     31         32         33         34         35
                    0.4511     0.4842     1.6768     1.6770     1.6770
                     B1         A1         A1         B2         B1  
    1  LI  1  S   0.000000  -0.028936   0.000699   0.000000   0.000000
    2  LI  1  S   0.000000  -0.144376   0.003353   0.000000   0.000000
    3  LI  1  S   0.000000   0.221612  -0.005684   0.000000   0.000000
    4  LI  1  X  -0.013791   0.000000   0.000000   0.000000  -0.000421
    5  LI  1  Y   0.000000   0.000000   0.000000  -0.000421   0.000000
    6  LI  1  Z   0.000000  -0.050093  -0.002173   0.000000   0.000000
    7  LI  1  X   0.028991   0.000000   0.000000   0.000000   0.001026
    8  LI  1  Y   0.000000   0.000000   0.000000   0.001026   0.000000
    9  LI  1  Z   0.000000   0.107070   0.003186   0.000000   0.000000
   10  LI  1 XX   0.000000  -0.000784   0.000016   0.000000   0.000000
   11  LI  1 YY   0.000000  -0.000784   0.000016   0.000000   0.000000
   12  LI  1 ZZ   0.000000   0.001567  -0.000032   0.000000   0.000000
   13  LI  1 XY   0.000000   0.000000   0.000000   0.000000   0.000000
   14  LI  1 XZ   0.003094   0.000000   0.000000   0.000000   0.000002
   15  LI  1 YZ   0.000000   0.000000   0.000000   0.000002   0.000000
   16  LI  1  S   0.000000  -0.101729   0.003234   0.000000   0.000000
   17  LI  1  X  -0.033808   0.000000   0.000000   0.000000  -0.001490
   18  LI  1  Y   0.000000   0.000000   0.000000  -0.001490   0.000000
   19  LI  1  Z   0.000000  -0.127658  -0.000199   0.000000   0.000000
   20  LI  1 XX   0.000000   0.000638  -0.000018   0.000000   0.000000
   21  LI  1 YY   0.000000   0.000638  -0.000018   0.000000   0.000000
   22  LI  1 ZZ   0.000000  -0.001276   0.000035   0.000000   0.000000
   23  LI  1 XY   0.000000   0.000000   0.000000   0.000000   0.000000
   24  LI  1 XZ  -0.002769   0.000000   0.000000   0.000000  -0.000002
   25  LI  1 YZ   0.000000   0.000000   0.000000  -0.000002   0.000000
   26  F   2  S   0.000000   0.058570   0.000183   0.000000   0.000000
   27  F   2  S   0.000000  -0.051883   0.000441   0.000000   0.000000
   28  F   2  S   0.000000  -0.898908  -0.000595   0.000000   0.000000
   29  F   2  X  -0.208999   0.000000   0.000000   0.000000  -0.004827
   30  F   2  Y   0.000000   0.000000   0.000000  -0.004827   0.000000
   31  F   2  Z   0.000000  -0.012041  -0.005856   0.000000   0.000000
   32  F   2  X  -0.443400   0.000000   0.000000   0.000000   0.005363
   33  F   2  Y   0.000000   0.000000   0.000000   0.005363   0.000000
   34  F   2  Z   0.000000  -0.029567   0.006473   0.000000   0.000000
   35  F   2 XX   0.000000   0.000018  -0.017978   0.000000   0.000000
   36  F   2 YY   0.000000   0.000018  -0.017978   0.000000   0.000000
   37  F   2 ZZ   0.000000  -0.000035   0.035955   0.000000   0.000000
   38  F   2 XY   0.000000   0.000000   0.000000   0.000000   0.000000
   39  F   2 XZ   0.000184   0.000000   0.000000   0.000000   0.035943
   40  F   2 YZ   0.000000   0.000000   0.000000   0.035943   0.000000
   41  F   2  S   0.000000   1.439233   0.000318   0.000000   0.000000
   42  F   2  X   1.140032   0.000000   0.000000   0.000000  -0.002811
   43  F   2  Y   0.000000   0.000000   0.000000  -0.002811   0.000000
   44  F   2  Z   0.000000   0.075921  -0.003236   0.000000   0.000000
   45  F   2 XX   0.000000  -0.000105   0.509091   0.000000   0.000000
   46  F   2 YY   0.000000  -0.000105   0.509091   0.000000   0.000000
   47  F   2 ZZ   0.000000   0.000210  -1.018183   0.000000   0.000000
   48  F   2 XY   0.000000   0.000000   0.000000   0.000000   0.000000
   49  F   2 XZ  -0.000684   0.000000   0.000000   0.000000  -1.018180
   50  F   2 YZ   0.000000   0.000000   0.000000  -1.018180   0.000000

                     36         37         38         39         40
                    1.6773     1.6773     2.0092     2.0092     2.0100
                     A2         A1         B2         B1         A1  
    1  LI  1  S   0.000000   0.000000   0.000000   0.000000   0.007495
    2  LI  1  S   0.000000   0.000000   0.000000   0.000000   0.035889
    3  LI  1  S   0.000000   0.000000   0.000000   0.000000  -0.061215
    4  LI  1  X   0.000000   0.000000   0.000000   0.004804   0.000000
    5  LI  1  Y   0.000000   0.000000   0.004804   0.000000   0.000000
    6  LI  1  Z   0.000000   0.000000   0.000000   0.000000  -0.006088
    7  LI  1  X   0.000000   0.000000   0.000000  -0.010593   0.000000
    8  LI  1  Y   0.000000   0.000000  -0.010593   0.000000   0.000000
    9  LI  1  Z   0.000000   0.000000   0.000000   0.000000   0.003211
   10  LI  1 XX   0.000000   0.000000   0.000000   0.000000   0.001259
   11  LI  1 YY   0.000000   0.000000   0.000000   0.000000   0.001259
   12  LI  1 ZZ   0.000000   0.000000   0.000000   0.000000  -0.002518
   13  LI  1 XY   0.000000   0.000000   0.000000   0.000000   0.000000
   14  LI  1 XZ   0.000000   0.000000   0.000000  -0.000199   0.000000
   15  LI  1 YZ   0.000000   0.000000  -0.000199   0.000000   0.000000
   16  LI  1  S   0.000000   0.000000   0.000000   0.000000   0.035266
   17  LI  1  X   0.000000   0.000000   0.000000   0.013039   0.000000
   18  LI  1  Y   0.000000   0.000000   0.013039   0.000000   0.000000
   19  LI  1  Z   0.000000   0.000000   0.000000   0.000000   0.020459
   20  LI  1 XX   0.000000   0.000000   0.000000   0.000000  -0.001351
   21  LI  1 YY   0.000000   0.000000   0.000000   0.000000  -0.001351
   22  LI  1 ZZ   0.000000   0.000000   0.000000   0.000000   0.002702
   23  LI  1 XY   0.000000   0.000000   0.000000   0.000000   0.000000
   24  LI  1 XZ   0.000000   0.000000   0.000000   0.000211   0.000000
   25  LI  1 YZ   0.000000   0.000000   0.000211   0.000000   0.000000
   26  F   2  S   0.000000   0.000000   0.000000   0.000000   0.000211
   27  F   2  S   0.000000   0.000000   0.000000   0.000000   0.000896
   28  F   2  S   0.000000   0.000000   0.000000   0.000000   0.002125
   29  F   2  X   0.000000   0.000000   0.000000  -0.968986   0.000000
   30  F   2  Y   0.000000   0.000000  -0.968986   0.000000   0.000000
   31  F   2  Z   0.000000   0.000000   0.000000   0.000000   0.969216
   32  F   2  X   0.000000   0.000000   0.000000   1.261778   0.000000
   33  F   2  Y   0.000000   0.000000   1.261778   0.000000   0.000000
   34  F   2  Z   0.000000   0.000000   0.000000   0.000000  -1.262905
   35  F   2 XX   0.000000   0.031097   0.000000   0.000000   0.000070
   36  F   2 YY   0.000000  -0.031097   0.000000   0.000000   0.000070
   37  F   2 ZZ   0.000000   0.000000   0.000000   0.000000  -0.000141
   38  F   2 XY   0.035908   0.000000   0.000000   0.000000   0.000000
   39  F   2 XZ   0.000000   0.000000   0.000000   0.000119   0.000000
   40  F   2 YZ   0.000000   0.000000   0.000119   0.000000   0.000000
   41  F   2  S   0.000000   0.000000   0.000000   0.000000  -0.007468
   42  F   2  X   0.000000   0.000000   0.000000  -0.460730   0.000000
   43  F   2  Y   0.000000   0.000000  -0.460730   0.000000   0.000000
   44  F   2  Z   0.000000   0.000000   0.000000   0.000000   0.463888
   45  F   2 XX   0.000000  -0.881763   0.000000   0.000000   0.002683
   46  F   2 YY   0.000000   0.881763   0.000000   0.000000   0.002683
   47  F   2 ZZ   0.000000   0.000000   0.000000   0.000000  -0.005365
   48  F   2 XY  -1.018172   0.000000   0.000000   0.000000   0.000000
   49  F   2 XZ   0.000000   0.000000   0.000000   0.004387   0.000000
   50  F   2 YZ   0.000000   0.000000   0.004387   0.000000   0.000000

                     41         42         43         44         45
                    2.6309     5.2403     5.2403     5.2403     5.2405
                     A1         A1         B2         B1         A2  
    1  LI  1  S  -0.010954  -0.000335   0.000000   0.000000   0.000000
    2  LI  1  S  -0.053377  -0.001601   0.000000   0.000000   0.000000
    3  LI  1  S   0.086307   0.002729   0.000000   0.000000   0.000000
    4  LI  1  X   0.000000   0.000000   0.000000  -0.000200   0.000000
    5  LI  1  Y   0.000000   0.000000  -0.000200   0.000000   0.000000
    6  LI  1  Z  -0.020425   0.000915   0.000000   0.000000   0.000000
    7  LI  1  X   0.000000   0.000000   0.000000   0.000487   0.000000
    8  LI  1  Y   0.000000   0.000000   0.000487   0.000000   0.000000
    9  LI  1  Z   0.046450  -0.001328   0.000000   0.000000   0.000000
   10  LI  1 XX  -0.000245  -0.000004   0.000000   0.000000   0.000000
   11  LI  1 YY  -0.000245  -0.000004   0.000000   0.000000   0.000000
   12  LI  1 ZZ   0.000490   0.000008   0.000000   0.000000   0.000000
   13  LI  1 XY   0.000000   0.000000   0.000000   0.000000   0.000000
   14  LI  1 XZ   0.000000   0.000000   0.000000   0.000000   0.000000
   15  LI  1 YZ   0.000000   0.000000   0.000000   0.000000   0.000000
   16  LI  1  S  -0.044195  -0.001564   0.000000   0.000000   0.000000
   17  LI  1  X   0.000000   0.000000   0.000000  -0.000702   0.000000
   18  LI  1  Y   0.000000   0.000000  -0.000702   0.000000   0.000000
   19  LI  1  Z  -0.060278  -0.000017   0.000000   0.000000   0.000000
   20  LI  1 XX   0.000258   0.000004   0.000000   0.000000   0.000000
   21  LI  1 YY   0.000258   0.000004   0.000000   0.000000   0.000000
   22  LI  1 ZZ  -0.000516  -0.000009   0.000000   0.000000   0.000000
   23  LI  1 XY   0.000000   0.000000   0.000000   0.000000   0.000000
   24  LI  1 XZ   0.000000   0.000000   0.000000   0.000000   0.000000
   25  LI  1 YZ   0.000000   0.000000   0.000000   0.000000   0.000000
   26  F   2  S   0.743902   0.000046   0.000000   0.000000   0.000000
   27  F   2  S   1.753565   0.000106   0.000000   0.000000   0.000000
   28  F   2  S  -2.199032  -0.000159   0.000000   0.000000   0.000000
   29  F   2  X   0.000000   0.000000   0.000000   0.000300   0.000000
   30  F   2  Y   0.000000   0.000000   0.000300   0.000000   0.000000
   31  F   2  Z  -0.001893  -0.000371   0.000000   0.000000   0.000000
   32  F   2  X   0.000000   0.000000   0.000000  -0.000231   0.000000
   33  F   2  Y   0.000000   0.000000  -0.000231   0.000000   0.000000
   34  F   2  Z   0.003741   0.000324   0.000000   0.000000   0.000000
   35  F   2 XX  -0.000014   0.584754   0.000000   0.000000   0.000000
   36  F   2 YY  -0.000014   0.584754   0.000000   0.000000   0.000000
   37  F   2 ZZ   0.000028  -1.169508   0.000000   0.000000   0.000000
   38  F   2 XY   0.000000   0.000000   0.000000   0.000000  -1.169508
   39  F   2 XZ   0.000000   0.000000   0.000000   1.169507   0.000000
   40  F   2 YZ   0.000000   0.000000   1.169507   0.000000   0.000000
   41  F   2  S   0.777293   0.000119   0.000000   0.000000   0.000000
   42  F   2  X   0.000000   0.000000   0.000000  -0.000006   0.000000
   43  F   2  Y   0.000000   0.000000  -0.000006   0.000000   0.000000
   44  F   2  Z  -0.006630  -0.000074   0.000000   0.000000   0.000000
   45  F   2 XX  -0.000145  -0.288237   0.000000   0.000000   0.000000
   46  F   2 YY  -0.000145  -0.288237   0.000000   0.000000   0.000000
   47  F   2 ZZ   0.000291   0.576474   0.000000   0.000000   0.000000
   48  F   2 XY   0.000000   0.000000   0.000000   0.000000   0.576510
   49  F   2 XZ   0.000000   0.000000   0.000000  -0.576482   0.000000
   50  F   2 YZ   0.000000   0.000000  -0.576482   0.000000   0.000000

                     46
                    5.2405
                     A1  
    1  LI  1  S   0.000000
    2  LI  1  S   0.000000
    3  LI  1  S   0.000000
    4  LI  1  X   0.000000
    5  LI  1  Y   0.000000
    6  LI  1  Z   0.000000
    7  LI  1  X   0.000000
    8  LI  1  Y   0.000000
    9  LI  1  Z   0.000000
   10  LI  1 XX   0.000000
   11  LI  1 YY   0.000000
   12  LI  1 ZZ   0.000000
   13  LI  1 XY   0.000000
   14  LI  1 XZ   0.000000
   15  LI  1 YZ   0.000000
   16  LI  1  S   0.000000
   17  LI  1  X   0.000000
   18  LI  1  Y   0.000000
   19  LI  1  Z   0.000000
   20  LI  1 XX   0.000000
   21  LI  1 YY   0.000000
   22  LI  1 ZZ   0.000000
   23  LI  1 XY   0.000000
   24  LI  1 XZ   0.000000
   25  LI  1 YZ   0.000000
   26  F   2  S   0.000000
   27  F   2  S   0.000000
   28  F   2  S   0.000000
   29  F   2  X   0.000000
   30  F   2  Y   0.000000
   31  F   2  Z   0.000000
   32  F   2  X   0.000000
   33  F   2  Y   0.000000
   34  F   2  Z   0.000000
   35  F   2 XX  -1.012824
   36  F   2 YY   1.012824
   37  F   2 ZZ   0.000000
   38  F   2 XY   0.000000
   39  F   2 XZ   0.000000
   40  F   2 YZ   0.000000
   41  F   2  S   0.000000
   42  F   2  X   0.000000
   43  F   2  Y   0.000000
   44  F   2  Z   0.000000
   45  F   2 XX   0.499273
   46  F   2 YY  -0.499273
   47  F   2 ZZ   0.000000
   48  F   2 XY   0.000000
   49  F   2 XZ   0.000000
   50  F   2 YZ   0.000000

 WARNING! THIS VERSION OF FIREFLY IS PROBABLY OUTDATED!
 PLEASE CHECK FIREFLY HOMEPAGE FOR INFORMATION ON UPDATES!

 ...... END OF RHF CALCULATION ......

                         TIMING STATISTICS ON RANK 0:
 CPU        TIME:   STEP =      0.35 ,  TOTAL =        0.8 SECONDS (    0.0 MIN)
 WALL CLOCK TIME:   STEP =      0.71 ,  TOTAL =        1.1 SECONDS (    0.0 MIN)
 CPU UTILIZATION:   STEP =     49.55%,  TOTAL =      69.64%


                         ------------------------------
                         properties for the RHF density
                         ------------------------------

          -----------------
          ENERGY COMPONENTS
          -----------------

         WAVEFUNCTION NORMALIZATION =       1.0000000000

                ONE ELECTRON ENERGY =    -155.6216440195
                TWO ELECTRON ENERGY =      47.3108704987
           NUCLEAR REPULSION ENERGY =       1.5875316320
                                      ------------------
                       TOTAL ENERGY =    -106.7232418888

 ELECTRON-ELECTRON POTENTIAL ENERGY =      47.3108704987
  NUCLEUS-ELECTRON POTENTIAL ENERGY =    -262.1994021532
   NUCLEUS-NUCLEUS POTENTIAL ENERGY =       1.5875316320
                                      ------------------
             TOTAL POTENTIAL ENERGY =    -213.3010000225
               TOTAL KINETIC ENERGY =     106.5777581337
                 VIRIAL RATIO (V/T) =       2.0013650480

  ...... PI ENERGY ANALYSIS ......

 ENERGY ANALYSIS:
            FOCK ENERGY=     -60.9998951322
          BARE H ENERGY=    -155.6216440195
     ELECTRONIC ENERGY =    -108.3107695758
         KINETIC ENERGY=     106.5777581337
          N-N REPULSION=       1.5875316320
           TOTAL ENERGY=    -106.7232379438
        SIGMA PART(1+2)=     -92.3278229388
               (K,V1,2)=      95.2075356447    -219.8237126715      32.2883540880
           PI PART(1+2)=     -15.9829466370
               (K,V1,2)=      11.3702224890     -42.3756894817      15.0225203557
  SIGMA SKELETON, ERROR=     -90.7402913068       0.0000000000
             MIXED PART= 0.00000E+00 0.00000E+00 0.00000E+00 0.00000E+00
 ...... END OF PI ENERGY ANALYSIS ......

          ---------------------------------------
          MULLIKEN AND LOWDIN POPULATION ANALYSES
          ---------------------------------------

     MULLIKEN ATOMIC POPULATION IN EACH MOLECULAR ORBITAL

                      1          2          3          4          5

                  2.000000   2.000000   2.000000   2.000000   2.000000

    1            -0.000001   2.000000  -0.000078   0.000019   0.000019
    2             2.000001   0.000000   2.000078   1.999981   1.999981

                      6

                  2.000000

    1             0.000213
    2             1.999787

               ----- POPULATIONS IN EACH AO -----
                             MULLIKEN      LOWDIN
              1  LI  1  S     2.00016     1.96914
              2  LI  1  S     0.00001     0.00403
              3  LI  1  S    -0.00036     0.02270
              4  LI  1  X     0.00000     0.00000
              5  LI  1  Y     0.00000     0.00000
              6  LI  1  Z    -0.00001     0.00000
              7  LI  1  X     0.00000     0.00000
              8  LI  1  Y     0.00000     0.00000
              9  LI  1  Z     0.00003     0.00002
             10  LI  1 XX     0.00000     0.00102
             11  LI  1 YY     0.00000     0.00102
             12  LI  1 ZZ     0.00000     0.00102
             13  LI  1 XY     0.00000     0.00000
             14  LI  1 XZ     0.00000     0.00000
             15  LI  1 YZ     0.00000     0.00000
             16  LI  1  S     0.00026     0.00101
             17  LI  1  X     0.00002     0.00003
             18  LI  1  Y     0.00002     0.00003
             19  LI  1  Z     0.00004     0.00052
             20  LI  1 XX     0.00000     0.00005
             21  LI  1 YY     0.00000     0.00005
             22  LI  1 ZZ     0.00000     0.00005
             23  LI  1 XY     0.00000     0.00000
             24  LI  1 XZ     0.00000     0.00000
             25  LI  1 YZ     0.00000     0.00000
             26  F   2  S     2.00134     1.88075
             27  F   2  S     0.88664     0.67779
             28  F   2  S     1.04160     0.48130
             29  F   2  X     1.09102     1.05431
             30  F   2  Y     1.09102     1.05431
             31  F   2  Z     1.08968     1.05291
             32  F   2  X     0.75565     0.76698
             33  F   2  Y     0.75565     0.76698
             34  F   2  Z     0.75529     0.76685
             35  F   2 XX     0.00000     0.20171
             36  F   2 YY     0.00000     0.20171
             37  F   2 ZZ     0.00000     0.20173
             38  F   2 XY     0.00000     0.00000
             39  F   2 XZ     0.00000     0.00000
             40  F   2 YZ     0.00000     0.00000
             41  F   2  S     0.07054     0.11530
             42  F   2  X     0.15331     0.17868
             43  F   2  Y     0.15331     0.17868
             44  F   2  Z     0.15477     0.17990
             45  F   2 XX     0.00000     0.07978
             46  F   2 YY     0.00000     0.07978
             47  F   2 ZZ     0.00000     0.07985
             48  F   2 XY     0.00000     0.00000
             49  F   2 XZ     0.00000     0.00000
             50  F   2 YZ     0.00000     0.00000

          ----- MULLIKEN ATOMIC OVERLAP POPULATIONS -----
          (OFF-DIAGONAL ELEMENTS NEED TO BE MULTIPLIED BY 2)

             1           2

    1    2.0000342
    2    0.0001391   9.9996875

          TOTAL MULLIKEN AND LOWDIN ATOMIC POPULATIONS
       ATOM         MULL.POP.    CHARGE          LOW.POP.     CHARGE
    1 LI            2.000173    0.999827         2.000706    0.999294
    2 F             9.999827   -0.999827         9.999294   -0.999294

          -------------------------------
          BOND ORDER AND VALENCE ANALYSIS     BOND ORDER THRESHOLD=0.050
          -------------------------------

                   BOND                       BOND                       BOND
  ATOM PAIR DIST  ORDER      ATOM PAIR DIST  ORDER      ATOM PAIR DIST  ORDER

                       TOTAL       BONDED        FREE
      ATOM            VALENCE     VALENCE     VALENCE
    1 LI                0.000       0.000       0.000
    2 F                 0.000       0.000       0.000

          ---------------------
          ELECTROSTATIC MOMENTS
          ---------------------

 POINT   1           X           Y           Z (BOHR)    CHARGE
                 0.000000    0.000000   12.420658        0.00 (A.U.)
         DX          DY          DZ         /D/  (DEBYE)
     0.000000    0.000000  -43.175306   43.175306
 ...... END OF PROPERTY EVALUATION ......

                         TIMING STATISTICS ON RANK 0:
 CPU        TIME:   STEP =      0.00 ,  TOTAL =        0.8 SECONDS (    0.0 MIN)
 WALL CLOCK TIME:   STEP =      0.01 ,  TOTAL =        1.1 SECONDS (    0.0 MIN)
 CPU UTILIZATION:   STEP =      0.00%,  TOTAL =      69.01%
 ......END OF NBO ANALYSIS......

                         TIMING STATISTICS ON RANK 0:
 CPU        TIME:   STEP =      0.00 ,  TOTAL =        0.8 SECONDS (    0.0 MIN)
 WALL CLOCK TIME:   STEP =      0.00 ,  TOTAL =        1.1 SECONDS (    0.0 MIN)
 CPU UTILIZATION:   STEP =      0.00%,  TOTAL =      68.89%

          --------------------
          2 ELECTRON INTEGRALS
          --------------------

 DIRECT SCF METHOD SKIPS INTEGRAL STORAGE ON DISK.
 DIRECT TRANSFORMATION SKIPS AO INTEGRAL STORAGE ON DISK.
 SCHWARZ INEQUALITY OVERHEAD:      1275 INTEGRALS, CPU TIME=        0.01
 ...... END OF TWO-ELECTRON INTEGRALS .....

 CPU        TIME:   STEP =      0.01 ,  TOTAL =        0.8 SECONDS (    0.0 MIN)
 WALL CLOCK TIME:   STEP =      0.01 ,  TOTAL =        1.1 SECONDS (    0.0 MIN)
 CPU UTILIZATION:   STEP =    162.02%,  TOTAL =      69.41%

 DETERMINANT CI OPTIONS   NRNFG   NPFLG
 INTEGRAL TRANSFORMATION    1       0
 DIAGONALIZE HAMILTONIAN    1       0
 FORM 1E- DENSITY MATRIX    1       0
 FORM 2E- DENSITY MATRIX    0       0

     --------------------------------------------------
          AMES LABORATORY DETERMINANTAL FULL CI
     PROGRAM WRITTEN BY JOE IVANIC AND KLAUS RUEDENBERG
     --------------------------------------------------

 THE POINT GROUP                  =   C2V     
 THE STATE SYMMETRY               =   A1      
 NUMBER OF CORE ORBITALS          =    3
 NUMBER OF ACTIVE ORBITALS        =   29
 NUMBER OF ALPHA ELECTRONS        =    6 (   3 ACTIVE)
 NUMBER OF BETA ELECTRONS         =    6 (   3 ACTIVE)
 NUMBER OF OCCUPIED ORBITALS      =   32
 NUMBER OF CI STATES REQUESTED    =    3
 NUMBER OF CI STARTING VECTORS    =    3
 MAX. NO. OF CI EXPANSION VECTORS =   12
 SIZE OF INITIAL CI GUESS MATRIX  =  300
 MAX. NO. OF CI ITERS/STATE       =  100
 CI DIAGONALIZATION CRITERION     = 1.00E-04
 CI PROPERTIES WILL BE FOUND FOR ROOT NUMBER   1
 1E- DENSITY MATRIX OPTIONS ARE 1 0 0

 SYMMETRIES FOR THE   3 CORE,  29 ACTIVE ARE

     CORE= A1    A1    A1  

   ACTIVE= B1    B2    A1    A1    B2    B1    A1    A1    B2    B1  
           A1    B2    B1    A1    A2    A1    B2    B1    A1    A1  
           A2    A1    B1    B2    A1    A1    B2    B1    A1  

     -------------------------------
     PARTIAL INTEGRAL TRANSFORMATION
     -------------------------------

 NUMBER OF CORE MOLECULAR ORBITALS     =    3
 NUMBER OF OCCUPIED MOLECULAR ORBITALS =   32
 TOTAL NUMBER OF MOLECULAR ORBITALS    =   32
 TOTAL NUMBER OF ATOMIC ORBITALS       =   50
 THRESHOLD FOR KEEPING TRANSFORMED 2E- INTEGRALS = 1.000E-09
 AO INTEGRALS WILL BE CALCULATED IN DIRECT MODE...
 DIRECT TRANSFORMATION SKIPS AO INTEGRAL STORAGE ON DISK.
 SCHWARZ INEQUALITY OVERHEAD:      1275 INTEGRALS, CPU TIME=        0.01
 EVALUATING THE FROZEN CORE ENERGY...
 ----- FROZEN CORE ENERGY =       -95.8684873046
 # OF WORDS AVAILABLE =  200000000
 # OF WORDS NEEDED    =    1896139 FOR IN MEMORY TRANSFORMATION

 PARALLEL ONLY WORKS WITH THE SEGMENTED ALGORITHM.
 ADJUSTING MEMORY TO USE SEGMENTED ALGORITHM.

 FOR THE SEGMENTED TRANSFORMATION:
 MINIMUM=    111139 WORDS FOR 1 MOLECULAR ORBITAL PER PASS
 MAXIMUM=    302389 WORDS FOR ALL MOLECULAR ORBITALS IN 1 PASS
        (     63750 EXTRA WORDS WOULD INCLUDE AN EXTRA ORBITAL/PASS)
 SEGMENTED PARTIAL TRANSFORMATION WOULD USE    302389 WORDS,
 DISTRIBUTING   8 PASSES EACH CONTAINING   4 ORBITALS OVER   8 RANK(S).   

 CHOOSING SEGMENTED PARTIAL TRANSFORMATION...
 DIRECT TRANSFORMATION SKIPS AO INTEGRAL STORAGE ON DISK.
 PASS #   1 TOOK        0.09 SECONDS.
 ASSIGNING PASS #   2 TO A DIFFERENT RANK.     
 ASSIGNING PASS #   3 TO A DIFFERENT RANK.     
 ASSIGNING PASS #   4 TO A DIFFERENT RANK.     
 ASSIGNING PASS #   5 TO A DIFFERENT RANK.     
 ASSIGNING PASS #   6 TO A DIFFERENT RANK.     
 ASSIGNING PASS #   7 TO A DIFFERENT RANK.     
 ASSIGNING PASS #   8 TO A DIFFERENT RANK.     
 TOTAL NUMBER OF TRANSFORMED 2E- INTEGRALS KEPT =     23309
 ... END OF INTEGRAL TRANSFORMATION ...

                         TIMING STATISTICS ON RANK 0:
 CPU        TIME:   STEP =      0.13 ,  TOTAL =        0.9 SECONDS (    0.0 MIN)
 WALL CLOCK TIME:   STEP =      0.20 ,  TOTAL =        1.3 SECONDS (    0.0 MIN)
 CPU UTILIZATION:   STEP =     63.50%,  TOTAL =      68.48%

     --------------------------------------------------
          AMES LABORATORY DETERMINANTAL FULL CI
     PROGRAM WRITTEN BY JOE IVANIC AND KLAUS RUEDENBERG
          PROGRAM REWRITTEN BY ALEX A. GRANOVSKY
     --------------------------------------------------

 THE NUMBER OF DETERMINANTS HAVING SPACE SYMMETRY A1 
 IN POINT GROUP C2V  WITH SZ=  0.0 IS        3340156
 THE DETERMINANT FULL CI REQUIRES    24300418 WORDS
 INITIAL CI VECTOR GUESS TIME  :          1.3
 INITIAL FULL CI ITERATION TIME:          3.9

 ITERATION      ENERGY           GRADIENT
     1     -106.7667165053     0.09061449
     1     -106.7667133297     0.09063316
     1     -106.7232857240     0.15938589

     2     -106.7693902643     0.03375824
     2     -106.7693896583     0.03377618
     2     -106.7399808753     0.09434460

     3     -106.7699818728     0.01796334
     3     -106.7699818566     0.01797200
     3     -106.7452538010     0.02966476

     4     -106.7700995849     0.00806443
     4     -106.7700993546     0.00805432
     4     -106.7455073174     0.01133376

     5     -106.7701166108     0.00349976
     5     -106.7701163154     0.00349288
     5     -106.7455401209     0.00467370

     6     -106.7701227075     0.00184127
     6     -106.7701223731     0.00183121
     6     -106.7455475238     0.00135804

     7     -106.7701245278     0.00144656
     7     -106.7701241801     0.00144214
     7     -106.7455481069     0.00053920

     8     -106.7701250536     0.00068862
     8     -106.7701247028     0.00068699
     8     -106.7455481979     0.00026282

     9     -106.7701253556     0.00041314
     9     -106.7701250038     0.00041241
     9     -106.7455482465     0.00018995

    10     -106.7701254651     0.00029733
    10     -106.7701251133     0.00029720
    10     -106.7455482620     0.00011428

    11     -106.7701254919     0.00013517
    11     -106.7701251400     0.00013434
    11     -106.7455482653     0.00004739


 CONVERGED STATE    3 ENERGY=     -106.7455482653 IN   10 ITERS

     0     -106.7701254919     0.00013517
     0     -106.7701251400     0.00013434

     1     -106.7701254992     0.00006432
     1     -106.7701251472     0.00006450


 CONVERGED STATE    1 ENERGY=     -106.7701254992 IN   12 ITERS


 CONVERGED STATE    2 ENERGY=     -106.7701251472 IN   12 ITERS

 ALL STATES CONVERGED.

 CI EIGENVECTORS WILL BE LABELED IN GROUP=C2V     
 PRINTING CI COEFFICIENTS LARGER THAN  0.050000

 STATE   1  ENERGY=      -106.7701254992  S=  0.00  SZ=  0.00  SPACE SYM=A1  

            ALPHA              |            BETA               | COEFFICIENT
-------------------------------|-------------------------------|------------
 11100000000000000000000000000 | 11010000000000000000000000000 |   0.6709221
 11010000000000000000000000000 | 11100000000000000000000000000 |   0.6709220
 11000000000000000000000001000 | 11010000000000000000000000000 |  -0.1023535
 11010000000000000000000000000 | 11000000000000000000000001000 |  -0.1023535
 10100000000000000000000000100 | 11010000000000000000000000000 |  -0.0918175
 01100000000000000000000000010 | 11010000000000000000000000000 |   0.0918175
 11010000000000000000000000000 | 10100000000000000000000000100 |  -0.0918175
 11010000000000000000000000000 | 01100000000000000000000000010 |   0.0918175
 11100000000000000000000000000 | 01010000000000000000000000010 |   0.0860549
 11100000000000000000000000000 | 10010000000000000000000000100 |  -0.0860549
 01010000000000000000000000010 | 11100000000000000000000000000 |   0.0860549
 10010000000000000000000000100 | 11100000000000000000000000000 |  -0.0860549
 11100000000000000000000000000 | 11000010000000000000000000000 |   0.0777949
 11000010000000000000000000000 | 11100000000000000000000000000 |   0.0777949

 STATE   2  ENERGY=      -106.7701251472  S=  1.00  SZ=  0.00  SPACE SYM=A1  

            ALPHA              |            BETA               | COEFFICIENT
-------------------------------|-------------------------------|------------
 11010000000000000000000000000 | 11100000000000000000000000000 |  -0.6709359
 11100000000000000000000000000 | 11010000000000000000000000000 |   0.6709359
 11010000000000000000000000000 | 11000000000000000000000001000 |   0.1023542
 11000000000000000000000001000 | 11010000000000000000000000000 |  -0.1023542
 11010000000000000000000000000 | 01100000000000000000000000010 |  -0.0918189
 11010000000000000000000000000 | 10100000000000000000000000100 |   0.0918189
 01100000000000000000000000010 | 11010000000000000000000000000 |   0.0918189
 10100000000000000000000000100 | 11010000000000000000000000000 |  -0.0918189
 10010000000000000000000000100 | 11100000000000000000000000000 |   0.0860563
 01010000000000000000000000010 | 11100000000000000000000000000 |  -0.0860563
 11100000000000000000000000000 | 10010000000000000000000000100 |  -0.0860563
 11100000000000000000000000000 | 01010000000000000000000000010 |   0.0860563
 11000010000000000000000000000 | 11100000000000000000000000000 |  -0.0777947
 11100000000000000000000000000 | 11000010000000000000000000000 |   0.0777947

 STATE   3  ENERGY=      -106.7455482656  S=  0.00  SZ=  0.00  SPACE SYM=A1  

            ALPHA              |            BETA               | COEFFICIENT
-------------------------------|-------------------------------|------------
 11100000000000000000000000000 | 11100000000000000000000000000 |   0.9872214
 ..... DONE WITH DETERMINANT CI COMPUTATION .....

                         TIMING STATISTICS ON RANK 0:
 CPU        TIME:   STEP =     49.51 ,  TOTAL =       50.4 SECONDS (    0.8 MIN)
 WALL CLOCK TIME:   STEP =     82.85 ,  TOTAL =       84.1 SECONDS (    1.4 MIN)
 CPU UTILIZATION:   STEP =     59.76%,  TOTAL =      59.89%

     ---------------------------
     ONE PARTICLE DENSITY MATRIX
     ---------------------------

 DENSITY MATRIX WILL BE SAVED FOR PROPERTIES OF STATE   1

 CI EIGENSTATE   1 TOTAL ENERGY =     -106.7701254992

          NATURAL ORBITALS IN ATOMIC ORBITAL BASIS
          ----------------------------------------

                      1          2          3          4          5

                    2.0000     2.0000     2.0000     1.9993     1.9993

    1  LI  1  S   0.000015   1.000082  -0.000109   0.000000   0.000000
    2  LI  1  S   0.000072  -0.001096  -0.000520   0.000000   0.000000
    3  LI  1  S  -0.000117  -0.001067   0.000878   0.000000   0.000000
    4  LI  1  X   0.000000   0.000000   0.000000   0.000000   0.000142
    5  LI  1  Y   0.000000   0.000000   0.000000  -0.000142   0.000000
    6  LI  1  Z   0.000029  -0.000544  -0.000186   0.000000   0.000000
    7  LI  1  X   0.000000   0.000000   0.000000   0.000000  -0.000304
    8  LI  1  Y   0.000000   0.000000   0.000000   0.000304   0.000000
    9  LI  1  Z  -0.000066   0.000461   0.000460   0.000000   0.000000
   10  LI  1 XX   0.000000   0.000011   0.000001   0.000000   0.000000
   11  LI  1 YY   0.000000   0.000011   0.000001   0.000000   0.000000
   12  LI  1 ZZ   0.000000  -0.000023  -0.000003   0.000000   0.000000
   13  LI  1 XY   0.000000   0.000000   0.000000   0.000000   0.000000
   14  LI  1 XZ   0.000000   0.000000   0.000000   0.000000  -0.000007
   15  LI  1 YZ   0.000000   0.000000   0.000000   0.000007   0.000000
   16  LI  1  S   0.000061   0.001305  -0.000483   0.000000   0.000000
   17  LI  1  X   0.000000   0.000000   0.000000   0.000000   0.000354
   18  LI  1  Y   0.000000   0.000000   0.000000  -0.000354   0.000000
   19  LI  1  Z   0.000086  -0.000046  -0.000659   0.000000   0.000000
   20  LI  1 XX   0.000000  -0.000008  -0.000002   0.000000   0.000000
   21  LI  1 YY   0.000000  -0.000008  -0.000002   0.000000   0.000000
   22  LI  1 ZZ   0.000001   0.000016   0.000004   0.000000   0.000000
   23  LI  1 XY   0.000000   0.000000   0.000000   0.000000   0.000000
   24  LI  1 XZ   0.000000   0.000000   0.000000   0.000000   0.000007
   25  LI  1 YZ   0.000000   0.000000   0.000000  -0.000007   0.000000
   26  F   2  S  -1.000683  -0.000007  -0.006356   0.000000   0.000000
   27  F   2  S  -0.000508  -0.000012   0.490900   0.000000   0.000000
   28  F   2  S   0.003371   0.000040   0.554535   0.000000   0.000000
   29  F   2  X   0.000000   0.000000   0.000000  -0.000004   0.650250
   30  F   2  Y   0.000000   0.000000   0.000000  -0.650250  -0.000004
   31  F   2  Z   0.000017   0.000003  -0.000357   0.000000   0.000000
   32  F   2  X   0.000000   0.000000   0.000000  -0.000003   0.500435
   33  F   2  Y   0.000000   0.000000   0.000000  -0.500435  -0.000003
   34  F   2  Z  -0.000011  -0.000016  -0.000853   0.000000   0.000000
   35  F   2 XX   0.000000   0.000000   0.000002   0.000000   0.000000
   36  F   2 YY   0.000000   0.000000   0.000002   0.000000   0.000000
   37  F   2 ZZ   0.000001   0.000000  -0.000004   0.000000   0.000000
   38  F   2 XY   0.000000   0.000000   0.000000   0.000000   0.000000
   39  F   2 XZ   0.000000   0.000000   0.000000   0.000000  -0.000052
   40  F   2 YZ   0.000000   0.000000   0.000000   0.000052   0.000000
   41  F   2  S  -0.001099  -0.000064   0.056271   0.000000   0.000000
   42  F   2  X   0.000000   0.000000   0.000000   0.000000   0.010334
   43  F   2  Y   0.000000   0.000000   0.000000  -0.010334   0.000000
   44  F   2  Z   0.000012   0.000042  -0.000518   0.000000   0.000000
   45  F   2 XX   0.000000   0.000000  -0.000037   0.000000   0.000000
   46  F   2 YY   0.000000   0.000000  -0.000037   0.000000   0.000000
   47  F   2 ZZ   0.000000  -0.000001   0.000074   0.000000   0.000000
   48  F   2 XY   0.000000   0.000000   0.000000   0.000000   0.000000
   49  F   2 XZ   0.000000   0.000000   0.000000   0.000000  -0.000935
   50  F   2 YZ   0.000000   0.000000   0.000000   0.000935   0.000000

                      6          7          8          9         10

                    1.0050     0.9949     0.0006     0.0006     0.0002

    1  LI  1  S   0.002009  -0.001373   0.000000   0.000000   0.012791
    2  LI  1  S   0.713294  -0.707726   0.000000   0.000000   0.063024
    3  LI  1  S  -0.009771   0.004597   0.000000   0.000000  -0.105605
    4  LI  1  X   0.000000   0.000000   0.007234   0.000002   0.000000
    5  LI  1  Y   0.000000   0.000000   0.000002  -0.007234   0.000000
    6  LI  1  Z   0.000232  -0.000513   0.000000   0.000000  -0.009264
    7  LI  1  X   0.000000   0.000000  -0.017848  -0.000004   0.000000
    8  LI  1  Y   0.000000   0.000000  -0.000004   0.017848   0.000000
    9  LI  1  Z   0.000004  -0.000111   0.000000   0.000000   0.003504
   10  LI  1 XX   0.000075   0.000020   0.000000   0.000000   0.001680
   11  LI  1 YY   0.000075   0.000020   0.000000   0.000000   0.001680
   12  LI  1 ZZ  -0.000150  -0.000040   0.000000   0.000000  -0.003360
   13  LI  1 XY   0.000000   0.000000   0.000000   0.000000   0.000000
   14  LI  1 XZ   0.000000   0.000000  -0.000137   0.000000   0.000000
   15  LI  1 YZ   0.000000   0.000000   0.000000   0.000137   0.000000
   16  LI  1  S   0.006695  -0.003698   0.000000   0.000000   0.062825
   17  LI  1  X   0.000000   0.000000   0.022577   0.000005   0.000000
   18  LI  1  Y   0.000000   0.000000   0.000005  -0.022577   0.000000
   19  LI  1  Z   0.000913   0.000993   0.000000   0.000000   0.037965
   20  LI  1 XX  -0.000114   0.000010   0.000000   0.000000  -0.001831
   21  LI  1 YY  -0.000114   0.000010   0.000000   0.000000  -0.001831
   22  LI  1 ZZ   0.000228  -0.000021   0.000000   0.000000   0.003662
   23  LI  1 XY   0.000000   0.000000   0.000000   0.000000   0.000000
   24  LI  1 XZ   0.000000   0.000000   0.000041   0.000000   0.000000
   25  LI  1 YZ   0.000000   0.000000   0.000000  -0.000041   0.000000
   26  F   2  S  -0.000220  -0.000216   0.000000   0.000000  -0.001108
   27  F   2  S  -0.001004  -0.000871   0.000000   0.000000  -0.000614
   28  F   2  S   0.000009   0.000289   0.000000   0.000000   0.011174
   29  F   2  X   0.000000   0.000000   0.126987   0.000031   0.000000
   30  F   2  Y   0.000000   0.000000   0.000031  -0.126987   0.000000
   31  F   2  Z  -0.460372  -0.462361   0.000000   0.000000  -0.114397
   32  F   2  X   0.000000   0.000000   0.382561   0.000092   0.000000
   33  F   2  Y   0.000000   0.000000   0.000092  -0.382561   0.000000
   34  F   2  Z  -0.358276  -0.360274   0.000000   0.000000  -0.373610
   35  F   2 XX  -0.000022  -0.000021   0.000000   0.000000  -0.000105
   36  F   2 YY  -0.000022  -0.000021   0.000000   0.000000  -0.000105
   37  F   2 ZZ   0.000045   0.000042   0.000000   0.000000   0.000210
   38  F   2 XY   0.000000   0.000000   0.000000   0.000000   0.000000
   39  F   2 XZ   0.000000   0.000000  -0.000178   0.000000   0.000000
   40  F   2 YZ   0.000000   0.000000   0.000000   0.000178   0.000000
   41  F   2  S  -0.000239  -0.000423   0.000000   0.000000  -0.019365
   42  F   2  X   0.000000   0.000000  -1.150551  -0.000278   0.000000
   43  F   2  Y   0.000000   0.000000  -0.000278   1.150551   0.000000
   44  F   2  Z   0.007890   0.009787   0.000000   0.000000   1.154676
   45  F   2 XX  -0.000385  -0.000385   0.000000   0.000000   0.000482
   46  F   2 YY  -0.000385  -0.000385   0.000000   0.000000   0.000482
   47  F   2 ZZ   0.000771   0.000770   0.000000   0.000000  -0.000965
   48  F   2 XY   0.000000   0.000000   0.000000   0.000000   0.000000
   49  F   2 XZ   0.000000   0.000000   0.000808   0.000000   0.000000
   50  F   2 YZ   0.000000   0.000000   0.000000  -0.000808   0.000000

                     11         12         13         14         15

                    0.0001     0.0000     0.0000     0.0000     0.0000

    1  LI  1  S  -0.015252   0.000000   0.000000  -0.001423   0.323313
    2  LI  1  S  -0.074351   0.000000   0.000000  -0.005099   1.546764
    3  LI  1  S   0.121284   0.000000   0.000000   0.011313  -2.576685
    4  LI  1  X   0.000000  -0.824619   0.000000   0.000000   0.000000
    5  LI  1  Y   0.000000   0.000000   0.824622   0.000000   0.000000
    6  LI  1  Z  -0.027989   0.000000   0.000000  -0.695363  -0.607418
    7  LI  1  X   0.000000  -0.152615   0.000000   0.000000   0.000000
    8  LI  1  Y   0.000000   0.000000   0.152613   0.000000   0.000000
    9  LI  1  Z   0.065973   0.000000   0.000000  -0.309213   0.340666
   10  LI  1 XX  -0.000150   0.000000   0.000000  -0.120121   0.077021
   11  LI  1 YY  -0.000150   0.000000   0.000000  -0.120121   0.077020
   12  LI  1 ZZ   0.000299   0.000000   0.000000   0.240241  -0.154041
   13  LI  1 XY   0.000000   0.000000   0.000000   0.000000   0.000000
   14  LI  1 XZ   0.000000   0.171986   0.000000   0.000000   0.000000
   15  LI  1 YZ   0.000000   0.000000  -0.171987   0.000000   0.000000
   16  LI  1  S  -0.064095   0.000000   0.000000  -0.007704   1.368698
   17  LI  1  X   0.000000  -0.029317   0.000000   0.000000   0.000000
   18  LI  1  Y   0.000000   0.000000   0.029314   0.000000   0.000000
   19  LI  1  Z  -0.088208   0.000000   0.000000   0.046395   0.688127
   20  LI  1 XX   0.000122   0.000000   0.000000   0.243021  -0.056295
   21  LI  1 YY   0.000122   0.000000   0.000000   0.243021  -0.056294
   22  LI  1 ZZ  -0.000244   0.000000   0.000000  -0.486042   0.112589
   23  LI  1 XY   0.000000   0.000000   0.000000   0.000000   0.000000
   24  LI  1 XZ   0.000000  -0.369796   0.000000   0.000000   0.000000
   25  LI  1 YZ   0.000000   0.000000   0.369797   0.000000   0.000000
   26  F   2  S   0.058505   0.000000   0.000000   0.000047  -0.006654
   27  F   2  S  -0.052518   0.000000   0.000000   0.000038  -0.010684
   28  F   2  S  -0.899574   0.000000   0.000000  -0.000511   0.059479
   29  F   2  X   0.000000  -0.000092   0.000000   0.000000   0.000000
   30  F   2  Y   0.000000   0.000000   0.000092   0.000000   0.000000
   31  F   2  Z   0.000309   0.000000   0.000000   0.000220  -0.000037
   32  F   2  X   0.000000  -0.000717   0.000000   0.000000   0.000000
   33  F   2  Y   0.000000   0.000000   0.000717   0.000000   0.000000
   34  F   2  Z  -0.001200   0.000000   0.000000   0.002311  -0.016282
   35  F   2 XX   0.000024   0.000000   0.000000   0.000015  -0.000055
   36  F   2 YY   0.000024   0.000000   0.000000   0.000015  -0.000055
   37  F   2 ZZ  -0.000047   0.000000   0.000000  -0.000030   0.000109
   38  F   2 XY   0.000000   0.000000   0.000000   0.000000   0.000000
   39  F   2 XZ   0.000000   0.000006   0.000000   0.000000   0.000000
   40  F   2 YZ   0.000000   0.000000  -0.000006   0.000000   0.000000
   41  F   2  S   1.437249   0.000000   0.000000  -0.000605  -0.157069
   42  F   2  X   0.000000   0.002449   0.000000   0.000000   0.000000
   43  F   2  Y   0.000000   0.000000  -0.002449   0.000000   0.000000
   44  F   2  Z  -0.000022   0.000000   0.000000  -0.008500   0.071734
   45  F   2 XX  -0.000129   0.000000   0.000000  -0.000022   0.000143
   46  F   2 YY  -0.000129   0.000000   0.000000  -0.000022   0.000143
   47  F   2 ZZ   0.000259   0.000000   0.000000   0.000044  -0.000286
   48  F   2 XY   0.000000   0.000000   0.000000   0.000000   0.000000
   49  F   2 XZ   0.000000  -0.000013   0.000000   0.000000   0.000000
   50  F   2 YZ   0.000000   0.000000   0.000013   0.000000   0.000000

                     16         17         18         19         20

                    0.0000     0.0000     0.0000     0.0000     0.0000

    1  LI  1  S   0.000000   0.000000   0.000000   0.000000  -0.151644
    2  LI  1  S   0.000000   0.000000   0.000000   0.000000  -0.811497
    3  LI  1  S   0.000000   0.000000   0.000000   0.000000   1.063632
    4  LI  1  X   0.817269   0.000000   0.000002   0.574132   0.000000
    5  LI  1  Y   0.000000   0.817285   0.574162  -0.000002   0.000000
    6  LI  1  Z   0.000000   0.000000   0.000000   0.000000   1.728360
    7  LI  1  X  -1.330488   0.000000  -0.000001  -0.164273   0.000000
    8  LI  1  Y   0.000000  -1.330504  -0.164310   0.000001   0.000000
    9  LI  1  Z   0.000000   0.000000   0.000000   0.000000  -2.193959
   10  LI  1 XX   0.000000   0.000000   0.000000   0.000000  -0.148939
   11  LI  1 YY   0.000000   0.000000   0.000000   0.000000  -0.148941
   12  LI  1 ZZ   0.000000   0.000000   0.000000   0.000000   0.297880
   13  LI  1 XY   0.000000   0.000000   0.000000   0.000000   0.000000
   14  LI  1 XZ   0.363026   0.000000   0.000003   0.861978   0.000001
   15  LI  1 YZ   0.000000   0.363022   0.861972  -0.000003   0.000000
   16  LI  1  S   0.000000   0.000000   0.000000   0.000000  -0.302129
   17  LI  1  X   1.133611   0.000000  -0.000002  -0.527869   0.000000
   18  LI  1  Y   0.000000   1.133612  -0.527867   0.000002   0.000000
   19  LI  1  Z   0.000000   0.000000   0.000000   0.000000   0.949990
   20  LI  1 XX   0.000000   0.000000   0.000000   0.000000   0.204492
   21  LI  1 YY   0.000000   0.000000   0.000000   0.000000   0.204496
   22  LI  1 ZZ   0.000000   0.000000   0.000000   0.000000  -0.408987
   23  LI  1 XY   0.000000   0.000000   0.000000   0.000000   0.000000
   24  LI  1 XZ  -0.712415   0.000000  -0.000006  -1.534277   0.000000
   25  LI  1 YZ   0.000000  -0.712408  -1.534267   0.000006   0.000000
   26  F   2  S   0.000000   0.000000   0.000000   0.000000  -0.005215
   27  F   2  S   0.000000   0.000000   0.000000   0.000000  -0.008460
   28  F   2  S   0.000000   0.000000   0.000000   0.000000   0.045572
   29  F   2  X  -0.000075   0.000000   0.000000   0.000047   0.000000
   30  F   2  Y   0.000000  -0.000075   0.000047   0.000000   0.000000
   31  F   2  Z   0.000000   0.000000   0.000000   0.000000   0.000740
   32  F   2  X   0.006567   0.000000   0.000000  -0.003204   0.000000
   33  F   2  Y   0.000000   0.006567  -0.003204   0.000000   0.000000
   34  F   2  Z   0.000000   0.000000   0.000000   0.000000  -0.004378
   35  F   2 XX   0.000000   0.000000   0.000000   0.000000   0.000008
   36  F   2 YY   0.000000   0.000000   0.000000   0.000000   0.000008
   37  F   2 ZZ   0.000000   0.000000   0.000000   0.000000  -0.000016
   38  F   2 XY   0.000000   0.000000   0.000000   0.000000   0.000000
   39  F   2 XZ  -0.000066   0.000000   0.000000   0.000033   0.000000
   40  F   2 YZ   0.000000  -0.000066   0.000033   0.000000   0.000000
   41  F   2  S   0.000000   0.000000   0.000000   0.000000  -0.123866
   42  F   2  X  -0.027025   0.000000   0.000000   0.013040   0.000000
   43  F   2  Y   0.000000  -0.027025   0.013040   0.000000   0.000000
   44  F   2  Z   0.000000   0.000000   0.000000   0.000000   0.021495
   45  F   2 XX   0.000000   0.000000   0.000000   0.000000   0.000030
   46  F   2 YY   0.000000   0.000000   0.000000   0.000000   0.000030
   47  F   2 ZZ   0.000000   0.000000   0.000000   0.000000  -0.000060
   48  F   2 XY   0.000000   0.000000   0.000000   0.000000   0.000000
   49  F   2 XZ   0.000179   0.000000   0.000000  -0.000088   0.000000
   50  F   2 YZ   0.000000   0.000179  -0.000088   0.000000   0.000000

                     21         22         23         24         25

                    0.0000     0.0000     0.0000     0.0000     0.0000

    1  LI  1  S  -0.576831   0.009548   0.000000  -0.000009   0.000000
    2  LI  1  S  -3.384286   0.106839   0.000000  -0.000044   0.000000
    3  LI  1  S   3.528372   0.027902   0.000000   0.000071   0.000000
    4  LI  1  X   0.000000   0.000001   0.000000   0.000000   0.000102
    5  LI  1  Y   0.000000   0.000000   0.000000   0.000000   1.769528
    6  LI  1  Z  -0.044489   0.001482   0.000000  -0.000032   0.000000
    7  LI  1  X   0.000000  -0.000001   0.000000   0.000000  -0.000116
    8  LI  1  Y   0.000000   0.000000   0.000000   0.000000  -2.016239
    9  LI  1  Z   0.080237  -0.406204   0.000000   0.000031   0.000000
   10  LI  1 XX   0.255381   0.428592   0.000002   0.820717   0.000000
   11  LI  1 YY   0.255369   0.428592  -0.000002  -0.820738   0.000000
   12  LI  1 ZZ  -0.510750  -0.857184   0.000000   0.000021   0.000000
   13  LI  1 XY   0.000000   0.000000  -0.947686   0.000002   0.000000
   14  LI  1 XZ   0.000001   0.000007   0.000000   0.000000  -0.000048
   15  LI  1 YZ   0.000000   0.000002   0.000000   0.000000  -0.825655
   16  LI  1  S   0.047415  -0.202179   0.000000  -0.000035   0.000000
   17  LI  1  X   0.000000   0.000000   0.000000   0.000000   0.000003
   18  LI  1  Y   0.000000   0.000000   0.000000   0.000000   0.053683
   19  LI  1  Z  -0.163886   0.256919   0.000000   0.000010   0.000000
   20  LI  1 XX  -0.261353  -0.826113  -0.000004  -1.555329   0.000000
   21  LI  1 YY  -0.261336  -0.826112   0.000004   1.555348   0.000000
   22  LI  1 ZZ   0.522690   1.652225   0.000000  -0.000020   0.000000
   23  LI  1 XY   0.000000   0.000000   1.795944  -0.000005   0.000000
   24  LI  1 XZ  -0.000001  -0.000005   0.000000   0.000000   0.000057
   25  LI  1 YZ   0.000000  -0.000001   0.000000   0.000000   0.978804
   26  F   2  S   0.000622  -0.001162   0.000000   0.000000   0.000000
   27  F   2  S   0.000772  -0.001861   0.000000   0.000000   0.000000
   28  F   2  S  -0.007140   0.010280   0.000000   0.000000   0.000000
   29  F   2  X   0.000000   0.000000   0.000000   0.000000   0.000000
   30  F   2  Y   0.000000   0.000000   0.000000   0.000000   0.000059
   31  F   2  Z   0.000060  -0.000053   0.000000   0.000000   0.000000
   32  F   2  X   0.000000   0.000000   0.000000   0.000000   0.000000
   33  F   2  Y   0.000000   0.000000   0.000000   0.000000  -0.000243
   34  F   2  Z   0.000127   0.000126   0.000000   0.000000   0.000000
   35  F   2 XX  -0.000005   0.000009   0.000000   0.000000   0.000000
   36  F   2 YY  -0.000005   0.000009   0.000000   0.000000   0.000000
   37  F   2 ZZ   0.000011  -0.000019   0.000000   0.000000   0.000000
   38  F   2 XY   0.000000   0.000000   0.000000   0.000000   0.000000
   39  F   2 XZ   0.000000   0.000000   0.000000   0.000000   0.000000
   40  F   2 YZ   0.000000   0.000000   0.000000   0.000000   0.000006
   41  F   2  S   0.021385  -0.028473   0.000000   0.000000   0.000000
   42  F   2  X   0.000000   0.000000   0.000000   0.000000   0.000000
   43  F   2  Y   0.000000   0.000000   0.000000   0.000000   0.000347
   44  F   2  Z  -0.002539   0.001630   0.000000   0.000000   0.000000
   45  F   2 XX   0.000008  -0.000016   0.000000   0.000000   0.000000
   46  F   2 YY   0.000008  -0.000016   0.000000   0.000000   0.000000
   47  F   2 ZZ  -0.000017   0.000033   0.000000   0.000000   0.000000
   48  F   2 XY   0.000000   0.000000   0.000000   0.000000   0.000000
   49  F   2 XZ   0.000000   0.000000   0.000000   0.000000   0.000000
   50  F   2 YZ   0.000000   0.000000   0.000000   0.000000  -0.000009

                     26         27         28         29         30

                    0.0000     0.0000     0.0000     0.0000     0.0000

    1  LI  1  S   0.000000  -0.411279  -0.038856   0.000003   0.000011
    2  LI  1  S   0.000001  -2.088859  -0.112115   0.000009   0.000039
    3  LI  1  S  -0.000001   3.066906   0.434988  -0.000026  -0.000119
    4  LI  1  X  -1.769534   0.000001   0.000087   0.001167   0.372535
    5  LI  1  Y   0.000102   0.000000   0.000018   0.372481  -0.001167
    6  LI  1  Z   0.000000  -1.050292  -0.110922   0.000007   0.000031
    7  LI  1  X   2.016238  -0.000001  -0.000108  -0.001459  -0.465562
    8  LI  1  Y  -0.000117   0.000000  -0.000023  -0.465502   0.001459
    9  LI  1  Z   0.000000   0.971633   0.081851  -0.000005  -0.000022
   10  LI  1 XX   0.000001  -0.335016   1.085644  -0.000054  -0.000249
   11  LI  1 YY   0.000001  -0.335011   1.085669  -0.000054  -0.000250
   12  LI  1 ZZ  -0.000001   0.670027  -2.171314   0.000109   0.000499
   13  LI  1 XY   0.000000   0.000000  -0.000002   0.000000   0.000000
   14  LI  1 XZ   0.825700   0.000012   0.000501   0.006825   2.177876
   15  LI  1 YZ  -0.000048   0.000003   0.000108   2.177896  -0.006825
   16  LI  1  S   0.000000  -1.252502  -0.457031   0.000025   0.000112
   17  LI  1  X  -0.053682   0.000000   0.000010   0.000134   0.042626
   18  LI  1  Y   0.000003   0.000000   0.000002   0.042624  -0.000134
   19  LI  1  Z   0.000000   0.382115   0.141859  -0.000008  -0.000036
   20  LI  1 XX   0.000000   0.302377  -0.797558   0.000040   0.000184
   21  LI  1 YY   0.000000   0.302321  -0.797576   0.000040   0.000185
   22  LI  1 ZZ   0.000001  -0.604698   1.595134  -0.000081  -0.000369
   23  LI  1 XY   0.000000   0.000000   0.000001   0.000000   0.000000
   24  LI  1 XZ  -0.978818  -0.000009  -0.000354  -0.004827  -1.540437
   25  LI  1 YZ   0.000057  -0.000002  -0.000076  -1.540459   0.004827
   26  F   2  S   0.000000  -0.001035  -0.000217   0.000000   0.000000
   27  F   2  S   0.000000  -0.001982  -0.000365   0.000000   0.000000
   28  F   2  S   0.000000   0.006761   0.001720   0.000000   0.000000
   29  F   2  X  -0.000059   0.000000   0.000000   0.000000  -0.000013
   30  F   2  Y   0.000000   0.000000   0.000000  -0.000013   0.000000
   31  F   2  Z   0.000000  -0.000008  -0.000272   0.000000   0.000000
   32  F   2  X   0.000243   0.000000   0.000000   0.000000   0.000139
   33  F   2  Y   0.000000   0.000000   0.000000   0.000139   0.000000
   34  F   2  Z   0.000000   0.000658   0.001342   0.000000   0.000000
   35  F   2 XX   0.000000   0.000015   0.000010   0.000000   0.000000
   36  F   2 YY   0.000000   0.000015   0.000010   0.000000   0.000000
   37  F   2 ZZ   0.000000  -0.000030  -0.000020   0.000000   0.000000
   38  F   2 XY   0.000000   0.000000   0.000000   0.000000   0.000000
   39  F   2 XZ  -0.000006   0.000000   0.000000   0.000000   0.000000
   40  F   2 YZ   0.000000   0.000000   0.000000   0.000000   0.000000
   41  F   2  S   0.000000  -0.016051  -0.004890   0.000000   0.000001
   42  F   2  X  -0.000347   0.000000   0.000000  -0.000002  -0.000620
   43  F   2  Y   0.000000   0.000000   0.000000  -0.000620   0.000002
   44  F   2  Z   0.000000  -0.004280  -0.004234   0.000000   0.000001
   45  F   2 XX   0.000000  -0.000060  -0.000032   0.000000   0.000000
   46  F   2 YY   0.000000  -0.000060  -0.000032   0.000000   0.000000
   47  F   2 ZZ   0.000000   0.000120   0.000065   0.000000   0.000000
   48  F   2 XY   0.000000   0.000000   0.000000   0.000000   0.000000
   49  F   2 XZ   0.000009   0.000000   0.000000   0.000000   0.000003
   50  F   2 YZ   0.000000   0.000000   0.000000   0.000003   0.000000

                     31         32

                    0.0000     0.0000

    1  LI  1  S   0.000000   0.000005
    2  LI  1  S   0.000000   0.000025
    3  LI  1  S  -0.000001  -0.000033
    4  LI  1  X   0.000000   0.000000
    5  LI  1  Y   0.000000   0.000000
    6  LI  1  Z   0.000000   0.000011
    7  LI  1  X   0.000000   0.000000
    8  LI  1  Y   0.000000   0.000000
    9  LI  1  Z   0.000000  -0.000010
   10  LI  1 XX   0.003038   2.018278
   11  LI  1 YY  -0.003039  -2.018258
   12  LI  1 ZZ   0.000002  -0.000020
   13  LI  1 XY  -2.330499   0.003509
   14  LI  1 XZ   0.000000   0.000000
   15  LI  1 YZ   0.000000   0.000000
   16  LI  1  S   0.000000   0.000010
   17  LI  1  X   0.000000   0.000000
   18  LI  1  Y   0.000000   0.000000
   19  LI  1  Z   0.000000  -0.000002
   20  LI  1 XX  -0.002296  -1.525762
   21  LI  1 YY   0.002298   1.525746
   22  LI  1 ZZ  -0.000001   0.000016
   23  LI  1 XY   1.761796  -0.002653
   24  LI  1 XZ   0.000000   0.000000
   25  LI  1 YZ   0.000000   0.000000
   26  F   2  S   0.000000   0.000000
   27  F   2  S   0.000000   0.000000
   28  F   2  S   0.000000   0.000000
   29  F   2  X   0.000000   0.000000
   30  F   2  Y   0.000000   0.000000
   31  F   2  Z   0.000000   0.000000
   32  F   2  X   0.000000   0.000000
   33  F   2  Y   0.000000   0.000000
   34  F   2  Z   0.000000   0.000000
   35  F   2 XX   0.000000   0.000000
   36  F   2 YY   0.000000   0.000000
   37  F   2 ZZ   0.000000   0.000000
   38  F   2 XY   0.000000   0.000000
   39  F   2 XZ   0.000000   0.000000
   40  F   2 YZ   0.000000   0.000000
   41  F   2  S   0.000000   0.000000
   42  F   2  X   0.000000   0.000000
   43  F   2  Y   0.000000   0.000000
   44  F   2  Z   0.000000   0.000000
   45  F   2 XX   0.000000   0.000000
   46  F   2 YY   0.000000   0.000000
   47  F   2 ZZ   0.000000   0.000000
   48  F   2 XY   0.000000   0.000000
   49  F   2 XZ   0.000000   0.000000
   50  F   2 YZ   0.000000   0.000000

 WARNING! THIS VERSION OF FIREFLY IS PROBABLY OUTDATED!
 PLEASE CHECK FIREFLY HOMEPAGE FOR INFORMATION ON UPDATES!

 ..... DONE WITH ONE PARTICLE DENSITY MATRIX .....

                         TIMING STATISTICS ON RANK 0:
 CPU        TIME:   STEP =      0.08 ,  TOTAL =       50.5 SECONDS (    0.8 MIN)
 WALL CLOCK TIME:   STEP =      0.20 ,  TOTAL =       84.4 SECONDS (    1.4 MIN)
 CPU UTILIZATION:   STEP =     39.45%,  TOTAL =      59.84%


                         -----------------------------
                         properties for the CI density
                         -----------------------------

          -----------------
          ENERGY COMPONENTS
          -----------------

         WAVEFUNCTION NORMALIZATION =       1.0000000000

                ONE ELECTRON ENERGY =    -150.7593845518
                TWO ELECTRON ENERGY =      42.4017274206
           NUCLEAR REPULSION ENERGY =       1.5875316320
                                      ------------------
                       TOTAL ENERGY =    -106.7701254992

 ELECTRON-ELECTRON POTENTIAL ENERGY =      42.4017274206
  NUCLEUS-ELECTRON POTENTIAL ENERGY =    -255.8357268824
   NUCLEUS-NUCLEUS POTENTIAL ENERGY =       1.5875316320
                                      ------------------
             TOTAL POTENTIAL ENERGY =    -211.8464678298
               TOTAL KINETIC ENERGY =     105.0763423306
                 VIRIAL RATIO (V/T) =       2.0161195482

          ---------------------------------------
          MULLIKEN AND LOWDIN POPULATION ANALYSES
          ---------------------------------------

     MULLIKEN ATOMIC POPULATION IN EACH MOLECULAR ORBITAL

                      1          2          3          4          5

                  2.000000   2.000000   2.000000   1.999295   1.999295

    1            -0.000001   2.000000  -0.000078   0.000003   0.000003
    2             2.000001   0.000000   2.000078   1.999292   1.999292

                      6          7          8          9         10

                  1.005046   0.994887   0.000553   0.000553   0.000238

    1             0.504444   0.495558   0.000000   0.000000  -0.000001
    2             0.500602   0.499330   0.000553   0.000553   0.000239

                     11         12         13         14         15

                  0.000132   0.000000   0.000000   0.000000   0.000000

    1            -0.000001   0.000000   0.000000   0.000000   0.000000
    2             0.000134   0.000000   0.000000   0.000000   0.000000

                     16         17         18         19         20

                  0.000000   0.000000   0.000000   0.000000   0.000000

    1             0.000000   0.000000   0.000000   0.000000   0.000000
    2             0.000000   0.000000   0.000000   0.000000   0.000000

                     21         22         23         24         25

                  0.000000   0.000000   0.000000   0.000000   0.000000

    1             0.000000   0.000000   0.000000   0.000000   0.000000
    2             0.000000   0.000000   0.000000   0.000000   0.000000

                     26         27         28         29         30

                  0.000000   0.000000   0.000000   0.000000   0.000000

    1             0.000000   0.000000   0.000000   0.000000   0.000000
    2             0.000000   0.000000   0.000000   0.000000   0.000000

                     31         32

                  0.000000   0.000000

    1             0.000000   0.000000
    2             0.000000   0.000000

 WARNING! CI POPULATIONS SHOWN ABOVE ARE FOR THE NATURAL ORBITALS.
 IGNORE THE ABOVE DATA FOR CI FUNCTIONS WHICH ARE NOT OF -FORS- TYPE.
 THE FOLLOWING POPULATIONS ARE CORRECT FOR ANY CI WAVEFUNCTION.

               ----- POPULATIONS IN EACH AO -----
                             MULLIKEN      LOWDIN
              1  LI  1  S     2.00016     1.97098
              2  LI  1  S     1.00481     0.31806
              3  LI  1  S    -0.01003     0.20571
              4  LI  1  X     0.00000     0.00000
              5  LI  1  Y     0.00000     0.00000
              6  LI  1  Z     0.00000     0.00000
              7  LI  1  X     0.00000     0.00000
              8  LI  1  Y     0.00000     0.00000
              9  LI  1  Z     0.00000     0.00000
             10  LI  1 XX     0.00000     0.09643
             11  LI  1 YY     0.00000     0.09643
             12  LI  1 ZZ     0.00000     0.09645
             13  LI  1 XY     0.00000     0.00000
             14  LI  1 XZ     0.00000     0.00000
             15  LI  1 YZ     0.00000     0.00000
             16  LI  1  S     0.00503     0.05226
             17  LI  1  X     0.00000     0.00000
             18  LI  1  Y     0.00000     0.00000
             19  LI  1  Z    -0.00006     0.00033
             20  LI  1 XX     0.00000     0.05454
             21  LI  1 YY     0.00000     0.05454
             22  LI  1 ZZ     0.00000     0.05460
             23  LI  1 XY     0.00000     0.00000
             24  LI  1 XZ     0.00000     0.00000
             25  LI  1 YZ     0.00000     0.00000
             26  F   2  S     2.00134     1.88075
             27  F   2  S     0.88664     0.67779
             28  F   2  S     1.04158     0.48130
             29  F   2  X     1.16605     1.14492
             30  F   2  Y     1.16605     1.14492
             31  F   2  Z     0.58724     0.57799
             32  F   2  X     0.82549     0.79312
             33  F   2  Y     0.82549     0.79312
             34  F   2  Z     0.41711     0.39769
             35  F   2 XX     0.00000     0.20171
             36  F   2 YY     0.00000     0.20171
             37  F   2 ZZ     0.00000     0.20174
             38  F   2 XY     0.00000     0.00000
             39  F   2 XZ     0.00000     0.00000
             40  F   2 YZ     0.00000     0.00000
             41  F   2  S     0.07065     0.11538
             42  F   2  X     0.00830     0.06180
             43  F   2  Y     0.00830     0.06180
             44  F   2  Z    -0.00418     0.02450
             45  F   2 XX     0.00000     0.07978
             46  F   2 YY     0.00000     0.07978
             47  F   2 ZZ     0.00000     0.07985
             48  F   2 XY     0.00000     0.00000
             49  F   2 XZ     0.00000     0.00000
             50  F   2 YZ     0.00000     0.00000

          ----- MULLIKEN ATOMIC OVERLAP POPULATIONS -----
          (OFF-DIAGONAL ELEMENTS NEED TO BE MULTIPLIED BY 2)

             1           2

    1    2.9999836
    2   -0.0000563   9.0001291

          TOTAL MULLIKEN AND LOWDIN ATOMIC POPULATIONS
       ATOM         MULL.POP.    CHARGE          LOW.POP.     CHARGE
    1 LI            2.999927    0.000073         3.000334   -0.000334
    2 F             9.000073   -0.000073         8.999666    0.000334

          -------------------------------
          BOND ORDER AND VALENCE ANALYSIS     BOND ORDER THRESHOLD=0.050
          -------------------------------

                   BOND                       BOND                       BOND
  ATOM PAIR DIST  ORDER      ATOM PAIR DIST  ORDER      ATOM PAIR DIST  ORDER

                       TOTAL       BONDED        FREE
      ATOM            VALENCE     VALENCE     VALENCE
    1 LI                1.000       0.000       1.000
    2 F                 1.006       0.000       1.006

          ---------------------
          ELECTROSTATIC MOMENTS
          ---------------------

 POINT   1           X           Y           Z (BOHR)    CHARGE
                 0.000000    0.000000   12.420658        0.00 (A.U.)
         DX          DY          DZ         /D/  (DEBYE)
     0.000000    0.000000    0.013004    0.013004
 ...... END OF PROPERTY EVALUATION ......

                         TIMING STATISTICS ON RANK 0:
 CPU        TIME:   STEP =      0.08 ,  TOTAL =       50.6 SECONDS (    0.8 MIN)
 WALL CLOCK TIME:   STEP =      0.20 ,  TOTAL =       84.6 SECONDS (    1.4 MIN)
 CPU UTILIZATION:   STEP =     39.32%,  TOTAL =      59.80%
 ......END OF NBO ANALYSIS......

                         TIMING STATISTICS ON RANK 0:
 CPU        TIME:   STEP =      0.00 ,  TOTAL =       50.6 SECONDS (    0.8 MIN)
 WALL CLOCK TIME:   STEP =      0.01 ,  TOTAL =       84.6 SECONDS (    1.4 MIN)
 CPU UTILIZATION:   STEP =      0.00%,  TOTAL =      59.79%

                         OVERALL  TIMING  STATISTICS:
 GLOBAL CPU TIME ELAPSED      =       468.2 SECONDS (     7.8 MIN)
 RANK 0 WALL CLOCK TIME       =        84.6 SECONDS (     1.4 MIN)
 JOB CPU UTILIZATION:   TOTAL =    553.72%, PER RANK AVERAGE =     69.21%

    24300418 WORDS OF    DYNAMIC MEMORY USED
     5602051 BYTES OF    HEAP MEMORY    USED,      121911 BYTES REMAIN IN USE

 WARNING! THIS VERSION OF FIREFLY IS PROBABLY OUTDATED!
 PLEASE CHECK FIREFLY HOMEPAGE FOR INFORMATION ON UPDATES!

 EXECUTION OF FIREFLY TERMINATED NORMALLY  9:59:55  7-MAY-2026    
