              Grand Master is running on host yaroslavhonor
              rank #     1 is running on host yaroslavhonor
              rank #     2 is running on host yaroslavhonor
              rank #     3 is running on host yaroslavhonor
              rank #     4 is running on host yaroslavhonor
              rank #     5 is running on host yaroslavhonor
              rank #     6 is running on host yaroslavhonor
              rank #     7 is running on host yaroslavhonor

          ******************************************************
          *      Firefly version 8.2.0, build number 10203     *
          *   Compiled on    Monday,    19-09-2016, 15:30:23   *
          *Code development and Intel/AMD specific optimization*
          *  Copyright (c) 1994, 2016 by  Alex A. Granovsky,   *
          *          Firefly Project, Moscow, Russia.          *
          *   Some parts of this program include code due to   *
          * work of Jim Kress, Peter Burger, and Robert Ponec. *
          ******************************************************
          *             Firefly Project homepage:              *
          * http://classic.chem.msu.su/gran/firefly/index.html *
          *                      e-mail:                       *
          *               gran@classic.chem.msu.su             *
          *This program is not a free software and is provided *
          *exclusively to its registered users under the terms *
          *       of Firefly package license agreement         *
          * Unauthorized use of Firefly is strongly prohibited *
          *   This program may not be redistributed without    *
          * the specific, written permission of its developers.*
          ******************************************************

          ******************************************************
          *  PARTIALLY BASED ON  US GAMESS VERSION 6 JUN 1999, *
          *   US GAMESS VERSIONS  6 SEP 2001 AND 12 DEC 2003   *
          *             FROM IOWA STATE UNIVERSITY             *
          * M.W.SCHMIDT, K.K.BALDRIDGE, J.A.BOATZ, S.T.ELBERT, *
          *   M.S.GORDON, J.H.JENSEN, S.KOSEKI, N.MATSUNAGA,   *
          *          K.A.NGUYEN, S.J.SU, T.L.WINDUS,           *
          *       TOGETHER WITH M.DUPUIS, J.A.MONTGOMERY       *
          *         J.COMPUT.CHEM.  14, 1347-1363(1993)        *
          ******************************************************


 Core i7    / Linux  Firefly version running under Linux.
 Running on Intel CPU:  Brand ID  0, Family  6, Model 170, Stepping  4
 CPU Brand String    :  Intel(R) Core(TM) Ultra 5 125H                  
 CPU Features        :  x87 FPU, CMOV, MMX, SSE, SSE2, SSE3, SSSE3, SSE4.1, SSE4.2, AVX, AVX2, FMA3, HTT, MWAIT, EM64T
 Data cache size     :  L1 32 KB, L2 2048 KB, L3 18432 KB
 max    # of   cores/package :  64
 max    # of threads/package : 128
 max     cache sharing level :  64
 actual # of   cores/package :  18
 actual # of threads/package :  18
 actual # of threads/core    :   1
 Operating System successfully passed SSE support test.
 Operating System supports AVX/FMA.


 PARALLEL VERSION (MPICH) RUNNING USING    8 PROCESSES (RANKS)


 WARNING! THIS VERSION OF FIREFLY IS PROBABLY OUTDATED!
 PLEASE CHECK FIREFLY HOMEPAGE FOR INFORMATION ON UPDATES!

 EXECUTION OF FIREFLY BEGUN  9:48:00  7-MAY-2026    

            ECHO OF THE FIRST FEW INPUT CARDS -
 INPUT CARD> $CONTRL CITYP=ALDET D5=.T. EXETYP=RUN FSTINT=.T. GENCON=.F.                    
 INPUT CARD>      ICHARG=0 ICUT=13 INTTYP=HONDO ITOL=30 MAXIT=100 MULT=1                    
 INPUT CARD>      RUNTYP=ENERGY SCFTYP=RHF WIDE=1 NOSYM=0                                   
 INPUT CARD> $END                                                                           
 INPUT CARD> $MOORTH NOSTF=.T. NOZERO=.T. SYMDEN=.T. SYMS=.T. SYMVEC=.T. SYMVX=.T.          
 INPUT CARD>      TOLE=0.0D0 TOLZ=0.0D0 $END                                                
 INPUT CARD> $GUESS GUESS=HUCKEL $END                                                       
 INPUT CARD> $BASIS EXTFIL=.T. GBASIS=acc-pVDZ $END                                         
 INPUT CARD> $SYSTEM KDIAG=0 MASMEM=200000000 MWORDS=200 MXBCST=-1 NOJAC=1 TIMLIM=60000 $END
 INPUT CARD> $SCF DAMP=.T. DIIS=.T. DIRSCF=.T. FDIFF=.F. SHIFT=.T. SOSCF=.F. $END           
 INPUT CARD> $CIDET NACT=29 NCORE=3 NELS=6 NSTATE=3 GROUP=c2v CVGTOL=1e-4 $END              
 INPUT CARD> $DATA                                                                          
 INPUT CARD> LiF single-point properties R=5.95 Ang                                         
 INPUT CARD> Cnv 2                                                                          
 INPUT CARD>                                                                                
 INPUT CARD>Li    3.0     0.0000000000     0.0000000000     0.0000000000                    
 INPUT CARD>F     9.0     0.0000000000     0.0000000000     5.9500000000                    
 INPUT CARD>$END                                                                            
  200000000 WORDS OF MEMORY AVAILABLE

 This job is executing on     1 unique host(s)
 Minimum number of processes per host is:    8
 Maximum number of processes per host is:    8

 On master's host, detected   18 CPU core(s) in aggregate

 Using processor-specific dynamic link DGEMM library code.


 Creating thread pool to serve up to            128 threads.


 Loading P2P interface library... loaded successfully (version 2.4).
 Initializing global P2P interface... topology done.


     $BASIS REQUESTS READING THE "ACC-PVDZ" BASIS SET FROM AN EXTERNAL FILE


     RUN TITLE
     ---------
  LiF single-point properties R=5.95 Ang                                         

 THE POINT GROUP OF THE MOLECULE IS CNV     
 THE ORDER OF THE PRINCIPAL AXIS IS     2
 *** WARNING! ATOM   2 SHELL   10 TYPE S HAS NORMALIZATION   0.99954745
 *** WARNING! ATOM   2 SHELL   11 TYPE S HAS NORMALIZATION   1.94662964
 *** WARNING! ATOM   2 SHELL   13 TYPE P HAS NORMALIZATION   1.44467270

 ATOM      ATOMIC                      COORDINATES (BOHR)
           CHARGE         X                   Y                   Z
 LI          3.0     0.0000000000        0.0000000000        0.0000000000
 F           9.0     0.0000000000        0.0000000000       11.2438704465

          INTERNUCLEAR DISTANCES (ANGS.)
          ------------------------------

                    LI             F         

  1  LI              0.0000000      5.9500000    
  2  F               5.9500000      0.0000000    

  * ... LESS THAN  3.000


     ATOMIC BASIS SET
     ----------------
 THE CONTRACTED PRIMITIVE FUNCTIONS HAVE BEEN UNNORMALIZED
 THE CONTRACTED BASIS FUNCTIONS ARE NOW NORMALIZED TO UNITY

 SHELL TYPE PRIM    EXPONENT          CONTRACTION COEFFICIENTS

 LI        

   1   S    1    1469.000000    0.129540 (  0.000766) 
   1   S    2     220.500000    0.240287 (  0.005892) 
   1   S    3      50.260000    0.399171 (  0.029671) 
   1   S    4      14.240000    0.570408 (  0.109180) 
   1   S    5       4.581000    0.631093 (  0.282789) 
   1   S    6       1.580000    0.455113 (  0.453123) 
   1   S    7       0.564000    0.127452 (  0.274774) 
   1   S    8       0.073450    0.000981 (  0.009751) 
   1   S    9       0.028050   -0.000155 ( -0.003180) 

   2   S   10    1469.000000   -0.020294 ( -0.000120) 
   2   S   11     220.500000   -0.037642 ( -0.000923) 
   2   S   12      50.260000   -0.063082 ( -0.004689) 
   2   S   13      14.240000   -0.092379 ( -0.017682) 
   2   S   14       4.581000   -0.109133 ( -0.048902) 
   2   S   15       1.580000   -0.096431 ( -0.096009) 
   2   S   16       0.564000   -0.063259 ( -0.136380) 
   2   S   17       0.073450    0.057829 (  0.575102) 
   2   S   18       0.028050    0.025287 (  0.517661) 

   3   S   19       0.028050    0.048849 (  1.000000) 

   4   P   20       1.534000    0.055444 (  0.022784) 
   4   P   21       0.274900    0.039469 (  0.139107) 
   4   P   22       0.073620    0.027351 (  0.500375) 
   4   P   23       0.024030    0.006857 (  0.508474) 

   5   P   24       0.024030    0.013486 (  1.000000) 

   6   D   25       0.114400    0.037039 (  1.000000) 

   7   S   26       0.008600    0.020127 (  1.000000) 

   8   P   27       0.005800    0.002282 (  1.000000) 

   9   D   28       0.073300    0.016996 (  1.000000) 

 F         

  10   S   29   14710.000000    0.686054 (  0.000721) 
  10   S   30    2207.000000    1.273776 (  0.005553) 
  10   S   31     502.800000    2.138157 (  0.028267) 
  10   S   32     142.600000    3.129135 (  0.106444) 
  10   S   33      46.470000    3.636582 (  0.286814) 
  10   S   34      16.700000    2.640279 (  0.448641) 
  10   S   35       6.356000    0.755015 (  0.264761) 
  10   S   36       1.316000    0.013421 (  0.015333) 

  11   S   37   14710.000000   -0.305764 ( -0.000165) 
  11   S   38    2207.000000   -0.584323 ( -0.001308) 
  11   S   39     502.800000   -0.956795 ( -0.006495) 
  11   S   40     142.600000   -1.528086 ( -0.026691) 
  11   S   41      46.470000   -1.819623 ( -0.073690) 
  11   S   42      16.700000   -1.957301 ( -0.170776) 
  11   S   43       6.356000   -0.623829 ( -0.112327) 
  11   S   44       1.316000    0.959401 (  0.562814) 

  12   S   45       0.389700    0.351526 (  1.000000) 

  13   P   46      22.670000    4.571487 (  0.044878) 
  13   P   47       4.977000    3.608377 (  0.235718) 
  13   P   48       1.347000    1.519595 (  0.508521) 

  14   P   49       0.347100    0.379759 (  1.000000) 

  15   D   50       1.640000    3.911886 (  1.000000) 

  16   S   51       0.098630    0.125434 (  1.000000) 

  17   P   52       0.085020    0.065440 (  1.000000) 

  18   D   53       0.464000    0.429354 (  1.000000) 

 TOTAL NUMBER OF SHELLS              =   18
 TOTAL NUMBER OF BASIS FUNCTIONS     =   50
 NUMBER OF ELECTRONS                 =   12
 CHARGE OF MOLECULE                  =    0
 STATE MULTIPLICITY                  =    1
 NUMBER OF OCCUPIED ORBITALS (ALPHA) =    6
 NUMBER OF OCCUPIED ORBITALS (BETA ) =    6
 TOTAL NUMBER OF ATOMS               =    2
 THE NUCLEAR REPULSION ENERGY IS        2.4013083509
 TOTAL NUMBER OF CONTAMINANTS DROPPED=    4


 THIS MOLECULE IS RECOGNIZED AS BEING LINEAR.

     $CONTRL OPTIONS
     ---------------
     SCFTYP=RHF          RUNTYP=ENERGY       EXETYP=RUN     
     MPLEVL=       0     LOCAL =NONE         UNITS =ANGS    
     MULT  =       1     ICHARG=       0     MAXIT =     100
     NPRINT=       7     IREST =       0     COORD =UNIQUE  
     ECP   =NONE         NORMF =       0     NORMP =       0
     ITOL  =      30     ICUT  =      13     NZVAR =       0
     NOSYM =       0     INTTYP=HONDO        GEOM  =INPUT   
     PLTORB=       F     MOLPLT=       F     RPAC  =       F
     AIMPAC=       0     FRIEND=             CITYP =ALDET   
     DFTTYP=NONE    

     $SYSTEM OPTIONS
     ---------------
     KDIAG =       0     MEMORY=200000000     TIMLIM=  3600000.0 SEC.
     COREFL=       F     PTIME =        F     XDR   =       F
     BALTYP=NXTVAL       CBASE = 09001000     FBASE = B56E10C0

          ----------------
          PROPERTIES INPUT
          ----------------

     MOMENTS            FIELD           POTENTIAL          DENSITY
 IEMOM =       1   IEFLD =       0   IEPOT =       0   IEDEN =       0
 WHERE =COMASS     WHERE =NUCLEI     WHERE =NUCLEI     WHERE =NUCLEI  
 OUTPUT=BOTH       OUTPUT=BOTH       OUTPUT=BOTH       OUTPUT=BOTH    
 IEMINT=       0   IEFINT=       0                     IEDINT=       0
                                                       MORB  =       0

          EXTRAPOLATION IN EFFECT
          DAMPING IN EFFECT
          LEVEL SHIFTING IN EFFECT
          DIIS IN EFFECT

          ----------------------
          INTEGRAL INPUT OPTIONS
          ----------------------
 NOPK  =       1 NORDER=       0 SCHWRZ=       T

 ATTENTION! AO INTEGRALS WILL BE PACKED.
 THRESHOLD FOR PACKING PKTHR =  0.10000000D-05

     -------------------------------
     INTEGRAL TRANSFORMATION OPTIONS
     -------------------------------
     NWORD  =       0     CUTTRF = 1.0E-09
     MPTRAN =       0     DIRTRF =       T
     AOINTS =DUP          IREST  =       0

     ------------------------------------------
     THE POINT GROUP IS CNV, NAXIS= 2, ORDER= 4
     ------------------------------------------

     DIMENSIONS OF THE SYMMETRY SUBSPACES ARE
 A1  =  26      A2  =   4      B1  =  10      B2  =  10

 ..... DONE SETTING UP THE RUN .....

                         TIMING STATISTICS ON RANK 0:
 CPU        TIME:   STEP =      0.14 ,  TOTAL =        0.3 SECONDS (    0.0 MIN)
 WALL CLOCK TIME:   STEP =      0.17 ,  TOTAL =        0.2 SECONDS (    0.0 MIN)
 CPU UTILIZATION:   STEP =     80.71%,  TOTAL =     184.47%

          ********************
          1 ELECTRON INTEGRALS
          ********************
 ...... END OF ONE-ELECTRON INTEGRALS ......

                         TIMING STATISTICS ON RANK 0:
 CPU        TIME:   STEP =      0.00 ,  TOTAL =        0.3 SECONDS (    0.0 MIN)
 WALL CLOCK TIME:   STEP =      0.00 ,  TOTAL =        0.2 SECONDS (    0.0 MIN)
 CPU UTILIZATION:   STEP =      0.00%,  TOTAL =     181.92%

          -------------
          GUESS OPTIONS
          -------------
          GUESS =HUCKEL            NORB  =       0          NORDER=       0
          MIX   =       F          PRTMO =       F          SYMDEN=       F
          TOLZ  = 0.0E+00          TOLE  = 0.0E+00

 INITIAL GUESS ORBITALS GENERATED BY HUCKEL   ROUTINE.
 HUCKEL GUESS REQUIRES     19614 WORDS.

 LOG10 OF CONDITION NUMBER OF OVERLAP MATRIX IS:  2.14324257E+00

 SYMMETRIES FOR INITIAL GUESS ORBITALS FOLLOW.   BOTH SET(S).
     6 ORBITALS ARE OCCUPIED (    2 CORE ORBITALS).
     3=A1       4=A1       5=B1       6=B2       7=A1       8=A1       9=A1  
    10=B2      11=B1      12=A1      13=A1      14=B2      15=B1      16=A2  
 ...... END OF INITIAL ORBITAL SELECTION ......

                         TIMING STATISTICS ON RANK 0:
 CPU        TIME:   STEP =      0.02 ,  TOTAL =        0.3 SECONDS (    0.0 MIN)
 WALL CLOCK TIME:   STEP =      0.02 ,  TOTAL =        0.2 SECONDS (    0.0 MIN)
 CPU UTILIZATION:   STEP =     99.58%,  TOTAL =     173.48%

          --------------------
          2 ELECTRON INTEGRALS
          --------------------

 DIRECT SCF METHOD SKIPS INTEGRAL STORAGE ON DISK.
 DIRECT TRANSFORMATION SKIPS AO INTEGRAL STORAGE ON DISK.
 SCHWARZ INEQUALITY OVERHEAD:      1275 INTEGRALS, CPU TIME=        0.00
 ...... END OF TWO-ELECTRON INTEGRALS .....

                         TIMING STATISTICS ON RANK 0:
 CPU        TIME:   STEP =      0.00 ,  TOTAL =        0.3 SECONDS (    0.0 MIN)
 WALL CLOCK TIME:   STEP =      0.00 ,  TOTAL =        0.2 SECONDS (    0.0 MIN)
 CPU UTILIZATION:   STEP =      0.00%,  TOTAL =     171.02%

          -------------------
          RHF SCF CALCULATION
          -------------------

     NUCLEAR ENERGY =         2.4013083509
     MAXIT =  100     NPUNCH=    2
     EXTRAP=T  DAMP=T  SHIFT=T  RSTRCT=F  DIIS=T  DEM=F  SOSCF=F
     DENSITY CONV=  2.00E-05
     MEMORY REQUIRED FOR RHF STEP=     48119 WORDS.

 DIRECT SCF CALCULATION, SCHWRZ=T   FDIFF=F
 SCHWARZ INEQUALITY OVERHEAD:      1275 INTEGRALS, CPU TIME=        0.00

                                                                                                              NONZERO    BLOCKS
 ITER EX DEM  TOTAL ENERGY      E CHANGE  DENSITY CHANGE    DIIS ERROR      VIR. SHIFT       DAMPING        INTEGRALS   SKIPPED
   1  0  0  -106.484173121  -106.484173121   1.773212419   1.020943463     0.000000000     1.000000000         863013      1132
   2  1  0  -105.429153561     1.055019559   0.162938763   0.916681596     2.000000000     1.000000000         862689      1136
   3  2  0  -105.802421983    -0.373268421   0.073402418   0.624063328     4.000000000     4.000000000         861171      1139
          * * *   INITIATING DIIS PROCEDURE   * * *
   4  3  0  -105.918703143    -0.116281160   1.609718665   0.493228796     0.000000000     4.000000000         861177      1138
   5  4  0  -106.183035432    -0.264332289   0.205672413   0.637721755     0.000000000     4.000000000         861645      1135
   6  5  0  -106.575259302    -0.392223870   0.122607519   0.393016997     0.000000000     4.000000000         861411      1137
   7  6  0  -106.712769917    -0.137510615   0.069494747   0.199712129     0.000000000     4.000000000         861093      1143
   8  7  0  -106.747214283    -0.034444365   0.027642019   0.080289517     0.000000000     4.000000000         861159      1139
   9  8  0  -106.752276775    -0.005062492   0.025074106   0.036609814     0.000000000     4.000000000         861159      1139
  10  9  0  -106.753605568    -0.001328793   0.001633227   0.002240550     0.000000000     4.000000000         861177      1138
  11 10  0  -106.753610614    -0.000005046   0.001285461   0.000378915     0.000000000     4.000000000         861177      1138
  12 11  0  -106.753611462    -0.000000848   0.000586113   0.000128970     0.000000000     4.000000000         861177      1138
  13 12  0  -106.753611525    -0.000000063   0.000054419   0.000082172     0.000000000     4.000000000         861177      1138
  14 13  0  -106.753611531    -0.000000006   0.000010203   0.000007494     0.000000000     4.000000000         861177      1138
  15 14  0  -106.753611531     0.000000000   0.000002202   0.000001175     0.000000000     4.000000000         861177      1138

          -----------------
          DENSITY CONVERGED
          -----------------
     TIME TO FORM FOCK OPERATORS =       0.24 SECONDS (       0.02 SEC/ITER)
     FOCK TIME ON FIRST ITERATION=       0.02, LAST ITERATION=       0.01
     TIME TO SOLVE SCF EQUATIONS =       0.06 SECONDS (       0.00 SEC/ITER)

 FINAL ENERGY IS     -106.7536115312 AFTER  15 ITERATIONS

          ------------
          EIGENVECTORS
          ------------

                      1          2          3          4          5
                  -25.9380    -2.7032    -1.1700    -0.2711    -0.2711
                     A1         A1         A1         B2         B1  
    1  LI  1  S   0.000001  -1.000092   0.000014   0.000000   0.000000
    2  LI  1  S   0.000013   0.001041   0.000193   0.000000   0.000000
    3  LI  1  S   0.000041   0.001133   0.000231   0.000000   0.000000
    4  LI  1  X   0.000000   0.000000   0.000000   0.000000   0.000111
    5  LI  1  Y   0.000000   0.000000   0.000000   0.000110   0.000000
    6  LI  1  Z   0.000076   0.001235   0.000500   0.000000   0.000000
    7  LI  1  X   0.000000   0.000000   0.000000   0.000000  -0.002276
    8  LI  1  Y   0.000000   0.000000   0.000000  -0.002276   0.000000
    9  LI  1  Z  -0.000117  -0.001028  -0.000737   0.000000   0.000000
   10  LI  1 XX  -0.000059  -0.000022  -0.000396   0.000000   0.000000
   11  LI  1 YY  -0.000059  -0.000022  -0.000396   0.000000   0.000000
   12  LI  1 ZZ   0.000118   0.000045   0.000793   0.000000   0.000000
   13  LI  1 XY   0.000000   0.000000   0.000000   0.000000   0.000000
   14  LI  1 XZ   0.000000   0.000000   0.000000   0.000000   0.001739
   15  LI  1 YZ   0.000000   0.000000   0.000000   0.001739   0.000000
   16  LI  1  S  -0.000108  -0.001312  -0.000765   0.000000   0.000000
   17  LI  1  X   0.000000   0.000000   0.000000   0.000000  -0.000605
   18  LI  1  Y   0.000000   0.000000   0.000000  -0.000605   0.000000
   19  LI  1  Z  -0.000067   0.000111  -0.000513   0.000000   0.000000
   20  LI  1 XX   0.000070   0.000008   0.000491   0.000000   0.000000
   21  LI  1 YY   0.000070   0.000008   0.000491   0.000000   0.000000
   22  LI  1 ZZ  -0.000140  -0.000015  -0.000981   0.000000   0.000000
   23  LI  1 XY   0.000000   0.000000   0.000000   0.000000   0.000000
   24  LI  1 XZ   0.000000   0.000000   0.000000   0.000000  -0.002977
   25  LI  1 YZ   0.000000   0.000000   0.000000  -0.002977   0.000000
   26  F   2  S   1.000691   0.000000  -0.006300   0.000000   0.000000
   27  F   2  S   0.000523   0.000000   0.491025   0.000000   0.000000
   28  F   2  S  -0.003412  -0.000003   0.554335   0.000000   0.000000
   29  F   2  X   0.000000   0.000000   0.000000   0.000000  -0.629185
   30  F   2  Y   0.000000   0.000000   0.000000  -0.629186   0.000000
   31  F   2  Z  -0.000043   0.000010  -0.000783   0.000000   0.000000
   32  F   2  X   0.000000   0.000000   0.000000   0.000000  -0.447763
   33  F   2  Y   0.000000   0.000000   0.000000  -0.447763   0.000000
   34  F   2  Z   0.000035  -0.000043  -0.001853   0.000000   0.000000
   35  F   2 XX   0.000002  -0.000002   0.000009   0.000000   0.000000
   36  F   2 YY   0.000002  -0.000002   0.000009   0.000000   0.000000
   37  F   2 ZZ  -0.000004   0.000003  -0.000018   0.000000   0.000000
   38  F   2 XY   0.000000   0.000000   0.000000   0.000000   0.000000
   39  F   2 XZ   0.000000   0.000000   0.000000   0.000000   0.000072
   40  F   2 YZ   0.000000   0.000000   0.000000   0.000072   0.000000
   41  F   2  S   0.001154   0.000036   0.056494   0.000000   0.000000
   42  F   2  X   0.000000   0.000000   0.000000   0.000000  -0.155677
   43  F   2  Y   0.000000   0.000000   0.000000  -0.155677   0.000000
   44  F   2  Z  -0.000051   0.000115  -0.001335   0.000000   0.000000
   45  F   2 XX  -0.000001   0.000005  -0.000129   0.000000   0.000000
   46  F   2 YY  -0.000001   0.000005  -0.000129   0.000000   0.000000
   47  F   2 ZZ   0.000002  -0.000011   0.000257   0.000000   0.000000
   48  F   2 XY   0.000000   0.000000   0.000000   0.000000   0.000000
   49  F   2 XZ   0.000000   0.000000   0.000000   0.000000   0.002299
   50  F   2 YZ   0.000000   0.000000   0.000000   0.002299   0.000000

                      6          7          8          9         10
                   -0.2705    -0.1115    -0.0447    -0.0447    -0.0349
                     A1         A1         B2         B1         A1  
    1  LI  1  S   0.001648   0.004770   0.000000   0.000000   0.034899
    2  LI  1  S  -0.002772  -0.928708   0.000000   0.000000   0.514929
    3  LI  1  S  -0.009417  -0.021180   0.000000   0.000000  -0.064971
    4  LI  1  X   0.000000   0.000000   0.000000  -0.924402   0.000000
    5  LI  1  Y   0.000000   0.000000  -0.924402   0.000000   0.000000
    6  LI  1  Z  -0.004821   0.214121   0.000000   0.000000   0.835684
    7  LI  1  X   0.000000   0.000000   0.000000  -0.048479   0.000000
    8  LI  1  Y   0.000000   0.000000  -0.048479   0.000000   0.000000
    9  LI  1  Z  -0.006697   0.021451   0.000000   0.000000   0.039803
   10  LI  1 XX  -0.001597   0.002282   0.000000   0.000000  -0.040054
   11  LI  1 YY  -0.001597   0.002282   0.000000   0.000000  -0.040054
   12  LI  1 ZZ   0.003194  -0.004565   0.000000   0.000000   0.080108
   13  LI  1 XY   0.000000   0.000000   0.000000   0.000000   0.000000
   14  LI  1 XZ   0.000000   0.000000   0.000000  -0.054350   0.000000
   15  LI  1 YZ   0.000000   0.000000  -0.054350   0.000000   0.000000
   16  LI  1  S  -0.001610  -0.035329   0.000000   0.000000  -0.340491
   17  LI  1  X   0.000000   0.000000   0.000000  -0.066206   0.000000
   18  LI  1  Y   0.000000   0.000000  -0.066206   0.000000   0.000000
   19  LI  1  Z   0.000272  -0.001646   0.000000   0.000000   0.130481
   20  LI  1 XX   0.003499  -0.005099   0.000000   0.000000   0.104910
   21  LI  1 YY   0.003499  -0.005099   0.000000   0.000000   0.104910
   22  LI  1 ZZ  -0.006998   0.010198   0.000000   0.000000  -0.209820
   23  LI  1 XY   0.000000   0.000000   0.000000   0.000000   0.000000
   24  LI  1 XZ   0.000000   0.000000   0.000000   0.144313   0.000000
   25  LI  1 YZ   0.000000   0.000000   0.144313   0.000000   0.000000
   26  F   2  S   0.000038   0.000038   0.000000   0.000000  -0.002120
   27  F   2  S   0.003537   0.000515   0.000000   0.000000  -0.005843
   28  F   2  S   0.009003   0.000461   0.000000   0.000000   0.012958
   29  F   2  X   0.000000   0.000000   0.000000   0.004384   0.000000
   30  F   2  Y   0.000000   0.000000   0.004384   0.000000   0.000000
   31  F   2  Z   0.627133  -0.009181   0.000000   0.000000   0.017240
   32  F   2  X   0.000000   0.000000   0.000000  -0.000450   0.000000
   33  F   2  Y   0.000000   0.000000  -0.000450   0.000000   0.000000
   34  F   2  Z   0.446816  -0.006473   0.000000   0.000000   0.006593
   35  F   2 XX   0.000036   0.000018   0.000000   0.000000  -0.000140
   36  F   2 YY   0.000036   0.000018   0.000000   0.000000  -0.000140
   37  F   2 ZZ  -0.000072  -0.000036   0.000000   0.000000   0.000280
   38  F   2 XY   0.000000   0.000000   0.000000   0.000000   0.000000
   39  F   2 XZ   0.000000   0.000000   0.000000   0.000144   0.000000
   40  F   2 YZ   0.000000   0.000000   0.000144   0.000000   0.000000
   41  F   2  S  -0.012976  -0.000059   0.000000   0.000000  -0.046485
   42  F   2  X   0.000000   0.000000   0.000000   0.015615   0.000000
   43  F   2  Y   0.000000   0.000000   0.015615   0.000000   0.000000
   44  F   2  Z   0.158582  -0.002756   0.000000   0.000000   0.036577
   45  F   2 XX   0.001408  -0.000024   0.000000   0.000000   0.000394
   46  F   2 YY   0.001408  -0.000024   0.000000   0.000000   0.000394
   47  F   2 ZZ  -0.002816   0.000049   0.000000   0.000000  -0.000788
   48  F   2 XY   0.000000   0.000000   0.000000   0.000000   0.000000
   49  F   2 XZ   0.000000   0.000000   0.000000  -0.000387   0.000000
   50  F   2 YZ   0.000000   0.000000  -0.000387   0.000000   0.000000

                     11         12         13         14         15
                   -0.0102     0.0065     0.0065     0.0365     0.0766
                     A1         B2         B1         A1         B2  
    1  LI  1  S   0.013441   0.000000   0.000000  -0.089953   0.000000
    2  LI  1  S  -0.172332   0.000000   0.000000  -0.700048   0.000000
    3  LI  1  S  -0.585151   0.000000   0.000000   0.253659   0.000000
    4  LI  1  X   0.000000   0.000000  -0.442837   0.000000   0.000000
    5  LI  1  Y   0.000000  -0.442837   0.000000   0.000000  -1.958215
    6  LI  1  Z   0.659801   0.000000   0.000000   0.062968   0.000000
    7  LI  1  X   0.000000   0.000000  -0.058539   0.000000   0.000000
    8  LI  1  Y   0.000000  -0.058539   0.000000   0.000000   2.430540
    9  LI  1  Z  -0.175784   0.000000   0.000000  -0.445053   0.000000
   10  LI  1 XX  -0.014423   0.000000   0.000000  -0.027632   0.000000
   11  LI  1 YY  -0.014423   0.000000   0.000000  -0.027632   0.000000
   12  LI  1 ZZ   0.028847   0.000000   0.000000   0.055264   0.000000
   13  LI  1 XY   0.000000   0.000000   0.000000   0.000000   0.000000
   14  LI  1 XZ   0.000000   0.000000   0.012650   0.000000   0.000000
   15  LI  1 YZ   0.000000   0.012650   0.000000   0.000000   0.172226
   16  LI  1  S   1.175028   0.000000   0.000000   0.698683   0.000000
   17  LI  1  X   0.000000   0.000000   1.098638   0.000000   0.000000
   18  LI  1  Y   0.000000   1.098638   0.000000   0.000000  -0.588806
   19  LI  1  Z  -0.556651   0.000000   0.000000   1.021848   0.000000
   20  LI  1 XX   0.045574   0.000000   0.000000   0.045471   0.000000
   21  LI  1 YY   0.045574   0.000000   0.000000   0.045471   0.000000
   22  LI  1 ZZ  -0.091147   0.000000   0.000000  -0.090942   0.000000
   23  LI  1 XY   0.000000   0.000000   0.000000   0.000000   0.000000
   24  LI  1 XZ   0.000000   0.000000   0.003543   0.000000   0.000000
   25  LI  1 YZ   0.000000   0.003543   0.000000   0.000000  -0.317001
   26  F   2  S  -0.000657   0.000000   0.000000  -0.007942   0.000000
   27  F   2  S  -0.002175   0.000000   0.000000  -0.020738   0.000000
   28  F   2  S   0.003577   0.000000   0.000000   0.051016   0.000000
   29  F   2  X   0.000000   0.000000  -0.006475   0.000000   0.000000
   30  F   2  Y   0.000000  -0.006475   0.000000   0.000000  -0.002595
   31  F   2  Z   0.009917   0.000000   0.000000   0.002366   0.000000
   32  F   2  X   0.000000   0.000000   0.003475   0.000000   0.000000
   33  F   2  Y   0.000000   0.003475   0.000000   0.000000  -0.000276
   34  F   2  Z   0.000493   0.000000   0.000000   0.006884   0.000000
   35  F   2 XX  -0.000038   0.000000   0.000000   0.000117   0.000000
   36  F   2 YY  -0.000038   0.000000   0.000000   0.000117   0.000000
   37  F   2 ZZ   0.000076   0.000000   0.000000  -0.000233   0.000000
   38  F   2 XY   0.000000   0.000000   0.000000   0.000000   0.000000
   39  F   2 XZ   0.000000   0.000000  -0.000042   0.000000   0.000000
   40  F   2 YZ   0.000000  -0.000042   0.000000   0.000000  -0.000256
   41  F   2  S  -0.017646   0.000000   0.000000  -0.202371   0.000000
   42  F   2  X   0.000000   0.000000  -0.036495   0.000000   0.000000
   43  F   2  Y   0.000000  -0.036495   0.000000   0.000000  -0.007840
   44  F   2  Z   0.035827   0.000000   0.000000  -0.013680   0.000000
   45  F   2 XX   0.000109   0.000000   0.000000  -0.000275   0.000000
   46  F   2 YY   0.000109   0.000000   0.000000  -0.000275   0.000000
   47  F   2 ZZ  -0.000218   0.000000   0.000000   0.000549   0.000000
   48  F   2 XY   0.000000   0.000000   0.000000   0.000000   0.000000
   49  F   2 XZ   0.000000   0.000000   0.000132   0.000000   0.000000
   50  F   2 YZ   0.000000   0.000132   0.000000   0.000000   0.000610

                     16         17         18         19         20
                    0.0766     0.0825     0.0974     0.0974     0.1071
                     B1         A1         A2         A1         B2  
    1  LI  1  S   0.000000  -0.193191   0.000000   0.000000   0.000000
    2  LI  1  S   0.000000  -0.993579   0.000000   0.000000   0.000000
    3  LI  1  S   0.000000   1.431824   0.000000   0.000000   0.000000
    4  LI  1  X  -1.958215   0.000000   0.000000   0.000000   0.000000
    5  LI  1  Y   0.000000   0.000000   0.000000   0.000000   0.240874
    6  LI  1  Z   0.000000   1.845978   0.000000   0.000000   0.000000
    7  LI  1  X   2.430540   0.000000   0.000000   0.000000   0.000000
    8  LI  1  Y   0.000000   0.000000   0.000000   0.000000  -0.425416
    9  LI  1  Z   0.000000  -2.250114   0.000000   0.000000   0.000000
   10  LI  1 XX   0.000000   0.134983   0.000000   0.463278   0.000000
   11  LI  1 YY   0.000000   0.134983   0.000000  -0.463278   0.000000
   12  LI  1 ZZ   0.000000  -0.269966   0.000000   0.000000   0.000000
   13  LI  1 XY   0.000000   0.000000   0.534948   0.000000   0.000000
   14  LI  1 XZ   0.172226   0.000000   0.000000   0.000000   0.000000
   15  LI  1 YZ   0.000000   0.000000   0.000000   0.000000   0.487207
   16  LI  1  S   0.000000  -0.561241   0.000000   0.000000   0.000000
   17  LI  1  X  -0.588806   0.000000   0.000000   0.000000   0.000000
   18  LI  1  Y   0.000000   0.000000   0.000000   0.000000   0.110396
   19  LI  1  Z   0.000000   0.422917   0.000000   0.000000   0.000000
   20  LI  1 XX   0.000000  -0.273228   0.000000  -1.271329   0.000000
   21  LI  1 YY   0.000000  -0.273228   0.000000   1.271329   0.000000
   22  LI  1 ZZ   0.000000   0.546456   0.000000   0.000000   0.000000
   23  LI  1 XY   0.000000   0.000000  -1.468005   0.000000   0.000000
   24  LI  1 XZ  -0.317001   0.000000   0.000000   0.000000   0.000000
   25  LI  1 YZ   0.000000   0.000000   0.000000   0.000000  -1.407702
   26  F   2  S   0.000000   0.004201   0.000000   0.000000   0.000000
   27  F   2  S   0.000000   0.010454   0.000000   0.000000   0.000000
   28  F   2  S   0.000000  -0.028158   0.000000   0.000000   0.000000
   29  F   2  X  -0.002595   0.000000   0.000000   0.000000   0.000000
   30  F   2  Y   0.000000   0.000000   0.000000   0.000000   0.007975
   31  F   2  Z   0.000000  -0.009281   0.000000   0.000000   0.000000
   32  F   2  X  -0.000276   0.000000   0.000000   0.000000   0.000000
   33  F   2  Y   0.000000   0.000000   0.000000   0.000000   0.011923
   34  F   2  Z   0.000000   0.014885   0.000000   0.000000   0.000000
   35  F   2 XX   0.000000   0.000311   0.000000   0.000005   0.000000
   36  F   2 YY   0.000000   0.000311   0.000000  -0.000005   0.000000
   37  F   2 ZZ   0.000000  -0.000623   0.000000   0.000000   0.000000
   38  F   2 XY   0.000000   0.000000   0.000006   0.000000   0.000000
   39  F   2 XZ  -0.000256   0.000000   0.000000   0.000000   0.000000
   40  F   2 YZ   0.000000   0.000000   0.000000   0.000000  -0.000011
   41  F   2  S   0.000000   0.102193   0.000000   0.000000   0.000000
   42  F   2  X  -0.007840   0.000000   0.000000   0.000000   0.000000
   43  F   2  Y   0.000000   0.000000   0.000000   0.000000  -0.016636
   44  F   2  Z   0.000000  -0.115873   0.000000   0.000000   0.000000
   45  F   2 XX   0.000000  -0.001245   0.000000  -0.000050   0.000000
   46  F   2 YY   0.000000  -0.001245   0.000000   0.000050   0.000000
   47  F   2 ZZ   0.000000   0.002489   0.000000   0.000000   0.000000
   48  F   2 XY   0.000000   0.000000  -0.000058   0.000000   0.000000
   49  F   2 XZ   0.000610   0.000000   0.000000   0.000000   0.000000
   50  F   2 YZ   0.000000   0.000000   0.000000   0.000000   0.000533

                     21         22         23         24         25
                    0.1071     0.1134     0.1453     0.3862     0.3947
                     B1         A1         A1         A1         A2  
    1  LI  1  S   0.000000  -0.347740   0.678517  -0.027154   0.000000
    2  LI  1  S   0.000000  -1.896064   3.686264  -0.132618   0.000000
    3  LI  1  S   0.000000   2.438865  -4.615410   0.168020   0.000000
    4  LI  1  X   0.240874   0.000000   0.000000   0.000000   0.000000
    5  LI  1  Y   0.000000   0.000000   0.000000   0.000000   0.000000
    6  LI  1  Z   0.000000   0.257925   0.615507   0.004532   0.000000
    7  LI  1  X  -0.425416   0.000000   0.000000   0.000000   0.000000
    8  LI  1  Y   0.000000   0.000000   0.000000   0.000000   0.000000
    9  LI  1  Z   0.000000  -0.438892  -0.936076   0.064369   0.000000
   10  LI  1 XX   0.000000  -0.201072  -0.024733  -0.999879   0.000000
   11  LI  1 YY   0.000000  -0.201072  -0.024733  -0.999879   0.000000
   12  LI  1 ZZ   0.000000   0.402145   0.049466   1.999758   0.000000
   13  LI  1 XY   0.000000   0.000000   0.000000   0.000000  -2.458287
   14  LI  1 XZ   0.487207   0.000000   0.000000   0.000000   0.000000
   15  LI  1 YZ   0.000000   0.000000   0.000000   0.000000   0.000000
   16  LI  1  S   0.000000  -0.698297   1.029370  -0.000334   0.000000
   17  LI  1  X   0.110396   0.000000   0.000000   0.000000   0.000000
   18  LI  1  Y   0.000000   0.000000   0.000000   0.000000   0.000000
   19  LI  1  Z   0.000000   0.011775   0.288273  -0.008349   0.000000
   20  LI  1 XX   0.000000   0.608215   0.193540   0.790930   0.000000
   21  LI  1 YY   0.000000   0.608215   0.193540   0.790930   0.000000
   22  LI  1 ZZ   0.000000  -1.216430  -0.387080  -1.581861   0.000000
   23  LI  1 XY   0.000000   0.000000   0.000000   0.000000   2.043112
   24  LI  1 XZ  -1.407702   0.000000   0.000000   0.000000   0.000000
   25  LI  1 YZ   0.000000   0.000000   0.000000   0.000000   0.000000
   26  F   2  S   0.000000   0.000103  -0.002339  -0.015616   0.000000
   27  F   2  S   0.000000   0.008077   0.001458   0.010844   0.000000
   28  F   2  S   0.000000   0.013565   0.029814   0.223310   0.000000
   29  F   2  X   0.007975   0.000000   0.000000   0.000000   0.000000
   30  F   2  Y   0.000000   0.000000   0.000000   0.000000   0.000000
   31  F   2  Z   0.000000  -0.023525  -0.037824  -0.097351   0.000000
   32  F   2  X   0.011923   0.000000   0.000000   0.000000   0.000000
   33  F   2  Y   0.000000   0.000000   0.000000   0.000000   0.000000
   34  F   2  Z   0.000000  -0.022517  -0.030849  -0.189719   0.000000
   35  F   2 XX   0.000000  -0.000047   0.000295  -0.000245   0.000000
   36  F   2 YY   0.000000  -0.000047   0.000295  -0.000245   0.000000
   37  F   2 ZZ   0.000000   0.000094  -0.000590   0.000490   0.000000
   38  F   2 XY   0.000000   0.000000   0.000000   0.000000  -0.000016
   39  F   2 XZ  -0.000011   0.000000   0.000000   0.000000   0.000000
   40  F   2 YZ   0.000000   0.000000   0.000000   0.000000   0.000000
   41  F   2  S   0.000000   0.027217  -0.059858  -0.348253   0.000000
   42  F   2  X  -0.016636   0.000000   0.000000   0.000000   0.000000
   43  F   2  Y   0.000000   0.000000   0.000000   0.000000   0.000000
   44  F   2  Z   0.000000   0.006638  -0.024089   0.463763   0.000000
   45  F   2 XX   0.000000   0.000605  -0.000279   0.001841   0.000000
   46  F   2 YY   0.000000   0.000605  -0.000279   0.001841   0.000000
   47  F   2 ZZ   0.000000  -0.001211   0.000558  -0.003682   0.000000
   48  F   2 XY   0.000000   0.000000   0.000000   0.000000   0.000128
   49  F   2 XZ   0.000533   0.000000   0.000000   0.000000   0.000000
   50  F   2 YZ   0.000000   0.000000   0.000000   0.000000   0.000000

                     26         27         28         29         30
                    0.3947     0.3953     0.3953     0.4302     0.4302
                     A1         B2         B1         B2         B1  
    1  LI  1  S   0.000000   0.000000   0.000000   0.000000   0.000000
    2  LI  1  S   0.000000   0.000000   0.000000   0.000000   0.000000
    3  LI  1  S   0.000000   0.000000   0.000000   0.000000   0.000000
    4  LI  1  X   0.000000   0.000000   0.048691   0.000000  -0.069735
    5  LI  1  Y   0.000000   0.048691   0.000000  -0.069735   0.000000
    6  LI  1  Z   0.000000   0.000000   0.000000   0.000000   0.000000
    7  LI  1  X   0.000000   0.000000  -0.055309   0.000000   0.093804
    8  LI  1  Y   0.000000  -0.055309   0.000000   0.093804   0.000000
    9  LI  1  Z   0.000000   0.000000   0.000000   0.000000   0.000000
   10  LI  1 XX   2.128939   0.000000   0.000000   0.000000   0.000000
   11  LI  1 YY  -2.128939   0.000000   0.000000   0.000000   0.000000
   12  LI  1 ZZ   0.000000   0.000000   0.000000   0.000000   0.000000
   13  LI  1 XY   0.000000   0.000000   0.000000   0.000000   0.000000
   14  LI  1 XZ   0.000000   0.000000   2.237347   0.000000  -1.030949
   15  LI  1 YZ   0.000000   2.237347   0.000000  -1.030949   0.000000
   16  LI  1  S   0.000000   0.000000   0.000000   0.000000   0.000000
   17  LI  1  X   0.000000   0.000000   0.024988   0.000000   0.031860
   18  LI  1  Y   0.000000   0.024988   0.000000   0.031860   0.000000
   19  LI  1  Z   0.000000   0.000000   0.000000   0.000000   0.000000
   20  LI  1 XX  -1.769387   0.000000   0.000000   0.000000   0.000000
   21  LI  1 YY   1.769387   0.000000   0.000000   0.000000   0.000000
   22  LI  1 ZZ   0.000000   0.000000   0.000000   0.000000   0.000000
   23  LI  1 XY   0.000000   0.000000   0.000000   0.000000   0.000000
   24  LI  1 XZ   0.000000   0.000000  -1.848330   0.000000   0.907246
   25  LI  1 YZ   0.000000  -1.848330   0.000000   0.907247   0.000000
   26  F   2  S   0.000000   0.000000   0.000000   0.000000   0.000000
   27  F   2  S   0.000000   0.000000   0.000000   0.000000   0.000000
   28  F   2  S   0.000000   0.000000   0.000000   0.000000   0.000000
   29  F   2  X   0.000000   0.000000   0.080898   0.000000   0.192730
   30  F   2  Y   0.000000   0.080898   0.000000   0.192729   0.000000
   31  F   2  Z   0.000000   0.000000   0.000000   0.000000   0.000000
   32  F   2  X   0.000000   0.000000   0.172890   0.000000   0.407326
   33  F   2  Y   0.000000   0.172890   0.000000   0.407326   0.000000
   34  F   2  Z   0.000000   0.000000   0.000000   0.000000   0.000000
   35  F   2 XX   0.000014   0.000000   0.000000   0.000000   0.000000
   36  F   2 YY  -0.000014   0.000000   0.000000   0.000000   0.000000
   37  F   2 ZZ   0.000000   0.000000   0.000000   0.000000   0.000000
   38  F   2 XY   0.000000   0.000000   0.000000   0.000000   0.000000
   39  F   2 XZ   0.000000   0.000000  -0.000301   0.000000  -0.000300
   40  F   2 YZ   0.000000  -0.000301   0.000000  -0.000300   0.000000
   41  F   2  S   0.000000   0.000000   0.000000   0.000000   0.000000
   42  F   2  X   0.000000   0.000000  -0.433142   0.000000  -1.059427
   43  F   2  Y   0.000000  -0.433142   0.000000  -1.059427   0.000000
   44  F   2  Z   0.000000   0.000000   0.000000   0.000000   0.000000
   45  F   2 XX  -0.000111   0.000000   0.000000   0.000000   0.000000
   46  F   2 YY   0.000111   0.000000   0.000000   0.000000   0.000000
   47  F   2 ZZ   0.000000   0.000000   0.000000   0.000000   0.000000
   48  F   2 XY   0.000000   0.000000   0.000000   0.000000   0.000000
   49  F   2 XZ   0.000000   0.000000   0.001891   0.000000   0.000674
   50  F   2 YZ   0.000000   0.001891   0.000000   0.000674   0.000000

                     31         32         33         34         35
                    0.4556     0.4945     1.6460     1.6460     1.6465
                     A1         A1         B1         B2         A1  
    1  LI  1  S   0.076995   0.076146   0.000000   0.000000  -0.009850
    2  LI  1  S   0.383484   0.404326   0.000000   0.000000  -0.050602
    3  LI  1  S  -0.545583  -0.436262   0.000000   0.000000   0.067206
    4  LI  1  X   0.000000   0.000000   0.009032   0.000000   0.000000
    5  LI  1  Y   0.000000   0.000000   0.000000   0.009032   0.000000
    6  LI  1  Z   0.092389   0.292592   0.000000   0.000000  -0.021194
    7  LI  1  X   0.000000   0.000000  -0.014194   0.000000   0.000000
    8  LI  1  Y   0.000000   0.000000   0.000000  -0.014194   0.000000
    9  LI  1  Z  -0.228755  -0.504731   0.000000   0.000000   0.038128
   10  LI  1 XX  -0.253613  -0.714373   0.000000   0.000000   0.022096
   11  LI  1 YY  -0.253613  -0.714373   0.000000   0.000000   0.022096
   12  LI  1 ZZ   0.507226   1.428745   0.000000   0.000000  -0.044191
   13  LI  1 XY   0.000000   0.000000   0.000000   0.000000   0.000000
   14  LI  1 XZ   0.000000   0.000000   0.010704   0.000000   0.000000
   15  LI  1 YZ   0.000000   0.000000   0.000000   0.010704   0.000000
   16  LI  1  S   0.165862  -0.076683   0.000000   0.000000  -0.015459
   17  LI  1  X   0.000000   0.000000   0.002737   0.000000   0.000000
   18  LI  1  Y   0.000000   0.000000   0.000000   0.002737   0.000000
   19  LI  1  Z   0.162746   0.010961   0.000000   0.000000  -0.012812
   20  LI  1 XX   0.250248   0.689870   0.000000   0.000000  -0.023893
   21  LI  1 YY   0.250248   0.689870   0.000000   0.000000  -0.023893
   22  LI  1 ZZ  -0.500496  -1.379741   0.000000   0.000000   0.047786
   23  LI  1 XY   0.000000   0.000000   0.000000   0.000000   0.000000
   24  LI  1 XZ   0.000000   0.000000  -0.011383   0.000000   0.000000
   25  LI  1 YZ   0.000000   0.000000   0.000000  -0.011383   0.000000
   26  F   2  S  -0.038762   0.040874   0.000000   0.000000   0.001611
   27  F   2  S   0.036250  -0.039894   0.000000   0.000000   0.004313
   28  F   2  S   0.601475  -0.654233   0.000000   0.000000  -0.002833
   29  F   2  X   0.000000   0.000000  -0.011387   0.000000   0.000000
   30  F   2  Y   0.000000   0.000000   0.000000  -0.011387   0.000000
   31  F   2  Z   0.147776   0.121415   0.000000   0.000000  -0.024991
   32  F   2  X   0.000000   0.000000   0.012500   0.000000   0.000000
   33  F   2  Y   0.000000   0.000000   0.000000   0.012500   0.000000
   34  F   2  Z   0.322603   0.254235   0.000000   0.000000   0.024553
   35  F   2 XX   0.000072   0.000031   0.000000   0.000000  -0.017941
   36  F   2 YY   0.000072   0.000031   0.000000   0.000000  -0.017941
   37  F   2 ZZ  -0.000144  -0.000061   0.000000   0.000000   0.035881
   38  F   2 XY   0.000000   0.000000   0.000000   0.000000   0.000000
   39  F   2 XZ   0.000000   0.000000   0.035934   0.000000   0.000000
   40  F   2 YZ   0.000000   0.000000   0.000000   0.035934   0.000000
   41  F   2  S  -0.968310   1.088195   0.000000   0.000000  -0.002002
   42  F   2  X   0.000000   0.000000  -0.005938   0.000000   0.000000
   43  F   2  Y   0.000000   0.000000   0.000000  -0.005938   0.000000
   44  F   2  Z  -0.871138  -0.733209   0.000000   0.000000   0.001197
   45  F   2 XX   0.000524   0.001387   0.000000   0.000000   0.509092
   46  F   2 YY   0.000524   0.001387   0.000000   0.000000   0.509085
   47  F   2 ZZ  -0.001048  -0.002775   0.000000   0.000000  -1.018177
   48  F   2 XY   0.000000   0.000000   0.000000   0.000000   0.000000
   49  F   2 XZ   0.000000   0.000000  -1.018153   0.000000   0.000000
   50  F   2 YZ   0.000000   0.000000   0.000000  -1.018153   0.000000

                     36         37         38         39         40
                    1.6472     1.6472     1.9801     1.9801     1.9978
                     A1         A2         B2         B1         A1  
    1  LI  1  S   0.000000   0.000000   0.000000   0.000000  -0.030272
    2  LI  1  S   0.000000   0.000000   0.000000   0.000000  -0.150797
    3  LI  1  S   0.000000   0.000000   0.000000   0.000000   0.193189
    4  LI  1  X   0.000000   0.000000   0.000000   0.014098   0.000000
    5  LI  1  Y   0.000000   0.000000   0.014098   0.000000   0.000000
    6  LI  1  Z   0.000000   0.000000   0.000000   0.000000  -0.074922
    7  LI  1  X   0.000000   0.000000   0.000000  -0.019885   0.000000
    8  LI  1  Y   0.000000   0.000000  -0.019885   0.000000   0.000000
    9  LI  1  Z   0.000000   0.000000   0.000000   0.000000   0.160086
   10  LI  1 XX  -0.000717   0.000000   0.000000   0.000000   0.069967
   11  LI  1 YY   0.000717   0.000000   0.000000   0.000000   0.069967
   12  LI  1 ZZ   0.000000   0.000000   0.000000   0.000000  -0.139933
   13  LI  1 XY   0.000000   0.000828   0.000000   0.000000   0.000000
   14  LI  1 XZ   0.000000   0.000000   0.000000   0.039494   0.000000
   15  LI  1 YZ   0.000000   0.000000   0.039494   0.000000   0.000000
   16  LI  1  S   0.000000   0.000000   0.000000   0.000000  -0.015060
   17  LI  1  X   0.000000   0.000000   0.000000  -0.016093   0.000000
   18  LI  1  Y   0.000000   0.000000  -0.016093   0.000000   0.000000
   19  LI  1  Z   0.000000   0.000000   0.000000   0.000000  -0.045155
   20  LI  1 XX   0.000761   0.000000   0.000000   0.000000  -0.086336
   21  LI  1 YY  -0.000761   0.000000   0.000000   0.000000  -0.086336
   22  LI  1 ZZ   0.000000   0.000000   0.000000   0.000000   0.172673
   23  LI  1 XY   0.000000  -0.000879   0.000000   0.000000   0.000000
   24  LI  1 XZ   0.000000   0.000000   0.000000  -0.045609   0.000000
   25  LI  1 YZ   0.000000   0.000000  -0.045609   0.000000   0.000000
   26  F   2  S   0.000000   0.000000   0.000000   0.000000   0.008049
   27  F   2  S   0.000000   0.000000   0.000000   0.000000   0.021542
   28  F   2  S   0.000000   0.000000   0.000000   0.000000  -0.010147
   29  F   2  X   0.000000   0.000000   0.000000   0.968720   0.000000
   30  F   2  Y   0.000000   0.000000   0.968720   0.000000   0.000000
   31  F   2  Z   0.000000   0.000000   0.000000   0.000000   0.969698
   32  F   2  X   0.000000   0.000000   0.000000  -1.263532   0.000000
   33  F   2  Y   0.000000   0.000000  -1.263533   0.000000   0.000000
   34  F   2  Z   0.000000   0.000000   0.000000   0.000000  -1.284304
   35  F   2 XX   0.031022   0.000000   0.000000   0.000000   0.000257
   36  F   2 YY  -0.031022   0.000000   0.000000   0.000000   0.000257
   37  F   2 ZZ   0.000000   0.000000   0.000000   0.000000  -0.000514
   38  F   2 XY   0.000000  -0.035821   0.000000   0.000000   0.000000
   39  F   2 XZ   0.000000   0.000000   0.000000  -0.000280   0.000000
   40  F   2 YZ   0.000000   0.000000  -0.000280   0.000000   0.000000
   41  F   2  S   0.000000   0.000000   0.000000   0.000000  -0.023529
   42  F   2  X   0.000000   0.000000   0.000000   0.464866   0.000000
   43  F   2  Y   0.000000   0.000000   0.464866   0.000000   0.000000
   44  F   2  Z   0.000000   0.000000   0.000000   0.000000   0.521491
   45  F   2 XX  -0.881724   0.000000   0.000000   0.000000   0.012683
   46  F   2 YY   0.881728   0.000000   0.000000   0.000000   0.012683
   47  F   2 ZZ  -0.000004   0.000000   0.000000   0.000000  -0.025366
   48  F   2 XY   0.000000   1.018129   0.000000   0.000000   0.000000
   49  F   2 XZ   0.000000   0.000000   0.000000  -0.010464   0.000000
   50  F   2 YZ   0.000000   0.000000  -0.010464   0.000000   0.000000

                     41         42         43         44         45
                    2.6170     5.2093     5.2093     5.2097     5.2098
                     A1         B1         B2         A1         A2  
    1  LI  1  S   0.002013   0.000000   0.000000  -0.004376   0.000000
    2  LI  1  S   0.016170   0.000000   0.000000  -0.022361   0.000000
    3  LI  1  S   0.019951   0.000000   0.000000   0.029679   0.000000
    4  LI  1  X   0.000000   0.003922   0.000000   0.000000   0.000000
    5  LI  1  Y   0.000000   0.000000   0.003922   0.000000   0.000000
    6  LI  1  Z   0.057103   0.000000   0.000000  -0.009986   0.000000
    7  LI  1  X   0.000000  -0.006192   0.000000   0.000000   0.000000
    8  LI  1  Y   0.000000   0.000000  -0.006192   0.000000   0.000000
    9  LI  1  Z  -0.088888   0.000000   0.000000   0.018215   0.000000
   10  LI  1 XX  -0.051059   0.000000   0.000000   0.008574   0.000000
   11  LI  1 YY  -0.051059   0.000000   0.000000   0.008574   0.000000
   12  LI  1 ZZ   0.102117   0.000000   0.000000  -0.017147   0.000000
   13  LI  1 XY   0.000000   0.000000   0.000000   0.000000   0.000272
   14  LI  1 XZ   0.000000   0.003814   0.000000   0.000000   0.000000
   15  LI  1 YZ   0.000000   0.000000   0.003814   0.000000   0.000000
   16  LI  1  S  -0.075654   0.000000   0.000000  -0.006468   0.000000
   17  LI  1  X   0.000000   0.001060   0.000000   0.000000   0.000000
   18  LI  1  Y   0.000000   0.000000   0.001060   0.000000   0.000000
   19  LI  1  Z  -0.046426   0.000000   0.000000  -0.005953   0.000000
   20  LI  1 XX   0.059671   0.000000   0.000000  -0.009608   0.000000
   21  LI  1 YY   0.059671   0.000000   0.000000  -0.009608   0.000000
   22  LI  1 ZZ  -0.119341   0.000000   0.000000   0.019215   0.000000
   23  LI  1 XY   0.000000   0.000000   0.000000   0.000000  -0.000295
   24  LI  1 XZ   0.000000  -0.004175   0.000000   0.000000   0.000000
   25  LI  1 YZ   0.000000   0.000000  -0.004175   0.000000   0.000000
   26  F   2  S   0.747863   0.000000   0.000000  -0.000840   0.000000
   27  F   2  S   1.759719   0.000000   0.000000  -0.001808   0.000000
   28  F   2  S  -2.225993   0.000000   0.000000   0.003335   0.000000
   29  F   2  X   0.000000   0.000740   0.000000   0.000000   0.000000
   30  F   2  Y   0.000000   0.000000   0.000740   0.000000   0.000000
   31  F   2  Z  -0.016706   0.000000   0.000000   0.002166   0.000000
   32  F   2  X   0.000000  -0.000687   0.000000   0.000000   0.000000
   33  F   2  Y   0.000000   0.000000  -0.000687   0.000000   0.000000
   34  F   2  Z   0.031880   0.000000   0.000000  -0.004399   0.000000
   35  F   2 XX  -0.000243   0.000000   0.000000  -0.584844   0.000000
   36  F   2 YY  -0.000243   0.000000   0.000000  -0.584761   0.000000
   37  F   2 ZZ   0.000486   0.000000   0.000000   1.169605   0.000000
   38  F   2 XY   0.000000   0.000000   0.000000   0.000000  -1.169511
   39  F   2 XZ   0.000000   1.169515   0.000000   0.000000   0.000000
   40  F   2 YZ   0.000000   0.000000   1.169515   0.000000   0.000000
   41  F   2  S   0.820736   0.000000   0.000000  -0.002653   0.000000
   42  F   2  X   0.000000   0.000244   0.000000   0.000000   0.000000
   43  F   2  Y   0.000000   0.000000   0.000244   0.000000   0.000000
   44  F   2  Z  -0.040892   0.000000   0.000000   0.006407   0.000000
   45  F   2 XX  -0.001793   0.000000   0.000000   0.288491   0.000000
   46  F   2 YY  -0.001793   0.000000   0.000000   0.288450   0.000000
   47  F   2 ZZ   0.003587   0.000000   0.000000  -0.576941   0.000000
   48  F   2 XY   0.000000   0.000000   0.000000   0.000000   0.576586
   49  F   2 XZ   0.000000  -0.576522   0.000000   0.000000   0.000000
   50  F   2 YZ   0.000000   0.000000  -0.576522   0.000000   0.000000

                     46
                    5.2098
                     A1  
    1  LI  1  S   0.000000
    2  LI  1  S  -0.000001
    3  LI  1  S   0.000001
    4  LI  1  X   0.000000
    5  LI  1  Y   0.000000
    6  LI  1  Z   0.000000
    7  LI  1  X   0.000000
    8  LI  1  Y   0.000000
    9  LI  1  Z   0.000001
   10  LI  1 XX  -0.000235
   11  LI  1 YY   0.000236
   12  LI  1 ZZ  -0.000001
   13  LI  1 XY   0.000000
   14  LI  1 XZ   0.000000
   15  LI  1 YZ   0.000000
   16  LI  1  S   0.000000
   17  LI  1  X   0.000000
   18  LI  1  Y   0.000000
   19  LI  1  Z   0.000000
   20  LI  1 XX   0.000255
   21  LI  1 YY  -0.000256
   22  LI  1 ZZ   0.000001
   23  LI  1 XY   0.000000
   24  LI  1 XZ   0.000000
   25  LI  1 YZ   0.000000
   26  F   2  S   0.000000
   27  F   2  S   0.000000
   28  F   2  S   0.000000
   29  F   2  X   0.000000
   30  F   2  Y   0.000000
   31  F   2  Z   0.000000
   32  F   2  X   0.000000
   33  F   2  Y   0.000000
   34  F   2  Z   0.000000
   35  F   2 XX   1.012802
   36  F   2 YY  -1.012850
   37  F   2 ZZ   0.000048
   38  F   2 XY   0.000000
   39  F   2 XZ   0.000000
   40  F   2 YZ   0.000000
   41  F   2  S   0.000000
   42  F   2  X   0.000000
   43  F   2  Y   0.000000
   44  F   2  Z   0.000000
   45  F   2 XX  -0.499327
   46  F   2 YY   0.499350
   47  F   2 ZZ  -0.000024
   48  F   2 XY   0.000000
   49  F   2 XZ   0.000000
   50  F   2 YZ   0.000000

 WARNING! THIS VERSION OF FIREFLY IS PROBABLY OUTDATED!
 PLEASE CHECK FIREFLY HOMEPAGE FOR INFORMATION ON UPDATES!

 ...... END OF RHF CALCULATION ......

                         TIMING STATISTICS ON RANK 0:
 CPU        TIME:   STEP =      0.31 ,  TOTAL =        0.7 SECONDS (    0.0 MIN)
 WALL CLOCK TIME:   STEP =      0.31 ,  TOTAL =        0.5 SECONDS (    0.0 MIN)
 CPU UTILIZATION:   STEP =    101.57%,  TOTAL =     128.96%


                         ------------------------------
                         properties for the RHF density
                         ------------------------------

          -----------------
          ENERGY COMPONENTS
          -----------------

         WAVEFUNCTION NORMALIZATION =       1.0000000000

                ONE ELECTRON ENERGY =    -157.0620088063
                TWO ELECTRON ENERGY =      47.9070889241
           NUCLEAR REPULSION ENERGY =       2.4013083509
                                      ------------------
                       TOTAL ENERGY =    -106.7536115312

 ELECTRON-ELECTRON POTENTIAL ENERGY =      47.9070889241
  NUCLEUS-ELECTRON POTENTIAL ENERGY =    -263.6382946144
   NUCLEUS-NUCLEUS POTENTIAL ENERGY =       2.4013083509
                                      ------------------
             TOTAL POTENTIAL ENERGY =    -213.3298973394
               TOTAL KINETIC ENERGY =     106.5762858082
                 VIRIAL RATIO (V/T) =       2.0016638385

  ...... PI ENERGY ANALYSIS ......

 ENERGY ANALYSIS:
            FOCK ENERGY=     -61.2478372420
          BARE H ENERGY=    -157.0620088063
     ELECTRONIC ENERGY =    -109.1549230241
         KINETIC ENERGY=     106.5762858082
          N-N REPULSION=       2.4013083509
           TOTAL ENERGY=    -106.7536146732
        SIGMA PART(1+2)=     -92.9207800730
               (K,V1,2)=      95.1906147634    -220.8688362142      32.7574413777
           PI PART(1+2)=     -16.2341429511
               (K,V1,2)=      11.3856710447     -42.7694584003      15.1496444045
  SIGMA SKELETON, ERROR=     -90.5194717221       0.0000000000
             MIXED PART= 0.00000E+00 0.00000E+00 0.00000E+00 0.00000E+00
 ...... END OF PI ENERGY ANALYSIS ......

          ---------------------------------------
          MULLIKEN AND LOWDIN POPULATION ANALYSES
          ---------------------------------------

     MULLIKEN ATOMIC POPULATION IN EACH MOLECULAR ORBITAL

                      1          2          3          4          5

                  2.000000   2.000000   2.000000   2.000000   2.000000

    1            -0.000002   2.000000  -0.000213   0.000129   0.000129
    2             2.000002   0.000000   2.000213   1.999871   1.999871

                      6

                  2.000000

    1             0.002651
    2             1.997349

               ----- POPULATIONS IN EACH AO -----
                             MULLIKEN      LOWDIN
              1  LI  1  S     2.00018     1.96907
              2  LI  1  S     0.00015     0.00420
              3  LI  1  S     0.00031     0.02315
              4  LI  1  X     0.00000     0.00002
              5  LI  1  Y     0.00000     0.00002
              6  LI  1  Z     0.00049     0.00067
              7  LI  1  X     0.00008     0.00008
              8  LI  1  Y     0.00008     0.00008
              9  LI  1  Z     0.00089     0.00204
             10  LI  1 XX    -0.00001     0.00103
             11  LI  1 YY    -0.00001     0.00103
             12  LI  1 ZZ    -0.00004     0.00104
             13  LI  1 XY     0.00000     0.00000
             14  LI  1 XZ    -0.00001     0.00000
             15  LI  1 YZ    -0.00001     0.00000
             16  LI  1  S     0.00023     0.00164
             17  LI  1  X     0.00003     0.00014
             18  LI  1  Y     0.00003     0.00014
             19  LI  1  Z    -0.00010     0.00092
             20  LI  1 XX     0.00006     0.00006
             21  LI  1 YY     0.00006     0.00006
             22  LI  1 ZZ     0.00023     0.00044
             23  LI  1 XY     0.00000     0.00000
             24  LI  1 XZ     0.00003     0.00002
             25  LI  1 YZ     0.00003     0.00002
             26  F   2  S     2.00135     1.88070
             27  F   2  S     0.88691     0.67790
             28  F   2  S     1.04121     0.48104
             29  F   2  X     1.09244     1.05579
             30  F   2  Y     1.09244     1.05580
             31  F   2  Z     1.08630     1.04960
             32  F   2  X     0.75589     0.76685
             33  F   2  Y     0.75589     0.76685
             34  F   2  Z     0.75459     0.76574
             35  F   2 XX     0.00000     0.20168
             36  F   2 YY     0.00000     0.20168
             37  F   2 ZZ     0.00000     0.20175
             38  F   2 XY     0.00000     0.00000
             39  F   2 XZ     0.00000     0.00000
             40  F   2 YZ     0.00000     0.00000
             41  F   2  S     0.07099     0.11485
             42  F   2  X     0.15153     0.17708
             43  F   2  Y     0.15153     0.17708
             44  F   2  Z     0.15620     0.18064
             45  F   2 XX     0.00000     0.07961
             46  F   2 YY     0.00000     0.07961
             47  F   2 ZZ     0.00001     0.07985
             48  F   2 XY     0.00000     0.00000
             49  F   2 XZ     0.00001     0.00001
             50  F   2 YZ     0.00001     0.00001

          ----- MULLIKEN ATOMIC OVERLAP POPULATIONS -----
          (OFF-DIAGONAL ELEMENTS NEED TO BE MULTIPLIED BY 2)

             1           2

    1    2.0006696
    2    0.0020243   9.9952817

          TOTAL MULLIKEN AND LOWDIN ATOMIC POPULATIONS
       ATOM         MULL.POP.    CHARGE          LOW.POP.     CHARGE
    1 LI            2.002694    0.997306         2.005849    0.994151
    2 F             9.997306   -0.997306         9.994151   -0.994151

          -------------------------------
          BOND ORDER AND VALENCE ANALYSIS     BOND ORDER THRESHOLD=0.050
          -------------------------------

                   BOND                       BOND                       BOND
  ATOM PAIR DIST  ORDER      ATOM PAIR DIST  ORDER      ATOM PAIR DIST  ORDER

                       TOTAL       BONDED        FREE
      ATOM            VALENCE     VALENCE     VALENCE
    1 LI                0.005       0.005       0.000
    2 F                 0.005       0.005       0.000

          ---------------------
          ELECTROSTATIC MOMENTS
          ---------------------

 POINT   1           X           Y           Z (BOHR)    CHARGE
                 0.000000    0.000000    8.211435        0.00 (A.U.)
         DX          DY          DZ         /D/  (DEBYE)
     0.000000    0.000000  -28.423323   28.423323
 ...... END OF PROPERTY EVALUATION ......

                         TIMING STATISTICS ON RANK 0:
 CPU        TIME:   STEP =      0.00 ,  TOTAL =        0.7 SECONDS (    0.0 MIN)
 WALL CLOCK TIME:   STEP =      0.00 ,  TOTAL =        0.5 SECONDS (    0.0 MIN)
 CPU UTILIZATION:   STEP =      0.00%,  TOTAL =     127.71%
 ......END OF NBO ANALYSIS......

                         TIMING STATISTICS ON RANK 0:
 CPU        TIME:   STEP =      0.00 ,  TOTAL =        0.7 SECONDS (    0.0 MIN)
 WALL CLOCK TIME:   STEP =      0.00 ,  TOTAL =        0.5 SECONDS (    0.0 MIN)
 CPU UTILIZATION:   STEP =      0.00%,  TOTAL =     127.28%

          --------------------
          2 ELECTRON INTEGRALS
          --------------------

 DIRECT SCF METHOD SKIPS INTEGRAL STORAGE ON DISK.
 DIRECT TRANSFORMATION SKIPS AO INTEGRAL STORAGE ON DISK.
 SCHWARZ INEQUALITY OVERHEAD:      1275 INTEGRALS, CPU TIME=        0.00
 ...... END OF TWO-ELECTRON INTEGRALS .....

 CPU        TIME:   STEP =      0.00 ,  TOTAL =        0.7 SECONDS (    0.0 MIN)
 WALL CLOCK TIME:   STEP =      0.00 ,  TOTAL =        0.5 SECONDS (    0.0 MIN)
 CPU UTILIZATION:   STEP =      0.00%,  TOTAL =     126.28%

 DETERMINANT CI OPTIONS   NRNFG   NPFLG
 INTEGRAL TRANSFORMATION    1       0
 DIAGONALIZE HAMILTONIAN    1       0
 FORM 1E- DENSITY MATRIX    1       0
 FORM 2E- DENSITY MATRIX    0       0

     --------------------------------------------------
          AMES LABORATORY DETERMINANTAL FULL CI
     PROGRAM WRITTEN BY JOE IVANIC AND KLAUS RUEDENBERG
     --------------------------------------------------

 THE POINT GROUP                  =   C2V     
 THE STATE SYMMETRY               =   A1      
 NUMBER OF CORE ORBITALS          =    3
 NUMBER OF ACTIVE ORBITALS        =   29
 NUMBER OF ALPHA ELECTRONS        =    6 (   3 ACTIVE)
 NUMBER OF BETA ELECTRONS         =    6 (   3 ACTIVE)
 NUMBER OF OCCUPIED ORBITALS      =   32
 NUMBER OF CI STATES REQUESTED    =    3
 NUMBER OF CI STARTING VECTORS    =    3
 MAX. NO. OF CI EXPANSION VECTORS =   12
 SIZE OF INITIAL CI GUESS MATRIX  =  300
 MAX. NO. OF CI ITERS/STATE       =  100
 CI DIAGONALIZATION CRITERION     = 1.00E-04
 CI PROPERTIES WILL BE FOUND FOR ROOT NUMBER   1
 1E- DENSITY MATRIX OPTIONS ARE 1 0 0

 SYMMETRIES FOR THE   3 CORE,  29 ACTIVE ARE

     CORE= A1    A1    A1  

   ACTIVE= B2    B1    A1    A1    B2    B1    A1    A1    B2    B1  
           A1    B2    B1    A1    A2    A1    B2    B1    A1    A1  
           A1    A2    A1    B2    B1    B2    B1    A1    A1  

     -------------------------------
     PARTIAL INTEGRAL TRANSFORMATION
     -------------------------------

 NUMBER OF CORE MOLECULAR ORBITALS     =    3
 NUMBER OF OCCUPIED MOLECULAR ORBITALS =   32
 TOTAL NUMBER OF MOLECULAR ORBITALS    =   32
 TOTAL NUMBER OF ATOMIC ORBITALS       =   50
 THRESHOLD FOR KEEPING TRANSFORMED 2E- INTEGRALS = 1.000E-09
 AO INTEGRALS WILL BE CALCULATED IN DIRECT MODE...
 DIRECT TRANSFORMATION SKIPS AO INTEGRAL STORAGE ON DISK.
 SCHWARZ INEQUALITY OVERHEAD:      1275 INTEGRALS, CPU TIME=        0.00
 EVALUATING THE FROZEN CORE ENERGY...
 ----- FROZEN CORE ENERGY =       -96.5318337770
 # OF WORDS AVAILABLE =  200000000
 # OF WORDS NEEDED    =    1896139 FOR IN MEMORY TRANSFORMATION

 PARALLEL ONLY WORKS WITH THE SEGMENTED ALGORITHM.
 ADJUSTING MEMORY TO USE SEGMENTED ALGORITHM.

 FOR THE SEGMENTED TRANSFORMATION:
 MINIMUM=    111139 WORDS FOR 1 MOLECULAR ORBITAL PER PASS
 MAXIMUM=    302389 WORDS FOR ALL MOLECULAR ORBITALS IN 1 PASS
        (     63750 EXTRA WORDS WOULD INCLUDE AN EXTRA ORBITAL/PASS)
 SEGMENTED PARTIAL TRANSFORMATION WOULD USE    302389 WORDS,
 DISTRIBUTING   8 PASSES EACH CONTAINING   4 ORBITALS OVER   8 RANK(S).   

 CHOOSING SEGMENTED PARTIAL TRANSFORMATION...
 DIRECT TRANSFORMATION SKIPS AO INTEGRAL STORAGE ON DISK.
 PASS #   1 TOOK        0.16 SECONDS.
 ASSIGNING PASS #   2 TO A DIFFERENT RANK.     
 ASSIGNING PASS #   3 TO A DIFFERENT RANK.     
 ASSIGNING PASS #   4 TO A DIFFERENT RANK.     
 ASSIGNING PASS #   5 TO A DIFFERENT RANK.     
 ASSIGNING PASS #   6 TO A DIFFERENT RANK.     
 ASSIGNING PASS #   7 TO A DIFFERENT RANK.     
 ASSIGNING PASS #   8 TO A DIFFERENT RANK.     
 TOTAL NUMBER OF TRANSFORMED 2E- INTEGRALS KEPT =     23437
 ... END OF INTEGRAL TRANSFORMATION ...

                         TIMING STATISTICS ON RANK 0:
 CPU        TIME:   STEP =      0.19 ,  TOTAL =        0.8 SECONDS (    0.0 MIN)
 WALL CLOCK TIME:   STEP =      0.19 ,  TOTAL =        0.7 SECONDS (    0.0 MIN)
 CPU UTILIZATION:   STEP =     98.67%,  TOTAL =     118.77%

     --------------------------------------------------
          AMES LABORATORY DETERMINANTAL FULL CI
     PROGRAM WRITTEN BY JOE IVANIC AND KLAUS RUEDENBERG
          PROGRAM REWRITTEN BY ALEX A. GRANOVSKY
     --------------------------------------------------

 THE NUMBER OF DETERMINANTS HAVING SPACE SYMMETRY A1 
 IN POINT GROUP C2V  WITH SZ=  0.0 IS        3340156
 THE DETERMINANT FULL CI REQUIRES    24300418 WORDS
 INITIAL CI VECTOR GUESS TIME  :          2.0
 INITIAL FULL CI ITERATION TIME:          5.9

 ITERATION      ENERGY           GRADIENT
     1     -106.7540064802     0.16298133
     1     -106.7434375657     0.18629365
     1     -106.7428520695     0.18610777

     2     -106.7715974128     0.09467401
     2     -106.7672543455     0.08349866
     2     -106.7661799157     0.08567547

     3     -106.7767647507     0.03406437
     3     -106.7700713304     0.03974812
     3     -106.7692688825     0.03944589

     4     -106.7772039952     0.01624750
     4     -106.7706074489     0.02085747
     4     -106.7698000808     0.02046325

     5     -106.7772881982     0.00797711
     5     -106.7707122121     0.00984637
     5     -106.7699019786     0.00963786

     6     -106.7773254600     0.00408974
     6     -106.7707505888     0.00533390
     6     -106.7699383065     0.00518422

     7     -106.7773324733     0.00198218
     7     -106.7707604936     0.00206641
     7     -106.7699474901     0.00204306

     8     -106.7773339151     0.00106091
     8     -106.7707615606     0.00079736
     8     -106.7699485220     0.00085509

     9     -106.7773349623     0.00084406
     9     -106.7707618309     0.00042568
     9     -106.7699487677     0.00040575

    10     -106.7773352238     0.00049986
    10     -106.7707619272     0.00034387
    10     -106.7699488416     0.00027033

    11     -106.7773352947     0.00023587
    11     -106.7707619614     0.00015901
    11     -106.7699488633     0.00012296

    12     -106.7773353242     0.00010801
    12     -106.7707619797     0.00013018
    12     -106.7699488738     0.00009818


 CONVERGED STATE    3 ENERGY=     -106.7699488738 IN   11 ITERS

     0     -106.7773353242     0.00010801
     0     -106.7707619797     0.00013018

     1     -106.7773353290     0.00006189
     1     -106.7707619858     0.00006600


 CONVERGED STATE    1 ENERGY=     -106.7773353290 IN   13 ITERS


 CONVERGED STATE    2 ENERGY=     -106.7707619858 IN   13 ITERS

 ALL STATES CONVERGED.

 CI EIGENVECTORS WILL BE LABELED IN GROUP=C2V     
 PRINTING CI COEFFICIENTS LARGER THAN  0.050000

 STATE   1  ENERGY=      -106.7773353290  S=  0.00  SZ=  0.00  SPACE SYM=A1  

            ALPHA              |            BETA               | COEFFICIENT
-------------------------------|-------------------------------|------------
 11100000000000000000000000000 | 11100000000000000000000000000 |   0.9400771
 11100000000000000000000000000 | 11010000000000000000000000000 |   0.1908102
 11010000000000000000000000000 | 11100000000000000000000000000 |   0.1908102
 11100000000000000000000000000 | 11000010000000000000000000000 |  -0.0655306
 11000010000000000000000000000 | 11100000000000000000000000000 |  -0.0655306

 STATE   2  ENERGY=      -106.7707619858  S=  1.00  SZ=  0.00  SPACE SYM=A1  

            ALPHA              |            BETA               | COEFFICIENT
-------------------------------|-------------------------------|------------
 11010000000000000000000000000 | 11100000000000000000000000000 |   0.6561182
 11100000000000000000000000000 | 11010000000000000000000000000 |  -0.6561182
 11000010000000000000000000000 | 11100000000000000000000000000 |  -0.1543591
 11100000000000000000000000000 | 11000010000000000000000000000 |   0.1543591
 11010000000000000000000000000 | 10100000000000000000000000100 |   0.0809140
 10100000000000000000000000100 | 11010000000000000000000000000 |  -0.0809140
 11010000000000000000000000000 | 01100000000000000000000001000 |  -0.0809139
 01100000000000000000000001000 | 11010000000000000000000000000 |   0.0809139
 10010000000000000000000000100 | 11100000000000000000000000000 |   0.0757188
 11100000000000000000000000000 | 10010000000000000000000000100 |  -0.0757188
 01010000000000000000000001000 | 11100000000000000000000000000 |  -0.0757187
 11100000000000000000000000000 | 01010000000000000000000001000 |   0.0757187
 11010000000000000000000000000 | 11000000000000000000000000010 |   0.0660521
 11000000000000000000000000010 | 11010000000000000000000000000 |  -0.0660521
 11010000000000000000000000000 | 11000000000000000000000000001 |   0.0526765
 11000000000000000000000000001 | 11010000000000000000000000000 |  -0.0526765

 STATE   3  ENERGY=      -106.7699488743  S=  0.00  SZ=  0.00  SPACE SYM=A1  

            ALPHA              |            BETA               | COEFFICIENT
-------------------------------|-------------------------------|------------
 11100000000000000000000000000 | 11010000000000000000000000000 |   0.6284716
 11010000000000000000000000000 | 11100000000000000000000000000 |   0.6284716
 11100000000000000000000000000 | 11100000000000000000000000000 |  -0.2969766
 11100000000000000000000000000 | 11000010000000000000000000000 |  -0.1380305
 11000010000000000000000000000 | 11100000000000000000000000000 |  -0.1380305
 10100000000000000000000000100 | 11010000000000000000000000000 |   0.0768273
 11010000000000000000000000000 | 10100000000000000000000000100 |   0.0768273
 01100000000000000000000001000 | 11010000000000000000000000000 |  -0.0768272
 11010000000000000000000000000 | 01100000000000000000000001000 |  -0.0768272
 11100000000000000000000000000 | 10010000000000000000000000100 |   0.0718812
 10010000000000000000000000100 | 11100000000000000000000000000 |   0.0718812
 11100000000000000000000000000 | 01010000000000000000000001000 |  -0.0718811
 01010000000000000000000001000 | 11100000000000000000000000000 |  -0.0718811
 11000000000000000000000000010 | 11010000000000000000000000000 |   0.0627930
 11010000000000000000000000000 | 11000000000000000000000000010 |   0.0627930
 11000000000000000000000000001 | 11010000000000000000000000000 |   0.0500938
 11010000000000000000000000000 | 11000000000000000000000000001 |   0.0500938
 ..... DONE WITH DETERMINANT CI COMPUTATION .....

                         TIMING STATISTICS ON RANK 0:
 CPU        TIME:   STEP =     84.39 ,  TOTAL =       85.2 SECONDS (    1.4 MIN)
 WALL CLOCK TIME:   STEP =     90.20 ,  TOTAL =       90.9 SECONDS (    1.5 MIN)
 CPU UTILIZATION:   STEP =     93.56%,  TOTAL =      93.76%

     ---------------------------
     ONE PARTICLE DENSITY MATRIX
     ---------------------------

 DENSITY MATRIX WILL BE SAVED FOR PROPERTIES OF STATE   1

 CI EIGENSTATE   1 TOTAL ENERGY =     -106.7773353290

          NATURAL ORBITALS IN ATOMIC ORBITAL BASIS
          ----------------------------------------

                      1          2          3          4          5

                    2.0000     2.0000     2.0000     1.9825     1.9825

    1  LI  1  S   0.000001  -1.000092   0.000014   0.000000   0.000000
    2  LI  1  S   0.000013   0.001041   0.000193   0.000000   0.000000
    3  LI  1  S   0.000041   0.001133   0.000231   0.000000   0.000000
    4  LI  1  X   0.000000   0.000000   0.000000   0.000000   0.001259
    5  LI  1  Y   0.000000   0.000000   0.000000  -0.001259   0.000000
    6  LI  1  Z   0.000076   0.001235   0.000500   0.000000   0.000000
    7  LI  1  X   0.000000   0.000000   0.000000   0.000000   0.004944
    8  LI  1  Y   0.000000   0.000000   0.000000  -0.004944   0.000000
    9  LI  1  Z  -0.000117  -0.001028  -0.000737   0.000000   0.000000
   10  LI  1 XX  -0.000059  -0.000022  -0.000396   0.000000   0.000000
   11  LI  1 YY  -0.000059  -0.000022  -0.000396   0.000000   0.000000
   12  LI  1 ZZ   0.000118   0.000045   0.000793   0.000000   0.000000
   13  LI  1 XY   0.000000   0.000000   0.000000   0.000000   0.000000
   14  LI  1 XZ   0.000000   0.000000   0.000000   0.000000  -0.003935
   15  LI  1 YZ   0.000000   0.000000   0.000000   0.003935   0.000000
   16  LI  1  S  -0.000108  -0.001312  -0.000765   0.000000   0.000000
   17  LI  1  X   0.000000   0.000000   0.000000   0.000000   0.003067
   18  LI  1  Y   0.000000   0.000000   0.000000  -0.003067   0.000000
   19  LI  1  Z  -0.000067   0.000111  -0.000513   0.000000   0.000000
   20  LI  1 XX   0.000070   0.000008   0.000491   0.000000   0.000000
   21  LI  1 YY   0.000070   0.000008   0.000491   0.000000   0.000000
   22  LI  1 ZZ  -0.000140  -0.000015  -0.000981   0.000000   0.000000
   23  LI  1 XY   0.000000   0.000000   0.000000   0.000000   0.000000
   24  LI  1 XZ   0.000000   0.000000   0.000000   0.000000   0.006524
   25  LI  1 YZ   0.000000   0.000000   0.000000  -0.006524   0.000000
   26  F   2  S   1.000691   0.000000  -0.006300   0.000000   0.000000
   27  F   2  S   0.000523   0.000000   0.491025   0.000000   0.000000
   28  F   2  S  -0.003412  -0.000003   0.554335   0.000000   0.000000
   29  F   2  X   0.000000   0.000000   0.000000   0.000000   0.628559
   30  F   2  Y   0.000000   0.000000   0.000000  -0.628559   0.000000
   31  F   2  Z  -0.000043   0.000010  -0.000783   0.000000   0.000000
   32  F   2  X   0.000000   0.000000   0.000000   0.000000   0.446562
   33  F   2  Y   0.000000   0.000000   0.000000  -0.446562   0.000000
   34  F   2  Z   0.000035  -0.000043  -0.001853   0.000000   0.000000
   35  F   2 XX   0.000002  -0.000002   0.000009   0.000000   0.000000
   36  F   2 YY   0.000002  -0.000002   0.000009   0.000000   0.000000
   37  F   2 ZZ  -0.000004   0.000003  -0.000018   0.000000   0.000000
   38  F   2 XY   0.000000   0.000000   0.000000   0.000000   0.000000
   39  F   2 XZ   0.000000   0.000000   0.000000   0.000000  -0.000072
   40  F   2 YZ   0.000000   0.000000   0.000000   0.000072   0.000000
   41  F   2  S   0.001154   0.000036   0.056494   0.000000   0.000000
   42  F   2  X   0.000000   0.000000   0.000000   0.000000   0.158562
   43  F   2  Y   0.000000   0.000000   0.000000  -0.158562   0.000000
   44  F   2  Z  -0.000051   0.000115  -0.001335   0.000000   0.000000
   45  F   2 XX  -0.000001   0.000005  -0.000129   0.000000   0.000000
   46  F   2 YY  -0.000001   0.000005  -0.000129   0.000000   0.000000
   47  F   2 ZZ   0.000002  -0.000011   0.000257   0.000000   0.000000
   48  F   2 XY   0.000000   0.000000   0.000000   0.000000   0.000000
   49  F   2 XZ   0.000000   0.000000   0.000000   0.000000  -0.002303
   50  F   2 YZ   0.000000   0.000000   0.000000   0.002303   0.000000

                      6          7          8          9         10

                    1.9618     0.0379     0.0173     0.0173     0.0007

    1  LI  1  S  -0.003577  -0.000537   0.000000   0.000000   0.001518
    2  LI  1  S   0.180843  -0.662724   0.000000   0.000000   0.042293
    3  LI  1  S   0.021176   0.008369   0.000000   0.000000  -0.049923
    4  LI  1  X   0.000000   0.000000  -0.015763   0.000000   0.000000
    5  LI  1  Y   0.000000   0.000000   0.000000  -0.015763   0.000000
    6  LI  1  Z   0.015061  -0.082241   0.000000   0.000000  -0.060994
    7  LI  1  X   0.000000   0.000000  -0.017407   0.000000   0.000000
    8  LI  1  Y   0.000000   0.000000   0.000000  -0.017407   0.000000
    9  LI  1  Z   0.019834   0.002297   0.000000   0.000000   0.088657
   10  LI  1 XX   0.004627   0.012721   0.000000   0.000000   0.041236
   11  LI  1 YY   0.004627   0.012721   0.000000   0.000000   0.041236
   12  LI  1 ZZ  -0.009254  -0.025442   0.000000   0.000000  -0.082473
   13  LI  1 XY   0.000000   0.000000   0.000000   0.000000   0.000000
   14  LI  1 XZ   0.000000   0.000000   0.001499   0.000000   0.000000
   15  LI  1 YZ   0.000000   0.000000   0.000000   0.001499   0.000000
   16  LI  1  S   0.005362  -0.022899   0.000000   0.000000   0.095591
   17  LI  1  X   0.000000   0.000000  -0.008911   0.000000   0.000000
   18  LI  1  Y   0.000000   0.000000   0.000000  -0.008911   0.000000
   19  LI  1  Z  -0.003141  -0.007857   0.000000   0.000000   0.060536
   20  LI  1 XX  -0.008882  -0.005282   0.000000   0.000000  -0.048314
   21  LI  1 YY  -0.008883  -0.005282   0.000000   0.000000  -0.048314
   22  LI  1 ZZ   0.017765   0.010564   0.000000   0.000000   0.096629
   23  LI  1 XY   0.000000   0.000000   0.000000   0.000000   0.000000
   24  LI  1 XZ   0.000000   0.000000  -0.013382   0.000000   0.000000
   25  LI  1 YZ   0.000000   0.000000   0.000000  -0.013382   0.000000
   26  F   2  S  -0.000065  -0.001909   0.000000   0.000000  -0.057335
   27  F   2  S  -0.004238   0.005496   0.000000   0.000000   0.056775
   28  F   2  S  -0.010200   0.039312   0.000000   0.000000   0.905267
   29  F   2  X   0.000000   0.000000   0.210972   0.000000   0.000000
   30  F   2  Y   0.000000   0.000000   0.000000   0.210972   0.000000
   31  F   2  Z  -0.608974  -0.254653   0.000000   0.000000  -0.000504
   32  F   2  X   0.000000   0.000000   0.441727   0.000000   0.000000
   33  F   2  Y   0.000000   0.000000   0.000000   0.441727   0.000000
   34  F   2  Z  -0.430996  -0.368936   0.000000   0.000000   0.013578
   35  F   2 XX  -0.000049  -0.000013   0.000000   0.000000  -0.000018
   36  F   2 YY  -0.000049  -0.000013   0.000000   0.000000  -0.000018
   37  F   2 ZZ   0.000098   0.000026   0.000000   0.000000   0.000036
   38  F   2 XY   0.000000   0.000000   0.000000   0.000000   0.000000
   39  F   2 XZ   0.000000   0.000000  -0.000379   0.000000   0.000000
   40  F   2 YZ   0.000000   0.000000   0.000000  -0.000379   0.000000
   41  F   2  S   0.012234  -0.053850   0.000000   0.000000  -1.464556
   42  F   2  X   0.000000   0.000000  -1.134188   0.000000   0.000000
   43  F   2  Y   0.000000   0.000000   0.000000  -1.134188   0.000000
   44  F   2  Z  -0.164926   0.724440   0.000000   0.000000  -0.024067
   45  F   2 XX  -0.001360  -0.000451   0.000000   0.000000  -0.000083
   46  F   2 YY  -0.001360  -0.000451   0.000000   0.000000  -0.000083
   47  F   2 ZZ   0.002721   0.000903   0.000000   0.000000   0.000166
   48  F   2 XY   0.000000   0.000000   0.000000   0.000000   0.000000
   49  F   2 XZ   0.000000   0.000000   0.001366   0.000000   0.000000
   50  F   2 YZ   0.000000   0.000000   0.000000   0.001366   0.000000

                     11         12         13         14         15

                    0.0001     0.0000     0.0000     0.0000     0.0000

    1  LI  1  S   0.076471   0.000000   0.000000   0.298324   0.000000
    2  LI  1  S  -0.225627   0.000000   0.000000   1.826689   0.000000
    3  LI  1  S  -0.483046   0.000000   0.000000  -2.062790   0.000000
    4  LI  1  X   0.000000  -0.127890   0.000000   0.000000  -0.084230
    5  LI  1  Y   0.000000   0.000000   0.127890   0.000000  -0.002776
    6  LI  1  Z   0.115944   0.000000   0.000000   0.269011   0.000000
    7  LI  1  X   0.000000   0.681607   0.000000   0.000000   0.882506
    8  LI  1  Y   0.000000   0.000000  -0.681607   0.000000   0.029083
    9  LI  1  Z  -0.414603   0.000000   0.000000  -1.081834   0.000000
   10  LI  1 XX  -0.155967   0.000000   0.000000  -0.585486   0.000000
   11  LI  1 YY  -0.155967   0.000000   0.000000  -0.585486   0.000000
   12  LI  1 ZZ   0.311935   0.000000   0.000000   1.170972   0.000000
   13  LI  1 XY   0.000000   0.000000   0.000000   0.000000   0.000000
   14  LI  1 XZ   0.000000  -0.780055   0.000000   0.000000  -0.425443
   15  LI  1 YZ   0.000000   0.000000   0.780055   0.000000  -0.014021
   16  LI  1  S   0.015428   0.000000   0.000000   0.533633   0.000000
   17  LI  1  X   0.000000   0.425705   0.000000   0.000000  -1.100981
   18  LI  1  Y   0.000000   0.000000  -0.425706   0.000000  -0.036283
   19  LI  1  Z   0.110004   0.000000   0.000000   0.394196   0.000000
   20  LI  1 XX   0.205875   0.000000   0.000000   0.761119   0.000000
   21  LI  1 YY   0.205875   0.000000   0.000000   0.761120   0.000000
   22  LI  1 ZZ  -0.411750   0.000000   0.000000  -1.522239   0.000000
   23  LI  1 XY   0.000000   0.000000   0.000000   0.000000   0.000000
   24  LI  1 XZ   0.000000   1.066326   0.000000   0.000000   0.730989
   25  LI  1 YZ   0.000000   0.000000  -1.066326   0.000000   0.024090
   26  F   2  S   0.002631   0.000000   0.000000   0.002023   0.000000
   27  F   2  S   0.000383   0.000000   0.000000  -0.002399   0.000000
   28  F   2  S  -0.038474   0.000000   0.000000  -0.044977   0.000000
   29  F   2  X   0.000000   0.009644   0.000000   0.000000   0.000816
   30  F   2  Y   0.000000   0.000000  -0.009644   0.000000   0.000027
   31  F   2  Z   0.078621   0.000000   0.000000   0.002222   0.000000
   32  F   2  X   0.000000   0.042972   0.000000   0.000000  -0.007386
   33  F   2  Y   0.000000   0.000000  -0.042972   0.000000  -0.000243
   34  F   2  Z   0.286742   0.000000   0.000000   0.036341   0.000000
   35  F   2 XX   0.000174   0.000000   0.000000   0.000196   0.000000
   36  F   2 YY   0.000174   0.000000   0.000000   0.000196   0.000000
   37  F   2 ZZ  -0.000348   0.000000   0.000000  -0.000391   0.000000
   38  F   2 XY   0.000000   0.000000   0.000000   0.000000   0.000000
   39  F   2 XZ   0.000000  -0.000158   0.000000   0.000000  -0.000037
   40  F   2 YZ   0.000000   0.000000   0.000158   0.000000  -0.000001
   41  F   2  S   0.084067   0.000000   0.000000   0.087163   0.000000
   42  F   2  X   0.000000  -0.153519   0.000000   0.000000   0.029196
   43  F   2  Y   0.000000   0.000000   0.153519   0.000000   0.000962
   44  F   2  Z  -0.972307   0.000000   0.000000  -0.194148   0.000000
   45  F   2 XX   0.000090   0.000000   0.000000   0.000829   0.000000
   46  F   2 YY   0.000090   0.000000   0.000000   0.000829   0.000000
   47  F   2 ZZ  -0.000180   0.000000   0.000000  -0.001658   0.000000
   48  F   2 XY   0.000000   0.000000   0.000000   0.000000   0.000000
   49  F   2 XZ   0.000000  -0.000040   0.000000   0.000000  -0.000269
   50  F   2 YZ   0.000000   0.000000   0.000040   0.000000  -0.000009

                     16         17         18         19         20

                    0.0000     0.0000     0.0000     0.0000     0.0000

    1  LI  1  S   0.000000   0.167391   0.000000   0.000000   0.221166
    2  LI  1  S   0.000000   0.632756   0.000000   0.000000   1.293614
    3  LI  1  S   0.000000  -1.536227   0.000000   0.000000  -1.327448
    4  LI  1  X  -0.002776   0.000000   0.002109   2.026860   0.000000
    5  LI  1  Y   0.084230   0.000000   2.026860  -0.002109   0.000000
    6  LI  1  Z   0.000000  -0.298169   0.000000   0.000000   1.806357
    7  LI  1  X   0.029083   0.000000  -0.001939  -1.862937   0.000000
    8  LI  1  Y  -0.882506   0.000000  -1.862937   0.001939   0.000000
    9  LI  1  Z   0.000000   0.146167   0.000000   0.000000  -1.883433
   10  LI  1 XX   0.000000   0.262035   0.000000   0.000000   0.043174
   11  LI  1 YY   0.000000   0.262035   0.000000   0.000000   0.043173
   12  LI  1 ZZ   0.000000  -0.524070   0.000000   0.000000  -0.086347
   13  LI  1 XY   0.000000   0.000000   0.000000   0.000000   0.000000
   14  LI  1 XZ  -0.014021   0.000000   0.000889   0.854705   0.000000
   15  LI  1 YZ   0.425443   0.000000   0.854705  -0.000889   0.000000
   16  LI  1  S   0.000000   1.178533   0.000000   0.000000  -0.071332
   17  LI  1  X  -0.036283   0.000000   0.000321   0.308639   0.000000
   18  LI  1  Y   1.100981   0.000000   0.308639  -0.000321   0.000000
   19  LI  1  Z   0.000000   0.824868   0.000000   0.000000   0.539635
   20  LI  1 XX   0.000000  -0.275654   0.000000   0.000000  -0.238198
   21  LI  1 YY   0.000000  -0.275654   0.000000   0.000000  -0.238200
   22  LI  1 ZZ   0.000000   0.551309   0.000000   0.000000   0.476397
   23  LI  1 XY   0.000000   0.000000   0.000000   0.000000   0.000000
   24  LI  1 XZ   0.024090   0.000000  -0.000597  -0.573567   0.000000
   25  LI  1 YZ  -0.730989   0.000000  -0.573567   0.000597   0.000000
   26  F   2  S   0.000000  -0.013504   0.000000   0.000000   0.001711
   27  F   2  S   0.000000  -0.017453   0.000000   0.000000   0.003058
   28  F   2  S   0.000000   0.137376   0.000000   0.000000  -0.015434
   29  F   2  X   0.000027   0.000000  -0.000001  -0.000814   0.000000
   30  F   2  Y  -0.000816   0.000000  -0.000814   0.000001   0.000000
   31  F   2  Z   0.000000  -0.001500   0.000000   0.000000  -0.001766
   32  F   2  X  -0.000243   0.000000  -0.000002  -0.002115   0.000000
   33  F   2  Y   0.007386   0.000000  -0.002115   0.000002   0.000000
   34  F   2  Z   0.000000  -0.006582   0.000000   0.000000   0.020899
   35  F   2 XX   0.000000   0.000123   0.000000   0.000000   0.000299
   36  F   2 YY   0.000000   0.000123   0.000000   0.000000   0.000299
   37  F   2 ZZ   0.000000  -0.000245   0.000000   0.000000  -0.000598
   38  F   2 XY   0.000000   0.000000   0.000000   0.000000   0.000000
   39  F   2 XZ  -0.000001   0.000000   0.000000   0.000076   0.000000
   40  F   2 YZ   0.000037   0.000000   0.000076   0.000000   0.000000
   41  F   2  S   0.000000  -0.365001   0.000000   0.000000   0.039829
   42  F   2  X   0.000962   0.000000   0.000014   0.013805   0.000000
   43  F   2  Y  -0.029196   0.000000   0.013805  -0.000014   0.000000
   44  F   2  Z   0.000000   0.046137   0.000000   0.000000  -0.119218
   45  F   2 XX   0.000000  -0.000683   0.000000   0.000000  -0.000931
   46  F   2 YY   0.000000  -0.000683   0.000000   0.000000  -0.000931
   47  F   2 ZZ   0.000000   0.001367   0.000000   0.000000   0.001863
   48  F   2 XY   0.000000   0.000000   0.000000   0.000000   0.000000
   49  F   2 XZ  -0.000009   0.000000   0.000000   0.000250   0.000000
   50  F   2 YZ   0.000269   0.000000   0.000250   0.000000   0.000000

                     21         22         23         24         25

                    0.0000     0.0000     0.0000     0.0000     0.0000

    1  LI  1  S  -0.101063   0.000000   0.000000   0.000001   0.000000
    2  LI  1  S  -0.507285   0.000000   0.000000   0.000005   0.000000
    3  LI  1  S   0.643190   0.000000   0.000000  -0.000008  -0.000001
    4  LI  1  X   0.000000   0.004021  -0.490072   0.000000   0.000000
    5  LI  1  Y   0.000000   0.490072   0.004021   0.000000   0.000000
    6  LI  1  Z  -0.045901   0.000000   0.000000   0.000000   0.000000
    7  LI  1  X   0.000000  -0.009023   1.099570   0.000000   0.000000
    8  LI  1  Y   0.000000  -1.099570  -0.009023   0.000000   0.000000
    9  LI  1  Z  -0.658416   0.000000   0.000000   0.000002   0.000000
   10  LI  1 XX   0.895214   0.000000   0.000000  -1.407114   0.000001
   11  LI  1 YY   0.895214   0.000000   0.000000   1.407114  -0.000001
   12  LI  1 ZZ  -1.790428   0.000000   0.000000   0.000000   0.000000
   13  LI  1 XY   0.000000   0.000000   0.000000   0.000001   1.624724
   14  LI  1 XZ   0.000000  -0.014408   1.755867   0.000000   0.000000
   15  LI  1 YZ   0.000000  -1.755866  -0.014408   0.000000   0.000000
   16  LI  1  S  -0.050275   0.000000   0.000000   0.000003   0.000000
   17  LI  1  X   0.000000   0.002291  -0.279159   0.000000   0.000000
   18  LI  1  Y   0.000000   0.279159   0.002291   0.000000   0.000000
   19  LI  1  Z   0.051184   0.000000   0.000000  -0.000002   0.000000
   20  LI  1 XX  -0.887749   0.000000   0.000000   1.952374  -0.000001
   21  LI  1 YY  -0.887751   0.000000   0.000000  -1.952372   0.000001
   22  LI  1 ZZ   1.775501   0.000000   0.000000  -0.000002   0.000000
   23  LI  1 XY   0.000000   0.000000   0.000000  -0.000001  -2.254365
   24  LI  1 XZ   0.000000   0.016651  -2.029243   0.000000   0.000000
   25  LI  1 YZ   0.000000   2.029243   0.016651   0.000000   0.000000
   26  F   2  S   0.004438   0.000000   0.000000   0.000000   0.000000
   27  F   2  S   0.009135   0.000000   0.000000   0.000000   0.000000
   28  F   2  S  -0.024423   0.000000   0.000000   0.000000   0.000000
   29  F   2  X   0.000000   0.000018  -0.002147   0.000000   0.000000
   30  F   2  Y   0.000000   0.002147   0.000018   0.000000   0.000000
   31  F   2  Z  -0.004230   0.000000   0.000000   0.000000   0.000000
   32  F   2  X   0.000000  -0.000013   0.001566   0.000000   0.000000
   33  F   2  Y   0.000000  -0.001566  -0.000013   0.000000   0.000000
   34  F   2  Z   0.005404   0.000000   0.000000   0.000000   0.000000
   35  F   2 XX   0.000317   0.000000   0.000000  -0.000011   0.000000
   36  F   2 YY   0.000317   0.000000   0.000000   0.000011   0.000000
   37  F   2 ZZ  -0.000633   0.000000   0.000000   0.000000   0.000000
   38  F   2 XY   0.000000   0.000000   0.000000   0.000000   0.000013
   39  F   2 XZ   0.000000   0.000002  -0.000294   0.000000   0.000000
   40  F   2 YZ   0.000000   0.000294   0.000002   0.000000   0.000000
   41  F   2  S   0.061340   0.000000   0.000000   0.000000   0.000000
   42  F   2  X   0.000000   0.000002  -0.000197   0.000000   0.000000
   43  F   2  Y   0.000000   0.000197   0.000002   0.000000   0.000000
   44  F   2  Z  -0.022762   0.000000   0.000000   0.000000   0.000000
   45  F   2 XX  -0.002234   0.000000   0.000000   0.000096   0.000000
   46  F   2 YY  -0.002234   0.000000   0.000000  -0.000096   0.000000
   47  F   2 ZZ   0.004469   0.000000   0.000000   0.000000   0.000000
   48  F   2 XY   0.000000   0.000000   0.000000   0.000000  -0.000111
   49  F   2 XZ   0.000000  -0.000013   0.001570   0.000000   0.000000
   50  F   2 YZ   0.000000  -0.001570  -0.000013   0.000000   0.000000

                     26         27         28         29         30

                    0.0000     0.0000     0.0000     0.0000     0.0000

    1  LI  1  S  -0.665100  -0.039504   0.121178   0.000000   0.000000
    2  LI  1  S  -3.604593  -0.112015   0.973736   0.000000   0.000000
    3  LI  1  S   4.574178   0.385995  -0.358554   0.000000   0.000000
    4  LI  1  X   0.000000   0.000000   0.000000   0.760323  -0.018205
    5  LI  1  Y   0.000000   0.000000   0.000000   0.018205   0.760323
    6  LI  1  Z   0.558940  -0.984861  -0.630791   0.000000   0.000000
    7  LI  1  X   0.000000   0.000000   0.000000  -0.426369   0.010209
    8  LI  1  Y   0.000000   0.000000   0.000000  -0.010209  -0.426369
    9  LI  1  Z  -0.860994   0.557805   0.518645   0.000000   0.000000
   10  LI  1 XX  -0.215245  -0.472406   0.354725   0.000000   0.000000
   11  LI  1 YY  -0.215247  -0.472394   0.354701   0.000000   0.000000
   12  LI  1 ZZ   0.430492   0.944800  -0.709426   0.000000   0.000000
   13  LI  1 XY   0.000000   0.000000   0.000000   0.000000   0.000000
   14  LI  1 XZ   0.000000   0.000000   0.000000  -1.316903   0.031532
   15  LI  1 YZ   0.000000   0.000000   0.000000  -0.031532  -1.316903
   16  LI  1  S  -1.122639  -0.336435  -0.903814   0.000000   0.000000
   17  LI  1  X   0.000000   0.000000   0.000000  -0.062629   0.001500
   18  LI  1  Y   0.000000   0.000000   0.000000  -0.001500  -0.062629
   19  LI  1  Z   0.587528   0.144785   0.384998   0.000000   0.000000
   20  LI  1 XX   0.279142   0.076075  -0.180788   0.000000   0.000000
   21  LI  1 YY   0.279139   0.076063  -0.180777   0.000000   0.000000
   22  LI  1 ZZ  -0.558282  -0.152137   0.361565   0.000000   0.000000
   23  LI  1 XY   0.000000   0.000000   0.000000   0.000000   0.000000
   24  LI  1 XZ   0.000000   0.000000   0.000000   0.472202  -0.011306
   25  LI  1 YZ   0.000000   0.000000   0.000000   0.011306   0.472203
   26  F   2  S  -0.000438  -0.000959   0.000260   0.000000   0.000000
   27  F   2  S  -0.001234  -0.002063   0.000946   0.000000   0.000000
   28  F   2  S  -0.000249   0.004330   0.001945   0.000000   0.000000
   29  F   2  X   0.000000   0.000000   0.000000   0.000895  -0.000021
   30  F   2  Y   0.000000   0.000000   0.000000   0.000021   0.000895
   31  F   2  Z  -0.000657   0.000739  -0.000783   0.000000   0.000000
   32  F   2  X   0.000000   0.000000   0.000000  -0.001867   0.000045
   33  F   2  Y   0.000000   0.000000   0.000000  -0.000045  -0.001867
   34  F   2  Z   0.006381  -0.001627   0.003068   0.000000   0.000000
   35  F   2 XX  -0.000031  -0.000103   0.000030   0.000000   0.000000
   36  F   2 YY  -0.000031  -0.000103   0.000030   0.000000   0.000000
   37  F   2 ZZ   0.000063   0.000206  -0.000061   0.000000   0.000000
   38  F   2 XY   0.000000   0.000000   0.000000   0.000000   0.000000
   39  F   2 XZ   0.000000   0.000000   0.000000   0.000083  -0.000002
   40  F   2 YZ   0.000000   0.000000   0.000000   0.000002   0.000083
   41  F   2  S   0.010050  -0.007004  -0.008537   0.000000   0.000000
   42  F   2  X   0.000000   0.000000   0.000000   0.003309  -0.000079
   43  F   2  Y   0.000000   0.000000   0.000000   0.000079   0.003309
   44  F   2  Z  -0.031397   0.001483  -0.007432   0.000000   0.000000
   45  F   2 XX   0.000160   0.000723  -0.000420   0.000000   0.000000
   46  F   2 YY   0.000160   0.000723  -0.000420   0.000000   0.000000
   47  F   2 ZZ  -0.000320  -0.001447   0.000841   0.000000   0.000000
   48  F   2 XY   0.000000   0.000000   0.000000   0.000000   0.000000
   49  F   2 XZ   0.000000   0.000000   0.000000  -0.000607   0.000015
   50  F   2 YZ   0.000000   0.000000   0.000000  -0.000015  -0.000607

                     31         32

                    0.0000     0.0000

    1  LI  1  S   0.000000   0.000000
    2  LI  1  S   0.000000   0.000001
    3  LI  1  S   0.000000   0.000005
    4  LI  1  X   0.000000   0.000000
    5  LI  1  Y   0.000000   0.000000
    6  LI  1  Z   0.000000   0.000000
    7  LI  1  X   0.000000   0.000000
    8  LI  1  Y   0.000000   0.000000
    9  LI  1  Z   0.000000  -0.000001
   10  LI  1 XX  -0.001089  -1.663437
   11  LI  1 YY   0.001089   1.663446
   12  LI  1 ZZ   0.000000  -0.000009
   13  LI  1 XY   1.920837  -0.001257
   14  LI  1 XZ   0.000000   0.000000
   15  LI  1 YZ   0.000000   0.000000
   16  LI  1  S   0.000000  -0.000009
   17  LI  1  X   0.000000   0.000000
   18  LI  1  Y   0.000000   0.000000
   19  LI  1  Z   0.000000   0.000005
   20  LI  1 XX   0.000633   0.967079
   21  LI  1 YY  -0.000633  -0.967084
   22  LI  1 ZZ   0.000000   0.000004
   23  LI  1 XY  -1.116774   0.000731
   24  LI  1 XZ   0.000000   0.000000
   25  LI  1 YZ   0.000000   0.000000
   26  F   2  S   0.000000   0.000000
   27  F   2  S   0.000000   0.000000
   28  F   2  S   0.000000   0.000000
   29  F   2  X   0.000000   0.000000
   30  F   2  Y   0.000000   0.000000
   31  F   2  Z   0.000000   0.000000
   32  F   2  X   0.000000   0.000000
   33  F   2  Y   0.000000   0.000000
   34  F   2  Z   0.000000   0.000000
   35  F   2 XX   0.000000  -0.000010
   36  F   2 YY   0.000000   0.000010
   37  F   2 ZZ   0.000000   0.000000
   38  F   2 XY   0.000011   0.000000
   39  F   2 XZ   0.000000   0.000000
   40  F   2 YZ   0.000000   0.000000
   41  F   2  S   0.000000   0.000000
   42  F   2  X   0.000000   0.000000
   43  F   2  Y   0.000000   0.000000
   44  F   2  Z   0.000000   0.000000
   45  F   2 XX   0.000000   0.000075
   46  F   2 YY   0.000000  -0.000075
   47  F   2 ZZ   0.000000   0.000000
   48  F   2 XY  -0.000086   0.000000
   49  F   2 XZ   0.000000   0.000000
   50  F   2 YZ   0.000000   0.000000

 WARNING! THIS VERSION OF FIREFLY IS PROBABLY OUTDATED!
 PLEASE CHECK FIREFLY HOMEPAGE FOR INFORMATION ON UPDATES!

 ..... DONE WITH ONE PARTICLE DENSITY MATRIX .....

                         TIMING STATISTICS ON RANK 0:
 CPU        TIME:   STEP =      0.16 ,  TOTAL =       85.4 SECONDS (    1.4 MIN)
 WALL CLOCK TIME:   STEP =      0.18 ,  TOTAL =       91.1 SECONDS (    1.5 MIN)
 CPU UTILIZATION:   STEP =     90.00%,  TOTAL =      93.75%


                         -----------------------------
                         properties for the CI density
                         -----------------------------

          -----------------
          ENERGY COMPONENTS
          -----------------

         WAVEFUNCTION NORMALIZATION =       1.0000000000

                ONE ELECTRON ENERGY =    -156.0132883264
                TWO ELECTRON ENERGY =      46.8346446465
           NUCLEAR REPULSION ENERGY =       2.4013083509
                                      ------------------
                       TOTAL ENERGY =    -106.7773353290

 ELECTRON-ELECTRON POTENTIAL ENERGY =      46.8346446465
  NUCLEUS-ELECTRON POTENTIAL ENERGY =    -262.1018031120
   NUCLEUS-NUCLEUS POTENTIAL ENERGY =       2.4013083509
                                      ------------------
             TOTAL POTENTIAL ENERGY =    -212.8658501147
               TOTAL KINETIC ENERGY =     106.0885147857
                 VIRIAL RATIO (V/T) =       2.0064928852

          ---------------------------------------
          MULLIKEN AND LOWDIN POPULATION ANALYSES
          ---------------------------------------

     MULLIKEN ATOMIC POPULATION IN EACH MOLECULAR ORBITAL

                      1          2          3          4          5

                  2.000000   2.000000   2.000000   1.982498   1.982498

    1            -0.000002   2.000000  -0.000213   0.000495   0.000495
    2             2.000002   0.000000   2.000213   1.982003   1.982003

                      6          7          8          9         10

                  1.961779   0.037892   0.017265   0.017265   0.000656

    1             0.094712   0.018642   0.000074   0.000074  -0.000018
    2             1.867067   0.019250   0.017191   0.017191   0.000674

                     11         12         13         14         15

                  0.000137   0.000004   0.000004   0.000001   0.000000

    1             0.000058   0.000004   0.000004   0.000001   0.000000
    2             0.000079   0.000000   0.000000   0.000000   0.000000

                     16         17         18         19         20

                  0.000000   0.000000   0.000000   0.000000   0.000000

    1             0.000000   0.000000   0.000000   0.000000   0.000000
    2             0.000000   0.000000   0.000000   0.000000   0.000000

                     21         22         23         24         25

                  0.000000   0.000000   0.000000   0.000000   0.000000

    1             0.000000   0.000000   0.000000   0.000000   0.000000
    2             0.000000   0.000000   0.000000   0.000000   0.000000

                     26         27         28         29         30

                  0.000000   0.000000   0.000000   0.000000   0.000000

    1             0.000000   0.000000   0.000000   0.000000   0.000000
    2             0.000000   0.000000   0.000000   0.000000   0.000000

                     31         32

                  0.000000   0.000000

    1             0.000000   0.000000
    2             0.000000   0.000000

 WARNING! CI POPULATIONS SHOWN ABOVE ARE FOR THE NATURAL ORBITALS.
 IGNORE THE ABOVE DATA FOR CI FUNCTIONS WHICH ARE NOT OF -FORS- TYPE.
 THE FOLLOWING POPULATIONS ARE CORRECT FOR ANY CI WAVEFUNCTION.

               ----- POPULATIONS IN EACH AO -----
                             MULLIKEN      LOWDIN
              1  LI  1  S     2.00018     1.96927
              2  LI  1  S     0.09537     0.03570
              3  LI  1  S     0.00857     0.04522
              4  LI  1  X     0.00006     0.00009
              5  LI  1  Y     0.00006     0.00009
              6  LI  1  Z     0.00262     0.00254
              7  LI  1  X     0.00025     0.00024
              8  LI  1  Y     0.00025     0.00024
              9  LI  1  Z     0.00353     0.00483
             10  LI  1 XX    -0.00004     0.00933
             11  LI  1 YY    -0.00004     0.00933
             12  LI  1 ZZ    -0.00014     0.01058
             13  LI  1 XY     0.00000     0.00000
             14  LI  1 XZ    -0.00003     0.00000
             15  LI  1 YZ    -0.00003     0.00000
             16  LI  1  S     0.00232     0.01008
             17  LI  1  X     0.00019     0.00034
             18  LI  1  Y     0.00019     0.00034
             19  LI  1  Z    -0.00023     0.00098
             20  LI  1 XX     0.00017     0.00477
             21  LI  1 YY     0.00017     0.00477
             22  LI  1 ZZ     0.00069     0.00980
             23  LI  1 XY     0.00000     0.00000
             24  LI  1 XZ     0.00010     0.00006
             25  LI  1 YZ     0.00010     0.00006
             26  F   2  S     2.00135     1.88070
             27  F   2  S     0.88694     0.67795
             28  F   2  S     1.04114     0.48106
             29  F   2  X     1.08179     1.04558
             30  F   2  Y     1.08179     1.04558
             31  F   2  Z     1.00842     0.97360
             32  F   2  X     0.74671     0.75941
             33  F   2  Y     0.74671     0.75941
             34  F   2  Z     0.69933     0.71162
             35  F   2 XX     0.00000     0.20170
             36  F   2 YY     0.00000     0.20170
             37  F   2 ZZ     0.00000     0.20177
             38  F   2 XY     0.00000     0.00000
             39  F   2 XZ     0.00000     0.00000
             40  F   2 YZ     0.00000     0.00000
             41  F   2  S     0.07198     0.11547
             42  F   2  X     0.17068     0.19404
             43  F   2  Y     0.17068     0.19404
             44  F   2  Z     0.17811     0.19857
             45  F   2 XX     0.00000     0.07963
             46  F   2 YY     0.00000     0.07963
             47  F   2 ZZ     0.00001     0.07987
             48  F   2 XY     0.00000     0.00000
             49  F   2 XZ     0.00001     0.00001
             50  F   2 YZ     0.00001     0.00001

          ----- MULLIKEN ATOMIC OVERLAP POPULATIONS -----
          (OFF-DIAGONAL ELEMENTS NEED TO BE MULTIPLIED BY 2)

             1           2

    1    2.1021894
    2    0.0121374   9.8735359

          TOTAL MULLIKEN AND LOWDIN ATOMIC POPULATIONS
       ATOM         MULL.POP.    CHARGE          LOW.POP.     CHARGE
    1 LI            2.114327    0.885673         2.118661    0.881339
    2 F             9.885673   -0.885673         9.881339   -0.881339

          -------------------------------
          BOND ORDER AND VALENCE ANALYSIS     BOND ORDER THRESHOLD=0.050
          -------------------------------

                   BOND                       BOND                       BOND
  ATOM PAIR DIST  ORDER      ATOM PAIR DIST  ORDER      ATOM PAIR DIST  ORDER
    1   2  5.950  0.175

                       TOTAL       BONDED        FREE
      ATOM            VALENCE     VALENCE     VALENCE
    1 LI                0.216       0.175       0.041
    2 F                 0.423       0.175       0.248

          ---------------------
          ELECTROSTATIC MOMENTS
          ---------------------

 POINT   1           X           Y           Z (BOHR)    CHARGE
                 0.000000    0.000000    8.211435        0.00 (A.U.)
         DX          DY          DZ         /D/  (DEBYE)
     0.000000    0.000000  -25.531930   25.531930
 ...... END OF PROPERTY EVALUATION ......

                         TIMING STATISTICS ON RANK 0:
 CPU        TIME:   STEP =      0.17 ,  TOTAL =       85.6 SECONDS (    1.4 MIN)
 WALL CLOCK TIME:   STEP =      0.19 ,  TOTAL =       91.3 SECONDS (    1.5 MIN)
 CPU UTILIZATION:   STEP =     91.88%,  TOTAL =      93.75%
 ......END OF NBO ANALYSIS......

                         TIMING STATISTICS ON RANK 0:
 CPU        TIME:   STEP =      0.00 ,  TOTAL =       85.6 SECONDS (    1.4 MIN)
 WALL CLOCK TIME:   STEP =      0.00 ,  TOTAL =       91.3 SECONDS (    1.5 MIN)
 CPU UTILIZATION:   STEP =      0.00%,  TOTAL =      93.75%

                         OVERALL  TIMING  STATISTICS:
 GLOBAL CPU TIME ELAPSED      =       651.3 SECONDS (    10.9 MIN)
 RANK 0 WALL CLOCK TIME       =        91.3 SECONDS (     1.5 MIN)
 JOB CPU UTILIZATION:   TOTAL =    713.65%, PER RANK AVERAGE =     89.21%

    24300418 WORDS OF    DYNAMIC MEMORY USED
     5602051 BYTES OF    HEAP MEMORY    USED,      121911 BYTES REMAIN IN USE

 WARNING! THIS VERSION OF FIREFLY IS PROBABLY OUTDATED!
 PLEASE CHECK FIREFLY HOMEPAGE FOR INFORMATION ON UPDATES!

 EXECUTION OF FIREFLY TERMINATED NORMALLY  9:49:31  7-MAY-2026    
