11
scan_08; coordinates in Angstrom
C  -0.0665254467 -0.1301194516  1.3488252030
C   0.3474398804  0.4011645233 -0.0146653758
C  -0.3990644382 -0.1562406531 -1.1724570046
H   0.3473547293  0.4578207160  2.1790517792
H   0.2665078731 -1.1688549583  1.4912242602
H  -1.1587959815 -0.1123841107  1.4777817998
H   0.3611911937  1.4993439790 -0.0414579781
H  -0.5875222191 -1.2373040344 -1.1251561368
H  -1.3143221955  0.4015017127 -1.4075867271
H   1.4311506638  0.0781323538 -0.4837240787
F   0.7725859407 -0.0330600768 -2.2518357410
