11
scan_03; coordinates in Angstrom
C   0.0091398065 -0.1874297193  1.3690060132
C   0.0492347462  0.5092889935  0.0347764644
C  -0.6699201822  0.0800071173 -1.0820280151
H  -0.1494218548  0.4962955695  2.2156436150
H   0.9578902669 -0.7088636562  1.5669479267
H  -0.8007026293 -0.9280562980  1.4228652612
H   0.3115140856  1.5725726599  0.0775729533
H  -1.2347044295 -0.8556812836 -1.0282470077
H  -1.1015409475  0.8494728620 -1.7276355969
H   1.2531400704 -0.0901642987 -0.9568299812
F   1.3753710677 -0.7374419465 -1.8920716328
