              Grand Master is running on host yaroslavhonor
              rank #     1 is running on host yaroslavhonor
              rank #     2 is running on host yaroslavhonor
              rank #     3 is running on host yaroslavhonor
              rank #     4 is running on host yaroslavhonor
              rank #     5 is running on host yaroslavhonor

          ******************************************************
          *      Firefly version 8.2.0, build number 10203     *
          *   Compiled on    Monday,    19-09-2016, 15:30:23   *
          *Code development and Intel/AMD specific optimization*
          *  Copyright (c) 1994, 2016 by  Alex A. Granovsky,   *
          *          Firefly Project, Moscow, Russia.          *
          *   Some parts of this program include code due to   *
          * work of Jim Kress, Peter Burger, and Robert Ponec. *
          ******************************************************
          *             Firefly Project homepage:              *
          * http://classic.chem.msu.su/gran/firefly/index.html *
          *                      e-mail:                       *
          *               gran@classic.chem.msu.su             *
          *This program is not a free software and is provided *
          *exclusively to its registered users under the terms *
          *       of Firefly package license agreement         *
          * Unauthorized use of Firefly is strongly prohibited *
          *   This program may not be redistributed without    *
          * the specific, written permission of its developers.*
          ******************************************************

          ******************************************************
          *  PARTIALLY BASED ON  US GAMESS VERSION 6 JUN 1999, *
          *   US GAMESS VERSIONS  6 SEP 2001 AND 12 DEC 2003   *
          *             FROM IOWA STATE UNIVERSITY             *
          * M.W.SCHMIDT, K.K.BALDRIDGE, J.A.BOATZ, S.T.ELBERT, *
          *   M.S.GORDON, J.H.JENSEN, S.KOSEKI, N.MATSUNAGA,   *
          *          K.A.NGUYEN, S.J.SU, T.L.WINDUS,           *
          *       TOGETHER WITH M.DUPUIS, J.A.MONTGOMERY       *
          *         J.COMPUT.CHEM.  14, 1347-1363(1993)        *
          ******************************************************


 Core i7    / Linux  Firefly version running under Linux.
 Running on Intel CPU:  Brand ID  0, Family  6, Model 170, Stepping  4
 CPU Brand String    :  Intel(R) Core(TM) Ultra 5 125H                  
 CPU Features        :  x87 FPU, CMOV, MMX, SSE, SSE2, SSE3, SSSE3, SSE4.1, SSE4.2, AVX, AVX2, FMA3, HTT, MWAIT, EM64T
 Data cache size     :  L1 48 KB, L2 2048 KB, L3 18432 KB
 max    # of   cores/package :  64
 max    # of threads/package : 128
 max     cache sharing level :  64
 actual # of   cores/package :   9
 actual # of threads/package :  18
 actual # of threads/core    :   2
 Operating System successfully passed SSE support test.
 Operating System supports AVX/FMA.


 PARALLEL VERSION (MPICH) RUNNING USING    6 PROCESSES (RANKS)


 WARNING! THIS VERSION OF FIREFLY IS PROBABLY OUTDATED!
 PLEASE CHECK FIREFLY HOMEPAGE FOR INFORMATION ON UPDATES!

 EXECUTION OF FIREFLY BEGUN  2:25:07 18-MAY-2026    

            ECHO OF THE FIRST FEW INPUT CARDS -
 INPUT CARD> $CONTRL SCFTYP=RHF RUNTYP=ENERGY ICHARG=0 MULT=1 CITYP=CIS EXETYP=RUN          
 INPUT CARD>      INTTYP=HONDO ICUT=13 ITOL=30 D5=.T. MAXIT=100 GENCON=.F. WIDE=1 FSTINT=.T.
 INPUT CARD> $END                                                                           
 INPUT CARD> $SYSTEM TIMLIM=60000 MWORDS=200 MASMEM=200000000 MXBCST=-1 KDIAG=0 NOJAC=1 $END
 INPUT CARD> $MOORTH NOSTF=.T. NOZERO=.T. SYMS=.T. SYMDEN=.T. SYMVEC=.T. SYMVX=.T.          
 INPUT CARD>      TOLE=0.0D0 TOLZ=0.0D0 $END                                                
 INPUT CARD> $GUESS GUESS=HUCKEL $END                                                       
 INPUT CARD> $SCF DIRSCF=.T. FDIFF=.F. DIIS=.T. DAMP=.T. SHIFT=.T. SOSCF=.F. $END           
 INPUT CARD> $CIS ISTATE=1 MULT=1 NSTATE=4 $END                                             
 INPUT CARD> $DATA                                                                          
 INPUT CARD>                                                                                
 INPUT CARD> C1                                                                             
 INPUT CARD>C     6.0     1.9243999720     1.5385999680    -1.5757000446                    
 INPUT CARD>S   8                                                                           
 INPUT CARD>  1    6665.0000000       0.0006920                                             
 INPUT CARD>  2    1000.0000000       0.0053290                                             
 INPUT CARD>  3     228.0000000       0.0270770                                             
 INPUT CARD>  4      64.7100000       0.1017180                                             
 INPUT CARD>  5      21.0600000       0.2747400                                             
 INPUT CARD>  6       7.4950000       0.4485640                                             
 INPUT CARD>  7       2.7970000       0.2850740                                             
 INPUT CARD>  8       0.5215000       0.0152040                                             
 INPUT CARD>S   8                                                                           
 INPUT CARD>  1    6665.0000000      -0.0001460                                             
 INPUT CARD>  2    1000.0000000      -0.0011540                                             
 INPUT CARD>  3     228.0000000      -0.0057250                                             
 INPUT CARD>  4      64.7100000      -0.0233120                                             
 INPUT CARD>  5      21.0600000      -0.0639550                                             
 INPUT CARD>  6       7.4950000      -0.1499810                                             
 INPUT CARD>  7       2.7970000      -0.1272620                                             
 INPUT CARD>  8       0.5215000       0.5445290                                             
 INPUT CARD>S   1                                                                           
 INPUT CARD>  1       0.1596000       1.0000000                                             
 INPUT CARD>P   3                                                                           
 INPUT CARD>  1       9.4390000       0.0381090                                             
 INPUT CARD>  2       2.0020000       0.2094800                                             
 INPUT CARD>  3       0.5456000       0.5085570                                             
 INPUT CARD>P   1                                                                           
 INPUT CARD>  1       0.1517000       1.0000000                                             
 INPUT CARD>D   1                                                                           
 INPUT CARD>  1       0.5500000       1.0000000                                             
 INPUT CARD>                                                                                
 INPUT CARD>C     6.0     1.9453999996     0.2047999948    -1.4270000458                    
 INPUT CARD>S   8                                                                           
 INPUT CARD>  1    6665.0000000       0.0006920                                             
 INPUT CARD>  2    1000.0000000       0.0053290                                             
 INPUT CARD>  3     228.0000000       0.0270770                                             
 INPUT CARD>  4      64.7100000       0.1017180                                             
 INPUT CARD>  5      21.0600000       0.2747400                                             
 INPUT CARD>  6       7.4950000       0.4485640                                             
  200000000 WORDS OF MEMORY AVAILABLE

 This job is executing on     1 unique host(s)
 Minimum number of processes per host is:    6
 Maximum number of processes per host is:    6

 On master's host, detected   18 CPU core(s) in aggregate

 Using processor-specific dynamic link DGEMM library code.


 Warning: HTT is enabled, bitmask of physically unique cores is 0x000000B4

 SMT aware parts of program will use              2 threads.

 Creating thread pool to serve up to            128 threads.


 Loading P2P interface library... loaded successfully (version 2.4).
 Initializing global P2P interface... topology done.



     RUN TITLE
     ---------
                                                                                 

 THE POINT GROUP OF THE MOLECULE IS C1      
 THE ORDER OF THE PRINCIPAL AXIS IS     0
 *** WARNING! ATOM   1 SHELL    1 TYPE S HAS NORMALIZATION   0.99939879
 *** WARNING! ATOM   1 SHELL    2 TYPE S HAS NORMALIZATION   2.00869625
 *** WARNING! ATOM   1 SHELL    4 TYPE P HAS NORMALIZATION   1.49516523
 *** WARNING! ATOM   2 SHELL    7 TYPE S HAS NORMALIZATION   0.99939879
 *** WARNING! ATOM   2 SHELL    8 TYPE S HAS NORMALIZATION   2.00869625
 *** WARNING! ATOM   2 SHELL   10 TYPE P HAS NORMALIZATION   1.49516523
 *** WARNING! ATOM   3 SHELL   13 TYPE S HAS NORMALIZATION   0.99939879
 *** WARNING! ATOM   3 SHELL   14 TYPE S HAS NORMALIZATION   2.00869625
 *** WARNING! ATOM   3 SHELL   16 TYPE P HAS NORMALIZATION   1.49516523
 *** WARNING! ATOM   4 SHELL   19 TYPE S HAS NORMALIZATION   0.99939879
 *** WARNING! ATOM   4 SHELL   20 TYPE S HAS NORMALIZATION   2.00869625
 *** WARNING! ATOM   4 SHELL   22 TYPE P HAS NORMALIZATION   1.49516523
 *** WARNING! ATOM   5 SHELL   25 TYPE S HAS NORMALIZATION   0.99939879
 *** WARNING! ATOM   5 SHELL   26 TYPE S HAS NORMALIZATION   2.00869625
 *** WARNING! ATOM   5 SHELL   28 TYPE P HAS NORMALIZATION   1.49516523
 *** WARNING! ATOM   6 SHELL   31 TYPE S HAS NORMALIZATION   0.99939879
 *** WARNING! ATOM   6 SHELL   32 TYPE S HAS NORMALIZATION   2.00869625
 *** WARNING! ATOM   6 SHELL   34 TYPE P HAS NORMALIZATION   1.49516523
 *** WARNING! ATOM   7 SHELL   37 TYPE S HAS NORMALIZATION   0.99950133
 *** WARNING! ATOM   7 SHELL   38 TYPE S HAS NORMALIZATION   1.96527132
 *** WARNING! ATOM   7 SHELL   41 TYPE P HAS NORMALIZATION   1.45704510
 *** WARNING! ATOM   8 SHELL   46 TYPE S HAS NORMALIZATION   0.99950133
 *** WARNING! ATOM   8 SHELL   47 TYPE S HAS NORMALIZATION   1.96527132
 *** WARNING! ATOM   8 SHELL   50 TYPE P HAS NORMALIZATION   1.45704510
 *** WARNING! ATOM   9 SHELL   55 TYPE S HAS NORMALIZATION   1.70173870
 *** WARNING! ATOM  10 SHELL   58 TYPE S HAS NORMALIZATION   1.70173870
 *** WARNING! ATOM  11 SHELL   61 TYPE S HAS NORMALIZATION   1.70173870
 *** WARNING! ATOM  12 SHELL   64 TYPE S HAS NORMALIZATION   1.70173870

 ATOM      ATOMIC                      COORDINATES (BOHR)
           CHARGE         X                   Y                   Z
 C           6.0     3.6365889029        2.9075325562       -2.9776415402
 C           6.0     3.6762732037        0.3870159007       -2.6966392676
 C           6.0    -1.1971414627        2.8608564599       -2.7119458859
 C           6.0    -1.1574572743        0.3405286395       -2.4309436131
 C           6.0     1.1977084746        4.2819302323       -3.0025857842
 C           6.0     1.2810453713       -1.0346250807       -2.4097787728
 O           8.0     1.3171391599       -3.3266739786       -2.1578781557
 O           8.0     1.1614256820        6.5734121184       -3.2614784220
 H           1.0    -2.9903025535        3.8590096314       -2.7263079349
 H           1.0    -2.9186819881       -0.6912618040       -2.2189165261
 H           1.0     5.3978137293        3.9395122571       -3.1872120263
 H           1.0     5.4694342947       -0.6105705123       -2.6801986253

          INTERNUCLEAR DISTANCES (ANGS.)
          ------------------------------

                    C              C              C              C         

  1  C               0.0000000      1.3422276 *    2.5618803 *    2.8921975 *  
  2  C               1.3422276 *    0.0000000      2.8921503 *    2.5618794 *  
  3  C               2.5618803 *    2.8921503 *    0.0000000      1.3421283 *  
  4  C               2.8921975 *    2.5618794 *    1.3421283 *    0.0000000    
  5  C               1.4814816 *    2.4483952 *    1.4816233 *    2.4484514 *  
  6  C               2.4486477 *    1.4817405 *    2.4484093 *    1.4814874 *  
  7  O               3.5465609      2.3455907 *    3.5464401      2.3455488 *  
  8  O               2.3454952 *    3.5464744      2.3456280 *    3.5465077    
  9  H               3.5452570      3.9775985      1.0860313 *    2.1051858 *  
 10  H               3.9775883      3.5452636      2.1050563 *    1.0859690 *  
 11  H               1.0858859 *    2.1050742 *    3.5452034      3.9775053    
 12  H               2.1050909 *    1.0858938 *    3.9774645      3.5451875    

                    C              C              O              O         

  1  C               1.4814816 *    2.4486477 *    3.5465609      2.3454952 *  
  2  C               2.4483952 *    1.4817405 *    2.3455907 *    3.5464744    
  3  C               1.4816233 *    2.4484093 *    3.5464401      2.3456280 *  
  4  C               2.4484514 *    1.4814874 *    2.3455488 *    3.5465077    
  5  C               0.0000000      2.8311785 *    4.0515299      1.2204657 *  
  6  C               2.8311785 *    0.0000000      1.2203525 *    4.0516432    
  7  O               4.0515299      1.2203525 *    0.0000000      5.2719938    
  8  O               1.2204657 *    4.0516432      5.2719938      0.0000000    
  9  H               2.2322642 *    3.4413719      4.4435517      2.6401242 *  
 10  H               3.4413386      2.2321016 *    2.6401278 *    4.4435039    
 11  H               2.2321132 *    3.4414517      4.4434786      2.6400549 *  
 12  H               3.4412040      2.2323221 *    2.6401431 *    4.4434009    

                    H              H              H              H         

  1  C               3.5452570      3.9775883      1.0858859 *    2.1050909 *  
  2  C               3.9775985      3.5452636      2.1050742 *    1.0858938 *  
  3  C               1.0860313 *    2.1050563 *    3.5452034      3.9774645    
  4  C               2.1051858 *    1.0859690 *    3.9775053      3.5451875    
  5  C               2.2322642 *    3.4413386      2.2321132 *    3.4412040    
  6  C               3.4413719      2.2321016 *    3.4414517      2.2323221 *  
  7  O               4.4435517      2.6401278 *    4.4434786      2.6401431 *  
  8  O               2.6401242 *    4.4435039      2.6400549 *    4.4434009    
  9  H               0.0000000      2.4231201 *    4.4456999      5.0631619    
 10  H               2.4231201 *    0.0000000      5.0631438      4.4457118    
 11  H               4.4456999      5.0631438      0.0000000      2.4229987 *  
 12  H               5.0631619      4.4457118      2.4229987 *    0.0000000    

  * ... LESS THAN  3.000


     ATOMIC BASIS SET
     ----------------
 THE CONTRACTED PRIMITIVE FUNCTIONS HAVE BEEN UNNORMALIZED
 THE CONTRACTED BASIS FUNCTIONS ARE NOW NORMALIZED TO UNITY

 SHELL TYPE PRIM    EXPONENT          CONTRACTION COEFFICIENTS

 C         

   1   S    1    6665.000000    0.363584 (  0.000692) 
   1   S    2    1000.000000    0.674986 (  0.005329) 
   1   S    3     228.000000    1.131620 (  0.027077) 
   1   S    4      64.710000    1.653009 (  0.101718) 
   1   S    5      21.060000    1.923821 (  0.274740) 
   1   S    6       7.495000    1.447278 (  0.448564) 
   1   S    7       2.797000    0.439163 (  0.285074) 
   1   S    8       0.521500    0.006646 (  0.015204) 

   2   S    9    6665.000000   -0.154180 ( -0.000146) 
   2   S   10    1000.000000   -0.293785 ( -0.001154) 
   2   S   11     228.000000   -0.480896 ( -0.005725) 
   2   S   12      64.710000   -0.761434 ( -0.023312) 
   2   S   13      21.060000   -0.900104 ( -0.063955) 
   2   S   14       7.495000   -0.972611 ( -0.149981) 
   2   S   15       2.797000   -0.394042 ( -0.127262) 
   2   S   16       0.521500    0.478394 (  0.544529) 

   3   S   17       0.159600    0.179964 (  1.000000) 

   4   P   18       9.439000    1.343737 (  0.038109) 
   4   P   19       2.002000    1.063168 (  0.209480) 
   4   P   20       0.545600    0.508232 (  0.508557) 

   5   P   21       0.151700    0.134950 (  1.000000) 

   6   D   22       0.550000    0.578155 (  1.000000) 

 C         

   7   S   23    6665.000000    0.363584 (  0.000692) 
   7   S   24    1000.000000    0.674986 (  0.005329) 
   7   S   25     228.000000    1.131620 (  0.027077) 
   7   S   26      64.710000    1.653009 (  0.101718) 
   7   S   27      21.060000    1.923821 (  0.274740) 
   7   S   28       7.495000    1.447278 (  0.448564) 
   7   S   29       2.797000    0.439163 (  0.285074) 
   7   S   30       0.521500    0.006646 (  0.015204) 

   8   S   31    6665.000000   -0.154180 ( -0.000146) 
   8   S   32    1000.000000   -0.293785 ( -0.001154) 
   8   S   33     228.000000   -0.480896 ( -0.005725) 
   8   S   34      64.710000   -0.761434 ( -0.023312) 
   8   S   35      21.060000   -0.900104 ( -0.063955) 
   8   S   36       7.495000   -0.972611 ( -0.149981) 
   8   S   37       2.797000   -0.394042 ( -0.127262) 
   8   S   38       0.521500    0.478394 (  0.544529) 

   9   S   39       0.159600    0.179964 (  1.000000) 

  10   P   40       9.439000    1.343737 (  0.038109) 
  10   P   41       2.002000    1.063168 (  0.209480) 
  10   P   42       0.545600    0.508232 (  0.508557) 

  11   P   43       0.151700    0.134950 (  1.000000) 

  12   D   44       0.550000    0.578155 (  1.000000) 

 C         

  13   S   45    6665.000000    0.363584 (  0.000692) 
  13   S   46    1000.000000    0.674986 (  0.005329) 
  13   S   47     228.000000    1.131620 (  0.027077) 
  13   S   48      64.710000    1.653009 (  0.101718) 
  13   S   49      21.060000    1.923821 (  0.274740) 
  13   S   50       7.495000    1.447278 (  0.448564) 
  13   S   51       2.797000    0.439163 (  0.285074) 
  13   S   52       0.521500    0.006646 (  0.015204) 

  14   S   53    6665.000000   -0.154180 ( -0.000146) 
  14   S   54    1000.000000   -0.293785 ( -0.001154) 
  14   S   55     228.000000   -0.480896 ( -0.005725) 
  14   S   56      64.710000   -0.761434 ( -0.023312) 
  14   S   57      21.060000   -0.900104 ( -0.063955) 
  14   S   58       7.495000   -0.972611 ( -0.149981) 
  14   S   59       2.797000   -0.394042 ( -0.127262) 
  14   S   60       0.521500    0.478394 (  0.544529) 

  15   S   61       0.159600    0.179964 (  1.000000) 

  16   P   62       9.439000    1.343737 (  0.038109) 
  16   P   63       2.002000    1.063168 (  0.209480) 
  16   P   64       0.545600    0.508232 (  0.508557) 

  17   P   65       0.151700    0.134950 (  1.000000) 

  18   D   66       0.550000    0.578155 (  1.000000) 

 C         

  19   S   67    6665.000000    0.363584 (  0.000692) 
  19   S   68    1000.000000    0.674986 (  0.005329) 
  19   S   69     228.000000    1.131620 (  0.027077) 
  19   S   70      64.710000    1.653009 (  0.101718) 
  19   S   71      21.060000    1.923821 (  0.274740) 
  19   S   72       7.495000    1.447278 (  0.448564) 
  19   S   73       2.797000    0.439163 (  0.285074) 
  19   S   74       0.521500    0.006646 (  0.015204) 

  20   S   75    6665.000000   -0.154180 ( -0.000146) 
  20   S   76    1000.000000   -0.293785 ( -0.001154) 
  20   S   77     228.000000   -0.480896 ( -0.005725) 
  20   S   78      64.710000   -0.761434 ( -0.023312) 
  20   S   79      21.060000   -0.900104 ( -0.063955) 
  20   S   80       7.495000   -0.972611 ( -0.149981) 
  20   S   81       2.797000   -0.394042 ( -0.127262) 
  20   S   82       0.521500    0.478394 (  0.544529) 

  21   S   83       0.159600    0.179964 (  1.000000) 

  22   P   84       9.439000    1.343737 (  0.038109) 
  22   P   85       2.002000    1.063168 (  0.209480) 
  22   P   86       0.545600    0.508232 (  0.508557) 

  23   P   87       0.151700    0.134950 (  1.000000) 

  24   D   88       0.550000    0.578155 (  1.000000) 

 C         

  25   S   89    6665.000000    0.363584 (  0.000692) 
  25   S   90    1000.000000    0.674986 (  0.005329) 
  25   S   91     228.000000    1.131620 (  0.027077) 
  25   S   92      64.710000    1.653009 (  0.101718) 
  25   S   93      21.060000    1.923821 (  0.274740) 
  25   S   94       7.495000    1.447278 (  0.448564) 
  25   S   95       2.797000    0.439163 (  0.285074) 
  25   S   96       0.521500    0.006646 (  0.015204) 

  26   S   97    6665.000000   -0.154180 ( -0.000146) 
  26   S   98    1000.000000   -0.293785 ( -0.001154) 
  26   S   99     228.000000   -0.480896 ( -0.005725) 
  26   S  100      64.710000   -0.761434 ( -0.023312) 
  26   S  101      21.060000   -0.900104 ( -0.063955) 
  26   S  102       7.495000   -0.972611 ( -0.149981) 
  26   S  103       2.797000   -0.394042 ( -0.127262) 
  26   S  104       0.521500    0.478394 (  0.544529) 

  27   S  105       0.159600    0.179964 (  1.000000) 

  28   P  106       9.439000    1.343737 (  0.038109) 
  28   P  107       2.002000    1.063168 (  0.209480) 
  28   P  108       0.545600    0.508232 (  0.508557) 

  29   P  109       0.151700    0.134950 (  1.000000) 

  30   D  110       0.550000    0.578155 (  1.000000) 

 C         

  31   S  111    6665.000000    0.363584 (  0.000692) 
  31   S  112    1000.000000    0.674986 (  0.005329) 
  31   S  113     228.000000    1.131620 (  0.027077) 
  31   S  114      64.710000    1.653009 (  0.101718) 
  31   S  115      21.060000    1.923821 (  0.274740) 
  31   S  116       7.495000    1.447278 (  0.448564) 
  31   S  117       2.797000    0.439163 (  0.285074) 
  31   S  118       0.521500    0.006646 (  0.015204) 

  32   S  119    6665.000000   -0.154180 ( -0.000146) 
  32   S  120    1000.000000   -0.293785 ( -0.001154) 
  32   S  121     228.000000   -0.480896 ( -0.005725) 
  32   S  122      64.710000   -0.761434 ( -0.023312) 
  32   S  123      21.060000   -0.900104 ( -0.063955) 
  32   S  124       7.495000   -0.972611 ( -0.149981) 
  32   S  125       2.797000   -0.394042 ( -0.127262) 
  32   S  126       0.521500    0.478394 (  0.544529) 

  33   S  127       0.159600    0.179964 (  1.000000) 

  34   P  128       9.439000    1.343737 (  0.038109) 
  34   P  129       2.002000    1.063168 (  0.209480) 
  34   P  130       0.545600    0.508232 (  0.508557) 

  35   P  131       0.151700    0.134950 (  1.000000) 

  36   D  132       0.550000    0.578155 (  1.000000) 

 O         

  37   S  133   11720.000000    0.569702 (  0.000710) 
  37   S  134    1759.000000    1.058352 (  0.005470) 
  37   S  135     400.800000    1.776281 (  0.027837) 
  37   S  136     113.700000    2.599412 (  0.104800) 
  37   S  137      37.030000    3.026846 (  0.283062) 
  37   S  138      13.270000    2.222394 (  0.448719) 
  37   S  139       5.025000    0.647795 (  0.270952) 
  37   S  140       1.013000    0.011119 (  0.015458) 

  38   S  141   11720.000000   -0.252434 ( -0.000160) 
  38   S  142    1759.000000   -0.480491 ( -0.001263) 
  38   S  143     400.800000   -0.786300 ( -0.006267) 
  38   S  144     113.700000   -1.254170 ( -0.025716) 
  38   S  145      37.030000   -1.491218 ( -0.070924) 
  38   S  146      13.270000   -1.610832 ( -0.165411) 
  38   S  147       5.025000   -0.549798 ( -0.116955) 
  38   S  148       1.013000    0.788282 (  0.557368) 

  39   S  149       0.302300    0.290562 (  1.000000) 

  40   S  150       0.078960    0.106161 (  1.000000) 

  41   P  151      17.700000    3.243619 (  0.043018) 
  41   P  152       3.854000    2.567280 (  0.228913) 
  41   P  153       1.046000    1.117669 (  0.508728) 

  42   P  154       0.275300    0.284248 (  1.000000) 

  43   P  155       0.068560    0.050007 (  1.000000) 

  44   D  156       1.185000    2.215218 (  1.000000) 

  45   D  157       0.332000    0.239002 (  1.000000) 

 O         

  46   S  158   11720.000000    0.569702 (  0.000710) 
  46   S  159    1759.000000    1.058352 (  0.005470) 
  46   S  160     400.800000    1.776281 (  0.027837) 
  46   S  161     113.700000    2.599412 (  0.104800) 
  46   S  162      37.030000    3.026846 (  0.283062) 
  46   S  163      13.270000    2.222394 (  0.448719) 
  46   S  164       5.025000    0.647795 (  0.270952) 
  46   S  165       1.013000    0.011119 (  0.015458) 

  47   S  166   11720.000000   -0.252434 ( -0.000160) 
  47   S  167    1759.000000   -0.480491 ( -0.001263) 
  47   S  168     400.800000   -0.786300 ( -0.006267) 
  47   S  169     113.700000   -1.254170 ( -0.025716) 
  47   S  170      37.030000   -1.491218 ( -0.070924) 
  47   S  171      13.270000   -1.610832 ( -0.165411) 
  47   S  172       5.025000   -0.549798 ( -0.116955) 
  47   S  173       1.013000    0.788282 (  0.557368) 

  48   S  174       0.302300    0.290562 (  1.000000) 

  49   S  175       0.078960    0.106161 (  1.000000) 

  50   P  176      17.700000    3.243619 (  0.043018) 
  50   P  177       3.854000    2.567280 (  0.228913) 
  50   P  178       1.046000    1.117669 (  0.508728) 

  51   P  179       0.275300    0.284248 (  1.000000) 

  52   P  180       0.068560    0.050007 (  1.000000) 

  53   D  181       1.185000    2.215218 (  1.000000) 

  54   D  182       0.332000    0.239002 (  1.000000) 

 H         

  55   S  183      13.010000    0.163548 (  0.019685) 
  55   S  184       1.962000    0.277418 (  0.137977) 
  55   S  185       0.444600    0.315749 (  0.478148) 

  56   S  186       0.122000    0.147123 (  1.000000) 

  57   P  187       0.727000    0.956881 (  1.000000) 

 H         

  58   S  188      13.010000    0.163548 (  0.019685) 
  58   S  189       1.962000    0.277418 (  0.137977) 
  58   S  190       0.444600    0.315749 (  0.478148) 

  59   S  191       0.122000    0.147123 (  1.000000) 

  60   P  192       0.727000    0.956881 (  1.000000) 

 H         

  61   S  193      13.010000    0.163548 (  0.019685) 
  61   S  194       1.962000    0.277418 (  0.137977) 
  61   S  195       0.444600    0.315749 (  0.478148) 

  62   S  196       0.122000    0.147123 (  1.000000) 

  63   P  197       0.727000    0.956881 (  1.000000) 

 H         

  64   S  198      13.010000    0.163548 (  0.019685) 
  64   S  199       1.962000    0.277418 (  0.137977) 
  64   S  200       0.444600    0.315749 (  0.478148) 

  65   S  201       0.122000    0.147123 (  1.000000) 

  66   P  202       0.727000    0.956881 (  1.000000) 

 TOTAL NUMBER OF SHELLS              =   66
 TOTAL NUMBER OF BASIS FUNCTIONS     =  160
 NUMBER OF ELECTRONS                 =   56
 CHARGE OF MOLECULE                  =    0
 STATE MULTIPLICITY                  =    1
 NUMBER OF OCCUPIED ORBITALS (ALPHA) =   28
 NUMBER OF OCCUPIED ORBITALS (BETA ) =   28
 TOTAL NUMBER OF ATOMS               =   12
 THE NUCLEAR REPULSION ENERGY IS      323.2628512003
 TOTAL NUMBER OF CONTAMINANTS DROPPED=   10


     $CONTRL OPTIONS
     ---------------
     SCFTYP=RHF          RUNTYP=ENERGY       EXETYP=RUN     
     MPLEVL=       0     LOCAL =NONE         UNITS =ANGS    
     MULT  =       1     ICHARG=       0     MAXIT =     100
     NPRINT=       7     IREST =       0     COORD =UNIQUE  
     ECP   =NONE         NORMF =       0     NORMP =       0
     ITOL  =      30     ICUT  =      13     NZVAR =       0
     NOSYM =       0     INTTYP=HONDO        GEOM  =INPUT   
     PLTORB=       F     MOLPLT=       F     RPAC  =       F
     AIMPAC=       0     FRIEND=             CITYP =CIS     
     DFTTYP=NONE    

     $SYSTEM OPTIONS
     ---------------
     KDIAG =       0     MEMORY=200000000     TIMLIM=  3600000.0 SEC.
     COREFL=       F     PTIME =        F     XDR   =       F
     BALTYP=NXTVAL       CBASE = EE201000     FBASE = F37410C0

          ----------------
          PROPERTIES INPUT
          ----------------

     MOMENTS            FIELD           POTENTIAL          DENSITY
 IEMOM =       1   IEFLD =       0   IEPOT =       0   IEDEN =       0
 WHERE =COMASS     WHERE =NUCLEI     WHERE =NUCLEI     WHERE =NUCLEI  
 OUTPUT=BOTH       OUTPUT=BOTH       OUTPUT=BOTH       OUTPUT=BOTH    
 IEMINT=       0   IEFINT=       0                     IEDINT=       0
                                                       MORB  =       0

          EXTRAPOLATION IN EFFECT
          DAMPING IN EFFECT
          LEVEL SHIFTING IN EFFECT
          DIIS IN EFFECT

          ----------------------
          INTEGRAL INPUT OPTIONS
          ----------------------
 NOPK  =       1 NORDER=       0 SCHWRZ=       T

 ATTENTION! AO INTEGRALS WILL BE PACKED.
 THRESHOLD FOR PACKING PKTHR =  0.10000000D-05

     -------------------------------
     INTEGRAL TRANSFORMATION OPTIONS
     -------------------------------
     NWORD  =       0     CUTTRF = 1.0E-09
     MPTRAN =       0     DIRTRF =       T
     AOINTS =DUP          IREST  =       0

     ------------------------------
     CI-SINGLES CONTROL INFORMATION
     ------------------------------
     NACORE =        8  NBCORE   =        8
     NSTATE =        4  ISTATE   =        1
     HAMTYP = SAPS      SAP MULT =        1
     DIAGZN = DAVID     MXVEC    =       32
     NDAVIT =       50  DAVCVG   = 1.00E-05
     CISPRP =        F  NGSVEC   =       10
     MNMEDG =        F  MNMEOP   =        F
     CHFSLV = CONJG     RDCISV   =        F
     DGAPRX =        T  ISTSYM   =        0

     NUMBER OF CORE -A-  ORBITALS =     8
     NUMBER OF CORE -B-  ORBITALS =     8
     NUMBER OF OCC. -A-  ORBITALS =    28
     NUMBER OF OCC. -B-  ORBITALS =    28
     NUMBER OF MOLECULAR ORBITALS =   150
     NUMBER OF   BASIS  FUNCTIONS =   160


     ------------------------------------------
     THE POINT GROUP IS C1 , NAXIS= 0, ORDER= 1
     ------------------------------------------

     DIMENSIONS OF THE SYMMETRY SUBSPACES ARE
 A   = 160

 ..... DONE SETTING UP THE RUN .....

                         TIMING STATISTICS ON RANK 0:
 CPU        TIME:   STEP =      0.10 ,  TOTAL =        0.2 SECONDS (    0.0 MIN)
 WALL CLOCK TIME:   STEP =      0.10 ,  TOTAL =        0.1 SECONDS (    0.0 MIN)
 CPU UTILIZATION:   STEP =     98.85%,  TOTAL =     158.15%

          ********************
          1 ELECTRON INTEGRALS
          ********************
 ...... END OF ONE-ELECTRON INTEGRALS ......

                         TIMING STATISTICS ON RANK 0:
 CPU        TIME:   STEP =      0.00 ,  TOTAL =        0.2 SECONDS (    0.0 MIN)
 WALL CLOCK TIME:   STEP =      0.01 ,  TOTAL =        0.1 SECONDS (    0.0 MIN)
 CPU UTILIZATION:   STEP =      0.00%,  TOTAL =     146.41%

          -------------
          GUESS OPTIONS
          -------------
          GUESS =HUCKEL            NORB  =       0          NORDER=       0
          MIX   =       F          PRTMO =       F          SYMDEN=       F
          TOLZ  = 0.0E+00          TOLE  = 0.0E+00

 INITIAL GUESS ORBITALS GENERATED BY HUCKEL   ROUTINE.
 HUCKEL GUESS REQUIRES    199152 WORDS.

 LOG10 OF CONDITION NUMBER OF OVERLAP MATRIX IS:  4.24384434E+00

 SYMMETRIES FOR INITIAL GUESS ORBITALS FOLLOW.   BOTH SET(S).
    28 ORBITALS ARE OCCUPIED (    8 CORE ORBITALS).
     9=A       10=A       11=A       12=A       13=A       14=A       15=A   
    16=A       17=A       18=A       19=A       20=A       21=A       22=A   
    23=A       24=A       25=A       26=A       27=A       28=A       29=A   
    30=A       31=A       32=A       33=A       34=A       35=A       36=A   
    37=A       38=A   
 ...... END OF INITIAL ORBITAL SELECTION ......

                         TIMING STATISTICS ON RANK 0:
 CPU        TIME:   STEP =      0.05 ,  TOTAL =        0.2 SECONDS (    0.0 MIN)
 WALL CLOCK TIME:   STEP =      0.06 ,  TOTAL =        0.2 SECONDS (    0.0 MIN)
 CPU UTILIZATION:   STEP =     87.65%,  TOTAL =     126.26%

          --------------------
          2 ELECTRON INTEGRALS
          --------------------

 DIRECT SCF METHOD SKIPS INTEGRAL STORAGE ON DISK.
 DIRECT TRANSFORMATION SKIPS AO INTEGRAL STORAGE ON DISK.
 SCHWARZ INEQUALITY OVERHEAD:     12759 INTEGRALS, CPU TIME=        0.00
 ...... END OF TWO-ELECTRON INTEGRALS .....

                         TIMING STATISTICS ON RANK 0:
 CPU        TIME:   STEP =      0.00 ,  TOTAL =        0.2 SECONDS (    0.0 MIN)
 WALL CLOCK TIME:   STEP =      0.00 ,  TOTAL =        0.2 SECONDS (    0.0 MIN)
 CPU UTILIZATION:   STEP =      0.00%,  TOTAL =     123.55%

          -------------------
          RHF SCF CALCULATION
          -------------------

     NUCLEAR ENERGY =       323.2628512003
     MAXIT =  100     NPUNCH=    2
     EXTRAP=T  DAMP=T  SHIFT=T  RSTRCT=F  DIIS=T  DEM=F  SOSCF=F
     DENSITY CONV=  2.00E-05
     MEMORY REQUIRED FOR RHF STEP=    300948 WORDS.

 DIRECT SCF CALCULATION, SCHWRZ=T   FDIFF=F
 SCHWARZ INEQUALITY OVERHEAD:     12759 INTEGRALS, CPU TIME=        0.01

                                                                                                              NONZERO    BLOCKS
 ITER EX DEM  TOTAL ENERGY      E CHANGE  DENSITY CHANGE    DIIS ERROR      VIR. SHIFT       DAMPING        INTEGRALS   SKIPPED
   1  0  0  -378.145840159  -378.145840159   0.254342036   0.704699605     0.000000000     1.000000000       80159413    163774
          * * *   INITIATING DIIS PROCEDURE   * * *
   2  1  0  -379.105126561    -0.959286401   0.184061000   0.231804104     0.000000000     1.000000000       80334599    168796
   3  2  0  -379.173661665    -0.068535104   0.094215641   0.133760208     0.000000000     1.000000000       80269738    168029
   4  3  0  -379.271899745    -0.098238080   0.012324703   0.017991260     0.000000000     1.000000000       80300377    167835
   5  4  0  -379.273887154    -0.001987409   0.005859353   0.006589933     0.000000000     1.000000000       80306411    167884
   6  5  0  -379.274186320    -0.000299166   0.003933086   0.002399799     0.000000000     1.000000000       80309356    167863
   7  6  0  -379.274256003    -0.000069683   0.001527946   0.000615958     0.000000000     1.000000000       80309816    167823
   8  7  0  -379.274264907    -0.000008904   0.000294641   0.000150051     0.000000000     1.000000000       80309666    167827
   9  8  0  -379.274265286    -0.000000378   0.000055330   0.000048729     0.000000000     1.000000000       80309630    167826
  10  9  0  -379.274265312    -0.000000027   0.000014527   0.000011419     0.000000000     1.000000000       80309591    167828
  11 10  0  -379.274265314    -0.000000001   0.000003391   0.000001648     0.000000000     1.000000000       80309591    167828
  12 11  0  -379.274265314     0.000000000   0.000001041   0.000000901     0.000000000     1.000000000       80309591    167828

          -----------------
          DENSITY CONVERGED
          -----------------
     TIME TO FORM FOCK OPERATORS =       8.55 SECONDS (       0.71 SEC/ITER)
     FOCK TIME ON FIRST ITERATION=       0.64, LAST ITERATION=       0.73
     TIME TO SOLVE SCF EQUATIONS =       0.15 SECONDS (       0.01 SEC/ITER)

 FINAL ENERGY IS     -379.2742653140 AFTER  12 ITERATIONS

          ------------
          EIGENVECTORS
          ------------

                      1          2          3          4          5
                  -20.5876   -20.5876   -11.3693   -11.3692   -11.2901
                     A          A          A          A          A   
    1  C   1  S   0.000040  -0.000170   0.001658   0.004204   0.411262
    2  C   1  S   0.000075  -0.000323   0.000182  -0.000032   0.001752
    3  C   1  S   0.001559   0.002195  -0.000811   0.000482  -0.003515
    4  C   1  X  -0.000045   0.000150  -0.000039   0.000023  -0.000089
    5  C   1  Y  -0.000028  -0.000021  -0.000044   0.000009   0.000009
    6  C   1  Z   0.000006  -0.000005   0.000007  -0.000002   0.000004
    7  C   1  X   0.000105  -0.001167   0.000274  -0.000290   0.000560
    8  C   1  Y  -0.000663  -0.001629   0.000646   0.000266  -0.000729
    9  C   1  Z   0.000070   0.000246  -0.000087  -0.000014   0.000052
   10  C   1 XX   0.000044   0.000215  -0.000205  -0.000306  -0.000006
   11  C   1 YY  -0.000082  -0.000119  -0.000024   0.000073   0.000042
   12  C   1 ZZ   0.000037  -0.000096   0.000229   0.000232  -0.000036
   13  C   1 XY   0.000166   0.000331   0.000019   0.000169   0.000065
   14  C   1 XZ  -0.000019  -0.000057   0.000025   0.000014  -0.000009
   15  C   1 YZ   0.000006  -0.000015   0.000032   0.000012  -0.000014
   16  C   2  S   0.000164  -0.000061  -0.004266   0.001482   0.419017
   17  C   2  S   0.000311  -0.000115  -0.000095  -0.000159   0.001793
   18  C   2  S  -0.002372  -0.001274   0.000164   0.000929  -0.003662
   19  C   2  X  -0.000142   0.000064   0.000009   0.000046  -0.000090
   20  C   2  Y  -0.000027  -0.000024  -0.000021  -0.000038  -0.000010
   21  C   2  Z   0.000010  -0.000001   0.000002   0.000002   0.000006
   22  C   2  X   0.001198  -0.000235   0.000021  -0.000407   0.000581
   23  C   2  Y  -0.001676  -0.000461   0.000623   0.000308   0.000699
   24  C   2  Z   0.000123   0.000064  -0.000072  -0.000013  -0.000109
   25  C   2 XX  -0.000238  -0.000024   0.000357  -0.000039   0.000000
   26  C   2 YY   0.000140   0.000070  -0.000035   0.000063   0.000045
   27  C   2 ZZ   0.000098  -0.000047  -0.000322  -0.000024  -0.000045
   28  C   2 XY   0.000340   0.000120   0.000145  -0.000100  -0.000069
   29  C   2 XZ  -0.000017  -0.000015  -0.000059   0.000012   0.000005
   30  C   2 YZ  -0.000024  -0.000022  -0.000046  -0.000006  -0.000008
   31  C   3  S   0.000040  -0.000170   0.001658   0.004204  -0.579279
   32  C   3  S   0.000075  -0.000323   0.000182  -0.000032  -0.002482
   33  C   3  S   0.001560   0.002195  -0.000813   0.000482   0.004986
   34  C   3  X   0.000046  -0.000149   0.000040  -0.000023  -0.000120
   35  C   3  Y  -0.000027  -0.000024  -0.000043   0.000009  -0.000036
   36  C   3  Z   0.000001   0.000011   0.000003   0.000000   0.000011
   37  C   3  X  -0.000084   0.001218  -0.000295   0.000281   0.000951
   38  C   3  Y  -0.000665  -0.001606   0.000641   0.000271   0.000722
   39  C   3  Z   0.000080   0.000115  -0.000055  -0.000045  -0.000133
   40  C   3 XX   0.000053   0.000233  -0.000204  -0.000296   0.000003
   41  C   3 YY  -0.000087  -0.000130  -0.000024   0.000068  -0.000103
   42  C   3 ZZ   0.000034  -0.000103   0.000228   0.000229   0.000100
   43  C   3 XY  -0.000162  -0.000323  -0.000019  -0.000175   0.000084
   44  C   3 XZ   0.000017   0.000016   0.000030   0.000053  -0.000003
   45  C   3 YZ   0.000025   0.000021   0.000034   0.000031   0.000022
   46  C   4  S   0.000164  -0.000061  -0.004269   0.001483  -0.568709
   47  C   4  S   0.000311  -0.000115  -0.000094  -0.000159  -0.002427
   48  C   4  S  -0.002374  -0.001275   0.000164   0.000929   0.004796
   49  C   4  X   0.000143  -0.000063  -0.000008  -0.000045  -0.000120
   50  C   4  Y  -0.000024  -0.000026  -0.000021  -0.000039   0.000034
   51  C   4  Z  -0.000005   0.000006   0.000003   0.000007   0.000003
   52  C   4  X  -0.001146   0.000249  -0.000041   0.000397   0.000918
   53  C   4  Y  -0.001699  -0.000456   0.000623   0.000316  -0.000746
   54  C   4  Z   0.000252   0.000037  -0.000069  -0.000057   0.000034
   55  C   4 XX  -0.000219  -0.000017   0.000365  -0.000044   0.000011
   56  C   4 YY   0.000128   0.000066  -0.000040   0.000066  -0.000100
   57  C   4 ZZ   0.000091  -0.000049  -0.000325  -0.000022   0.000089
   58  C   4 XY  -0.000349  -0.000124  -0.000140   0.000096  -0.000076
   59  C   4 XZ   0.000058   0.000012  -0.000028  -0.000010   0.000014
   60  C   4 YZ   0.000015  -0.000008  -0.000030  -0.000017   0.000029
   61  C   5  S   0.000077   0.000629   0.348555   0.940085   0.000791
   62  C   5  S   0.000143   0.001000   0.001882   0.004755   0.000018
   63  C   5  S   0.000724   0.003828  -0.001582  -0.005853  -0.000137
   64  C   5  X   0.000000  -0.000006  -0.000004  -0.000014  -0.000035
   65  C   5  Y  -0.000005   0.000397   0.000265   0.000864   0.000015
   66  C   5  Z   0.000001  -0.000045  -0.000030  -0.000098   0.000000
   67  C   5  X  -0.000015  -0.000095  -0.000005  -0.000016   0.002089
   68  C   5  Y   0.000962   0.005967   0.000317   0.000998   0.000549
   69  C   5  Z  -0.000108  -0.000672  -0.000036  -0.000113  -0.000175
   70  C   5 XX   0.000072   0.000402   0.000032   0.000087   0.000037
   71  C   5 YY  -0.000060  -0.000474   0.000219   0.000611   0.000010
   72  C   5 ZZ  -0.000012   0.000072  -0.000251  -0.000698  -0.000048
   73  C   5 XY   0.000002   0.000014  -0.000006  -0.000016   0.000164
   74  C   5 XZ  -0.000005  -0.000022  -0.000017  -0.000048  -0.000024
   75  C   5 YZ   0.000006   0.000072  -0.000062  -0.000174  -0.000017
   76  C   6  S  -0.000634   0.000002  -0.940122   0.348456   0.000707
   77  C   6  S  -0.001010  -0.000018  -0.004834   0.001673   0.000016
   78  C   6  S  -0.003888  -0.000247   0.005469  -0.002616  -0.000077
   79  C   6  X  -0.000006   0.000001  -0.000013   0.000006  -0.000034
   80  C   6  Y   0.000393  -0.000054   0.000829  -0.000363  -0.000014
   81  C   6  Z  -0.000043   0.000006  -0.000091   0.000040   0.000003
   82  C   6  X  -0.000095  -0.000003  -0.000016   0.000006   0.002094
   83  C   6  Y   0.006042   0.000215   0.000963  -0.000410  -0.000444
   84  C   6  Z  -0.000666  -0.000024  -0.000106   0.000045  -0.000064
   85  C   6 XX  -0.000408  -0.000022  -0.000086   0.000032   0.000043
   86  C   6 YY   0.000479   0.000001  -0.000607   0.000233   0.000001
   87  C   6 ZZ  -0.000071   0.000021   0.000694  -0.000265  -0.000044
   88  C   6 XY  -0.000014   0.000000   0.000016  -0.000006  -0.000163
   89  C   6 XZ   0.000022   0.000003   0.000048  -0.000018   0.000013
   90  C   6 YZ  -0.000070   0.000002   0.000168  -0.000064   0.000003
   91  O   7  S  -0.999725   0.062043  -0.000083   0.000001   0.000028
   92  O   7  S  -0.002458   0.000052  -0.000838   0.000255   0.000052
   93  O   7  S   0.009004  -0.000120   0.002092  -0.000602  -0.000232
   94  O   7  S   0.002133   0.000093  -0.000997   0.000476  -0.000345
   95  O   7  X   0.000028  -0.000002   0.000008  -0.000003   0.000022
   96  O   7  Y  -0.001797   0.000099  -0.000483   0.000168   0.000008
   97  O   7  Z   0.000197  -0.000011   0.000053  -0.000019  -0.000002
   98  O   7  X  -0.000053   0.000001  -0.000030   0.000009  -0.000356
   99  O   7  Y   0.003381  -0.000058   0.001906  -0.000597  -0.000123
  100  O   7  Z  -0.000371   0.000007  -0.000209   0.000066   0.000033
  101  O   7  X  -0.000011   0.000000   0.000014  -0.000006   0.000102
  102  O   7  Y   0.000727   0.000032  -0.000917   0.000374  -0.000169
  103  O   7  Z  -0.000079  -0.000003   0.000101  -0.000041   0.000013
  104  O   7 XX  -0.000014   0.000007   0.000167  -0.000070   0.000002
  105  O   7 YY  -0.000257   0.000018  -0.000320   0.000124  -0.000002
  106  O   7 ZZ   0.000270  -0.000025   0.000153  -0.000053   0.000000
  107  O   7 XY   0.000006   0.000000   0.000009  -0.000003   0.000021
  108  O   7 XZ   0.000017  -0.000002  -0.000002   0.000001  -0.000002
  109  O   7 YZ   0.000068  -0.000006   0.000061  -0.000023  -0.000001
  110  O   7 XX  -0.000479   0.000009  -0.000373   0.000156  -0.000007
  111  O   7 YY   0.000807  -0.000045   0.001081  -0.000398  -0.000018
  112  O   7 ZZ  -0.000328   0.000036  -0.000708   0.000242   0.000025
  113  O   7 XY  -0.000022   0.000001  -0.000029   0.000011  -0.000114
  114  O   7 XZ   0.000011   0.000002  -0.000019   0.000005   0.000015
  115  O   7 YZ  -0.000145   0.000011  -0.000230   0.000082   0.000012
  116  O   8  S   0.062152   0.999718   0.000053   0.000064   0.000030
  117  O   8  S   0.000252   0.002445   0.000353   0.000802   0.000056
  118  O   8  S  -0.000995  -0.008950  -0.000907  -0.001979  -0.000252
  119  O   8  S  -0.000356  -0.002105   0.000289   0.001066  -0.000375
  120  O   8  X   0.000002   0.000028   0.000003   0.000008   0.000023
  121  O   8  Y  -0.000124  -0.001795  -0.000187  -0.000475  -0.000007
  122  O   8  Z   0.000014   0.000203   0.000021   0.000054   0.000000
  123  O   8  X  -0.000006  -0.000053  -0.000012  -0.000029  -0.000362
  124  O   8  Y   0.000361   0.003361   0.000789   0.001834   0.000125
  125  O   8  Z  -0.000041  -0.000380  -0.000089  -0.000207   0.000005
  126  O   8  X  -0.000002  -0.000011   0.000005   0.000015   0.000096
  127  O   8  Y   0.000122   0.000717  -0.000314  -0.000939   0.000185
  128  O   8  Z  -0.000014  -0.000081   0.000035   0.000106  -0.000026
  129  O   8 XX  -0.000005   0.000014  -0.000056  -0.000173   0.000003
  130  O   8 YY   0.000013   0.000256   0.000115   0.000323  -0.000003
  131  O   8 ZZ  -0.000009  -0.000271  -0.000059  -0.000150   0.000000
  132  O   8 XY   0.000000  -0.000007  -0.000003  -0.000009  -0.000021
  133  O   8 XZ   0.000000  -0.000017   0.000000   0.000002   0.000002
  134  O   8 YZ  -0.000003  -0.000070  -0.000023  -0.000062   0.000002
  135  O   8 XX   0.000050   0.000477   0.000125   0.000385  -0.000013
  136  O   8 YY  -0.000055  -0.000806  -0.000402  -0.001078  -0.000016
  137  O   8 ZZ   0.000005   0.000329   0.000278   0.000693   0.000029
  138  O   8 XY   0.000002   0.000023   0.000011   0.000029   0.000115
  139  O   8 XZ  -0.000003  -0.000011   0.000009   0.000017  -0.000011
  140  O   8 YZ   0.000008   0.000150   0.000090   0.000234   0.000000
  141  H   9  S  -0.000139  -0.000115   0.000066   0.000058   0.000083
  142  H   9  S   0.000017   0.000757  -0.000257  -0.000149  -0.000489
  143  H   9  X  -0.000045  -0.000128   0.000046   0.000029   0.000176
  144  H   9  Y   0.000031   0.000086  -0.000066  -0.000079  -0.000096
  145  H   9  Z  -0.000001  -0.000003   0.000005   0.000007   0.000001
  146  H  10  S   0.000131   0.000124  -0.000087  -0.000012   0.000075
  147  H  10  S  -0.000753   0.000077   0.000281   0.000098  -0.000499
  148  H  10  X   0.000130   0.000028  -0.000049  -0.000016   0.000167
  149  H  10  Y   0.000092   0.000021  -0.000104   0.000001   0.000096
  150  H  10  Z  -0.000017  -0.000004   0.000014   0.000001  -0.000020
  151  H  11  S  -0.000139  -0.000115   0.000066   0.000058  -0.000038
  152  H  11  S   0.000017   0.000757  -0.000257  -0.000149   0.000483
  153  H  11  X   0.000044   0.000125  -0.000044  -0.000027   0.000118
  154  H  11  Y   0.000032   0.000088  -0.000067  -0.000079   0.000075
  155  H  11  Z  -0.000006  -0.000017   0.000010   0.000010  -0.000015
  156  H  12  S   0.000131   0.000124  -0.000087  -0.000012  -0.000043
  157  H  12  S  -0.000753   0.000077   0.000281   0.000098   0.000473
  158  H  12  X  -0.000133  -0.000029   0.000052   0.000016   0.000124
  159  H  12  Y   0.000089   0.000021  -0.000103   0.000001  -0.000075
  160  H  12  Z  -0.000003  -0.000001   0.000009  -0.000001   0.000002

                      6          7          8          9         10
                  -11.2900   -11.2884   -11.2884    -1.4187    -1.4162
                     A          A          A          A          A   
    1  C   1  S   0.568495  -0.369276   0.613131  -0.000655   0.000562
    2  C   1  S   0.002436  -0.001851   0.003216   0.037738  -0.023966
    3  C   1  S  -0.004649   0.005170  -0.010847   0.007948   0.023475
    4  C   1  X  -0.000111   0.000088  -0.000105  -0.019776   0.015434
    5  C   1  Y   0.000081  -0.000046   0.000004   0.007634  -0.017464
    6  C   1  Z  -0.000004   0.000001   0.000005   0.000184   0.001150
    7  C   1  X   0.001229  -0.001678   0.003200   0.007026  -0.007260
    8  C   1  Y  -0.000170   0.000409   0.002192   0.007322  -0.018511
    9  C   1  Z  -0.000046   0.000043  -0.000416  -0.001204   0.002486
   10  C   1 XX  -0.000016  -0.000212   0.000232  -0.000291  -0.000186
   11  C   1 YY   0.000191  -0.000058   0.000287   0.001710  -0.001614
   12  C   1 ZZ  -0.000175   0.000269  -0.000519  -0.001419   0.001800
   13  C   1 XY   0.000045  -0.000097   0.000154  -0.005383   0.010948
   14  C   1 XZ  -0.000015   0.000041  -0.000064   0.000543  -0.001121
   15  C   1 YZ  -0.000051   0.000048  -0.000115  -0.000119  -0.000148
   16  C   2  S   0.579480   0.362214  -0.601702  -0.000671  -0.000538
   17  C   2  S   0.002491   0.001820  -0.003166   0.038518   0.022632
   18  C   2  S  -0.004819  -0.005112   0.010749   0.007095  -0.023737
   19  C   2  X  -0.000110  -0.000085   0.000102  -0.020016  -0.014190
   20  C   2  Y  -0.000084  -0.000047   0.000006  -0.008606  -0.017473
   21  C   2  Z   0.000015   0.000010  -0.000006   0.002020   0.002709
   22  C   2  X   0.001276   0.001647  -0.003249   0.007540   0.007585
   23  C   2  Y   0.000186   0.000443   0.002142  -0.007825  -0.018112
   24  C   2  Z  -0.000089  -0.000137  -0.000068   0.000468   0.001609
   25  C   2 XX  -0.000008   0.000217  -0.000240  -0.000596  -0.000387
   26  C   2 YY   0.000192   0.000052  -0.000280   0.001956   0.001913
   27  C   2 ZZ  -0.000185  -0.000268   0.000520  -0.001360  -0.001526
   28  C   2 XY  -0.000058  -0.000098   0.000165   0.005656   0.010669
   29  C   2 XZ  -0.000005  -0.000019   0.000029  -0.000681  -0.001269
   30  C   2 YZ  -0.000046  -0.000037   0.000096  -0.000743  -0.001034
   31  C   3  S   0.419049   0.601713   0.362480  -0.000655   0.000560
   32  C   3  S   0.001804   0.003091   0.001948   0.037732  -0.023955
   33  C   3  S  -0.003428  -0.009549  -0.007112   0.007958   0.023484
   34  C   3  X   0.000076   0.000123   0.000051   0.019523  -0.014871
   35  C   3  Y   0.000077   0.000044  -0.000017   0.008004  -0.017751
   36  C   3  Z  -0.000013  -0.000012  -0.000001  -0.001975   0.002815
   37  C   3  X  -0.001030  -0.002976  -0.002101  -0.007250   0.007841
   38  C   3  Y   0.000042   0.000611   0.002102   0.007185  -0.018370
   39  C   3  Z   0.000052   0.000094  -0.000122  -0.000419   0.001657
   40  C   3 XX  -0.000007   0.000304   0.000111  -0.000583   0.000411
   41  C   3 YY   0.000169   0.000177   0.000223   0.001888  -0.001978
   42  C   3 ZZ  -0.000161  -0.000480  -0.000334  -0.001305   0.001567
   43  C   3 XY  -0.000034  -0.000164  -0.000100   0.005286  -0.010855
   44  C   3 XZ  -0.000006  -0.000032  -0.000017  -0.000652   0.001312
   45  C   3 YZ  -0.000042  -0.000077  -0.000068  -0.000717   0.001074
   46  C   4  S   0.411215  -0.613052  -0.369129  -0.000672  -0.000538
   47  C   4  S   0.001765  -0.003140  -0.001977   0.038531   0.022644
   48  C   4  S  -0.003316   0.009644   0.007170   0.007084  -0.023755
   49  C   4  X   0.000077  -0.000127  -0.000052   0.020283   0.014737
   50  C   4  Y  -0.000074   0.000043  -0.000018  -0.008224  -0.017199
   51  C   4  Z   0.000004   0.000002   0.000005  -0.000194   0.001119
   52  C   4  X  -0.000992   0.002980   0.002043  -0.007300  -0.007024
   53  C   4  Y  -0.000067   0.000663   0.002129  -0.007971  -0.018258
   54  C   4  Z   0.000062  -0.000238  -0.000351   0.001284   0.002413
   55  C   4 XX  -0.000013  -0.000295  -0.000106  -0.000291   0.000190
   56  C   4 YY   0.000168  -0.000185  -0.000227   0.001769   0.001561
   57  C   4 ZZ  -0.000155   0.000480   0.000332  -0.001478  -0.001751
   58  C   4 XY   0.000023  -0.000158  -0.000090  -0.005755  -0.010760
   59  C   4 XZ  -0.000012   0.000067   0.000038   0.000566   0.001082
   60  C   4 YZ  -0.000044   0.000097   0.000078  -0.000104   0.000166
   61  C   5  S  -0.004653  -0.001086  -0.004561  -0.008791   0.010004
   62  C   5  S  -0.000104  -0.000028  -0.000117   0.161034  -0.159485
   63  C   5  S   0.000658   0.000784   0.003187   0.081888  -0.076554
   64  C   5  X  -0.000004   0.000009  -0.000002  -0.001813   0.002004
   65  C   5  Y  -0.000090  -0.000014  -0.000060   0.114769  -0.126810
   66  C   5  Z   0.000010   0.000001   0.000007  -0.012969   0.014326
   67  C   5  X   0.000351  -0.003505   0.000948   0.000257  -0.000463
   68  C   5  Y  -0.003079  -0.000852  -0.003411  -0.016118   0.029180
   69  C   5  Z   0.000331   0.000285   0.000336   0.001814  -0.003282
   70  C   5 XX  -0.000250  -0.000033  -0.000191  -0.012929   0.015714
   71  C   5 YY  -0.000035  -0.000054  -0.000188   0.025640  -0.027736
   72  C   5 ZZ   0.000285   0.000087   0.000379  -0.012711   0.012022
   73  C   5 XY   0.000022  -0.000408   0.000107  -0.000708   0.000772
   74  C   5 XZ   0.000031   0.000054   0.000024   0.000063  -0.000286
   75  C   5 YZ   0.000042   0.000041   0.000069  -0.005067   0.005248
   76  C   6  S  -0.004665   0.001174   0.004536  -0.009127  -0.009696
   77  C   6  S  -0.000105   0.000030   0.000116   0.166395   0.153906
   78  C   6  S   0.000667  -0.000798  -0.003183   0.084502   0.073715
   79  C   6  X  -0.000007  -0.000009   0.000003   0.001869   0.001930
   80  C   6  Y   0.000090  -0.000016  -0.000060  -0.119105  -0.122899
   81  C   6  Z  -0.000010   0.000002   0.000006   0.013087   0.013508
   82  C   6  X   0.000321   0.003540  -0.000803  -0.000271  -0.000452
   83  C   6  Y   0.003097  -0.000843  -0.003414   0.017138   0.028623
   84  C   6  Z  -0.000362  -0.000097   0.000423  -0.001891  -0.003162
   85  C   6 XX  -0.000249   0.000060   0.000184  -0.013461  -0.015266
   86  C   6 YY  -0.000037   0.000041   0.000192   0.026604   0.026874
   87  C   6 ZZ   0.000286  -0.000101  -0.000376  -0.013143  -0.011607
   88  C   6 XY  -0.000030  -0.000411   0.000096  -0.000731  -0.000745
   89  C   6 XZ   0.000037   0.000035  -0.000046   0.000071   0.000282
   90  C   6 YZ   0.000044   0.000004  -0.000080  -0.005107  -0.004943
   91  O   7  S  -0.000180   0.000026   0.000096  -0.007261  -0.008045
   92  O   7  S  -0.000336   0.000049   0.000183   0.285156   0.278254
   93  O   7  S   0.001508  -0.000285  -0.001087   0.274581   0.277846
   94  O   7  S   0.002244  -0.000419  -0.001597   0.002548   0.007348
   95  O   7  X   0.000005   0.000041  -0.000010  -0.001496  -0.001454
   96  O   7  Y  -0.000047   0.000000  -0.000003   0.095040   0.092357
   97  O   7  Z   0.000005  -0.000002   0.000001  -0.010446  -0.010151
   98  O   7  X  -0.000077  -0.000746   0.000190  -0.000408  -0.000441
   99  O   7  Y   0.000772  -0.000125  -0.000443   0.025887   0.028044
  100  O   7  Z  -0.000081   0.000054   0.000038  -0.002843  -0.003077
  101  O   7  X  -0.000002  -0.000064   0.000030   0.000079   0.000056
  102  O   7  Y   0.001106  -0.000201  -0.000764  -0.005011  -0.003565
  103  O   7  Z  -0.000123   0.000026   0.000083   0.000552   0.000397
  104  O   7 XX  -0.000016   0.000000   0.000002  -0.005944  -0.005745
  105  O   7 YY   0.000018  -0.000007  -0.000027   0.012039   0.011777
  106  O   7 ZZ  -0.000002   0.000006   0.000025  -0.006094  -0.006032
  107  O   7 XY   0.000003   0.000009  -0.000001  -0.000330  -0.000322
  108  O   7 XZ   0.000001   0.000000   0.000002   0.000013   0.000004
  109  O   7 YZ  -0.000003   0.000001   0.000007  -0.002330  -0.002289
  110  O   7 XX   0.000064   0.000004  -0.000018   0.001697   0.001694
  111  O   7 YY   0.000107  -0.000024  -0.000069  -0.004052  -0.004120
  112  O   7 ZZ  -0.000171   0.000020   0.000087   0.002355   0.002425
  113  O   7 XY  -0.000024  -0.000318   0.000080   0.000109   0.000111
  114  O   7 XZ  -0.000012   0.000036  -0.000002   0.000034   0.000038
  115  O   7 YZ  -0.000035   0.000023   0.000016   0.000825   0.000845
  116  O   8  S  -0.000179  -0.000022  -0.000097  -0.006981   0.008287
  117  O   8  S  -0.000336  -0.000042  -0.000184   0.275494  -0.287820
  118  O   8  S   0.001504   0.000257   0.001095   0.264967  -0.287082
  119  O   8  S   0.002238   0.000377   0.001607   0.002302  -0.007438
  120  O   8  X   0.000002  -0.000041   0.000010   0.001454  -0.001513
  121  O   8  Y   0.000047  -0.000001  -0.000002  -0.091780   0.095491
  122  O   8  Z  -0.000005   0.000002   0.000000   0.010369  -0.010789
  123  O   8  X  -0.000038   0.000748  -0.000182   0.000395  -0.000458
  124  O   8  Y  -0.000771  -0.000096  -0.000450  -0.024922   0.028915
  125  O   8  Z   0.000090  -0.000029   0.000061   0.002818  -0.003271
  126  O   8  X   0.000034   0.000070  -0.000004  -0.000077   0.000059
  127  O   8  Y  -0.001103  -0.000179  -0.000769   0.004884  -0.003732
  128  O   8  Z   0.000124   0.000017   0.000087  -0.000551   0.000417
  129  O   8 XX  -0.000016  -0.000001  -0.000002  -0.005743   0.005942
  130  O   8 YY   0.000018   0.000007   0.000027   0.011614  -0.012164
  131  O   8 ZZ  -0.000002  -0.000006  -0.000025  -0.005871   0.006222
  132  O   8 XY  -0.000004   0.000009  -0.000003  -0.000320   0.000335
  133  O   8 XZ   0.000001  -0.000002  -0.000001   0.000014  -0.000006
  134  O   8 YZ  -0.000002  -0.000002  -0.000007  -0.002311   0.002430
  135  O   8 XX   0.000063   0.000012   0.000014   0.001634  -0.001747
  136  O   8 YY   0.000107   0.000011   0.000072  -0.003897   0.004245
  137  O   8 ZZ  -0.000170  -0.000023  -0.000086   0.002263  -0.002497
  138  O   8 XY   0.000013  -0.000318   0.000078   0.000106  -0.000115
  139  O   8 XZ  -0.000016   0.000035  -0.000015   0.000032  -0.000039
  140  O   8 YZ  -0.000038   0.000013  -0.000025   0.000814  -0.000889
  141  H   9  S  -0.000113  -0.000395  -0.000265   0.008562  -0.009480
  142  H   9  S  -0.000024  -0.000071  -0.000544  -0.004531   0.004472
  143  H   9  X  -0.000136  -0.000319  -0.000203   0.002232  -0.003352
  144  H   9  Y   0.000052   0.000224   0.000087  -0.001092   0.001026
  145  H   9  Z   0.000002  -0.000008   0.000001   0.000000   0.000068
  146  H  10  S  -0.000108   0.000397   0.000265   0.008881   0.009181
  147  H  10  S  -0.000027   0.000068   0.000535  -0.004692  -0.004317
  148  H  10  X  -0.000131   0.000315   0.000202   0.002310   0.003242
  149  H  10  Y  -0.000051   0.000231   0.000092   0.001171   0.001049
  150  H  10  Z   0.000013  -0.000043  -0.000021  -0.000259  -0.000296
  151  H  11  S  -0.000126   0.000227  -0.000421   0.008566  -0.009484
  152  H  11  S   0.000131  -0.000190  -0.000505  -0.004532   0.004473
  153  H  11  X   0.000176  -0.000184   0.000326  -0.002198   0.003320
  154  H  11  Y   0.000078  -0.000162   0.000189  -0.001134   0.001089
  155  H  11  Z  -0.000018   0.000028  -0.000039   0.000243  -0.000298
  156  H  12  S  -0.000133  -0.000225   0.000419   0.008879   0.009178
  157  H  12  S   0.000131   0.000191   0.000514  -0.004690  -0.004314
  158  H  12  X   0.000185   0.000187  -0.000329  -0.002346  -0.003273
  159  H  12  Y  -0.000079  -0.000157   0.000181   0.001125   0.000985
  160  H  12  Z  -0.000001   0.000008  -0.000003  -0.000002   0.000063

                     11         12         13         14         15
                   -1.1635    -1.0828    -0.9630    -0.8736    -0.8375
                     A          A          A          A          A   
    1  C   1  S  -0.013281  -0.015666  -0.008955  -0.008571  -0.006291
    2  C   1  S   0.187958   0.215720   0.132546   0.161528   0.079431
    3  C   1  S   0.115446   0.137140   0.145019   0.184457   0.073389
    4  C   1  X  -0.040812   0.001846  -0.061594  -0.013758   0.165580
    5  C   1  Y  -0.061840  -0.075262   0.086039   0.112326  -0.101603
    6  C   1  Z   0.009130   0.008343  -0.006375  -0.011903   0.002600
    7  C   1  X  -0.020963  -0.012664  -0.052715  -0.057429   0.042521
    8  C   1  Y  -0.018090  -0.026084   0.001464   0.027358  -0.032110
    9  C   1  Z   0.003144   0.003608   0.002644  -0.000017   0.001350
   10  C   1 XX   0.001128  -0.006630   0.017037   0.008102  -0.013246
   11  C   1 YY   0.007131   0.014299  -0.010608  -0.002946   0.012375
   12  C   1 ZZ  -0.008260  -0.007669  -0.006428  -0.005156   0.000871
   13  C   1 XY  -0.001942  -0.002085  -0.008651  -0.006110   0.003071
   14  C   1 XZ  -0.000372   0.000156  -0.000470  -0.000123   0.000513
   15  C   1 YZ  -0.001917  -0.002771   0.001021   0.000035  -0.001674
   16  C   2  S  -0.013277  -0.015658   0.008962   0.008577  -0.006280
   17  C   2  S   0.187929   0.215659  -0.132674  -0.161643   0.079271
   18  C   2  S   0.115453   0.137098  -0.145110  -0.184542   0.073136
   19  C   2  X  -0.042721  -0.000482   0.058791   0.010041   0.162312
   20  C   2  Y   0.061053   0.075317   0.087118   0.112404   0.104900
   21  C   2  Z  -0.004572  -0.008448  -0.012925  -0.013136  -0.020428
   22  C   2  X  -0.021537  -0.013475   0.052646   0.056503   0.041582
   23  C   2  Y   0.017683   0.025823   0.002458   0.028420   0.032934
   24  C   2  Z  -0.000840  -0.002176  -0.003083  -0.006200  -0.005906
   25  C   2 XX   0.001029  -0.006729  -0.016539  -0.007749  -0.013067
   26  C   2 YY   0.007195   0.014361   0.010298   0.002722   0.012261
   27  C   2 ZZ  -0.008224  -0.007632   0.006241   0.005028   0.000806
   28  C   2 XY   0.001587   0.001297  -0.009317  -0.006313  -0.003807
   29  C   2 XZ  -0.000762  -0.000218   0.002458   0.001498   0.001275
   30  C   2 YZ  -0.002118  -0.002961  -0.000007   0.000650  -0.001290
   31  C   3  S  -0.013287   0.015653  -0.008962   0.008573  -0.006282
   32  C   3  S   0.188050  -0.215573   0.132683  -0.161597   0.079285
   33  C   3  S   0.115522  -0.137031   0.145140  -0.184505   0.073195
   34  C   3  X   0.042744  -0.000476   0.058827  -0.010078  -0.162303
   35  C   3  Y  -0.061105   0.075306   0.087151  -0.112383  -0.104946
   36  C   3  Z   0.004546  -0.008423  -0.012990   0.013198   0.020643
   37  C   3  X   0.021533  -0.013437   0.052650  -0.056476  -0.041572
   38  C   3  Y  -0.017695   0.025821   0.002455  -0.028415  -0.032949
   39  C   3  Z   0.000811  -0.002174  -0.003144   0.006274   0.005976
   40  C   3 XX   0.001025   0.006732   0.016539  -0.007741  -0.013068
   41  C   3 YY   0.007201  -0.014360  -0.010299   0.002719   0.012266
   42  C   3 ZZ  -0.008226   0.007627  -0.006240   0.005022   0.000802
   43  C   3 XY   0.001584  -0.001297   0.009318  -0.006313  -0.003803
   44  C   3 XZ  -0.000776   0.000222  -0.002485   0.001527   0.001298
   45  C   3 YZ  -0.002117   0.002961   0.000012   0.000663  -0.001289
   46  C   4  S  -0.013290   0.015660   0.008958  -0.008568  -0.006291
   47  C   4  S   0.188070  -0.215622  -0.132603   0.161488   0.079434
   48  C   4  S   0.115523  -0.137072  -0.145095   0.184423   0.073363
   49  C   4  X   0.040816   0.001868  -0.061591   0.013743  -0.165585
   50  C   4  Y   0.061887  -0.075253   0.086070  -0.112308   0.101713
   51  C   4  Z  -0.009167   0.008365  -0.006323   0.011850  -0.002398
   52  C   4  X   0.020975  -0.012658  -0.052718   0.057394  -0.042534
   53  C   4  Y   0.018092  -0.026055   0.001475  -0.027373   0.032113
   54  C   4  Z  -0.003179   0.003613   0.002706  -0.000056  -0.001281
   55  C   4 XX   0.001121   0.006634  -0.017032   0.008093  -0.013248
   56  C   4 YY   0.007142  -0.014298   0.010606  -0.002938   0.012376
   57  C   4 ZZ  -0.008262   0.007665   0.006427  -0.005156   0.000871
   58  C   4 XY  -0.001946   0.002083   0.008661  -0.006117   0.003076
   59  C   4 XZ  -0.000384  -0.000151   0.000495  -0.000152   0.000536
   60  C   4 YZ  -0.001921   0.002771  -0.001016   0.000048  -0.001677
   61  C   5  S  -0.003271  -0.000002  -0.004470  -0.000001   0.000912
   62  C   5  S   0.106280   0.000084   0.206749   0.000116  -0.191719
   63  C   5  S   0.070101   0.000039   0.115602   0.000045  -0.156245
   64  C   5  X   0.001971   0.109661   0.002140   0.216123  -0.001024
   65  C   5  Y  -0.124777   0.000977  -0.136202   0.002032   0.072562
   66  C   5  Z   0.014070  -0.006018   0.015411  -0.011872  -0.008192
   67  C   5  X  -0.000025   0.023794   0.000226   0.008131  -0.000745
   68  C   5  Y   0.001833   0.000236  -0.014986   0.000066   0.048204
   69  C   5  Z  -0.000188  -0.001308   0.001712  -0.000445  -0.005432
   70  C   5 XX   0.014009   0.000561   0.020750   0.000337  -0.005570
   71  C   5 YY  -0.005691  -0.000341  -0.010832  -0.000205   0.000101
   72  C   5 ZZ  -0.008318  -0.000220  -0.009918  -0.000132   0.005469
   73  C   5 XY   0.000203  -0.020139   0.000362  -0.011935  -0.000028
   74  C   5 XZ  -0.001418   0.002251  -0.001954   0.001346   0.000696
   75  C   5 YZ  -0.000364   0.001129   0.000089   0.000669   0.000721
   76  C   6  S  -0.003271   0.000001   0.004470  -0.000001   0.000911
   77  C   6  S   0.106261  -0.000032  -0.206732   0.000100  -0.191742
   78  C   6  S   0.070087  -0.000011  -0.115606   0.000042  -0.156256
   79  C   6  X  -0.002015   0.109637   0.002179  -0.216106   0.001055
   80  C   6  Y   0.124795   0.001033  -0.136267  -0.002042  -0.072595
   81  C   6  Z  -0.013748  -0.006024   0.014962   0.011876   0.008002
   82  C   6  X   0.000027   0.023772   0.000221  -0.008135   0.000756
   83  C   6  Y  -0.001836   0.000218  -0.014986  -0.000065  -0.048207
   84  C   6  Z   0.000221  -0.001307   0.001630   0.000447   0.005316
   85  C   6 XX   0.014005  -0.000547  -0.020748   0.000324  -0.005570
   86  C   6 YY  -0.005687   0.000335   0.010830  -0.000199   0.000096
   87  C   6 ZZ  -0.008317   0.000212   0.009918  -0.000125   0.005474
   88  C   6 XY   0.000190   0.020143  -0.000356  -0.011938  -0.000029
   89  C   6 XZ  -0.001417  -0.002206   0.001953   0.001296   0.000697
   90  C   6 YZ  -0.000367  -0.001129  -0.000087   0.000669   0.000703
   91  O   7  S   0.002290   0.000001  -0.000728  -0.000001   0.001208
   92  O   7  S  -0.095639   0.000012   0.132589  -0.000039   0.098449
   93  O   7  S  -0.116134   0.000007   0.167434  -0.000044   0.126358
   94  O   7  S  -0.024576  -0.000001   0.032249  -0.000005   0.025612
   95  O   7  X   0.000040   0.025491   0.000898  -0.096460   0.001509
   96  O   7  Y  -0.003018   0.000246  -0.056718  -0.000902  -0.098923
   97  O   7  Z   0.000325  -0.001401   0.006229   0.005300   0.010883
   98  O   7  X   0.000040   0.015080   0.000491  -0.060275   0.000801
   99  O   7  Y  -0.002925   0.000143  -0.030840  -0.000562  -0.052760
  100  O   7  Z   0.000310  -0.000828   0.003387   0.003311   0.005803
  101  O   7  X   0.000170  -0.000984  -0.000166   0.001541  -0.000094
  102  O   7  Y  -0.010801  -0.000010   0.010652   0.000015   0.006128
  103  O   7  Z   0.001188   0.000054  -0.001172  -0.000085  -0.000673
  104  O   7 XX   0.000749  -0.000086   0.001211   0.000179   0.002585
  105  O   7 YY  -0.001827   0.000053  -0.001635  -0.000109  -0.004587
  106  O   7 ZZ   0.001078   0.000033   0.000424  -0.000070   0.002003
  107  O   7 XY   0.000048   0.003151   0.000047  -0.006577   0.000124
  108  O   7 XZ   0.000017  -0.000344  -0.000053   0.000718  -0.000045
  109  O   7 YZ   0.000373  -0.000177   0.000264   0.000368   0.000847
  110  O   7 XX  -0.002205  -0.000130   0.004410   0.000242   0.004344
  111  O   7 YY   0.001685   0.000080  -0.005163  -0.000147  -0.003930
  112  O   7 ZZ   0.000520   0.000050   0.000753  -0.000095  -0.000414
  113  O   7 XY  -0.000054   0.004799   0.000150  -0.008972   0.000114
  114  O   7 XZ   0.000175  -0.000520  -0.000240   0.000975  -0.000307
  115  O   7 YZ  -0.000151  -0.000269   0.000753   0.000502   0.000447
  116  O   8  S   0.002290   0.000001   0.000727  -0.000001   0.001208
  117  O   8  S  -0.095680  -0.000062  -0.132605  -0.000068   0.098428
  118  O   8  S  -0.116181  -0.000079  -0.167444  -0.000084   0.126317
  119  O   8  S  -0.024577  -0.000014  -0.032245  -0.000014   0.025601
  120  O   8  X  -0.000049   0.025488   0.000891   0.096435  -0.001498
  121  O   8  Y   0.003016   0.000238  -0.056700   0.000874   0.098857
  122  O   8  Z  -0.000347  -0.001400   0.006413  -0.005294  -0.011165
  123  O   8  X  -0.000049   0.015076   0.000484   0.060263  -0.000794
  124  O   8  Y   0.002926   0.000140  -0.030830   0.000547   0.052729
  125  O   8  Z  -0.000341  -0.000828   0.003487  -0.003308  -0.005957
  126  O   8  X  -0.000170  -0.000984  -0.000168  -0.001542   0.000096
  127  O   8  Y   0.010797  -0.000005   0.010647  -0.000013  -0.006123
  128  O   8  Z  -0.001219   0.000054  -0.001202   0.000084   0.000693
  129  O   8 XX   0.000748   0.000086  -0.001212   0.000179   0.002584
  130  O   8 YY  -0.001824  -0.000053   0.001635  -0.000107  -0.004582
  131  O   8 ZZ   0.001076  -0.000033  -0.000424  -0.000072   0.001998
  132  O   8 XY   0.000050  -0.003149  -0.000046  -0.006573   0.000123
  133  O   8 XZ   0.000017   0.000353   0.000053   0.000736  -0.000045
  134  O   8 YZ   0.000384   0.000177  -0.000271   0.000368   0.000869
  135  O   8 XX  -0.002204   0.000130  -0.004409   0.000243   0.004344
  136  O   8 YY   0.001684  -0.000077   0.005157  -0.000145  -0.003928
  137  O   8 ZZ   0.000520  -0.000053  -0.000748  -0.000098  -0.000416
  138  O   8 XY  -0.000050  -0.004796  -0.000148  -0.008968   0.000112
  139  O   8 XZ   0.000175   0.000541   0.000241   0.001009  -0.000307
  140  O   8 YZ  -0.000147   0.000268  -0.000780   0.000502   0.000460
  141  H   9  S   0.051085  -0.083693   0.064746  -0.122360   0.106305
  142  H   9  S   0.009228  -0.010147   0.021987  -0.031933   0.014912
  143  H   9  X   0.007632  -0.010640   0.008350  -0.012941   0.008547
  144  H   9  Y  -0.004586   0.007796  -0.000661   0.005016  -0.009024
  145  H   9  Z   0.000100  -0.000295  -0.000380   0.000143   0.000548
  146  H  10  S   0.051102  -0.083727  -0.064703   0.122277   0.106466
  147  H  10  S   0.009229  -0.010158  -0.021981   0.031925   0.014956
  148  H  10  X   0.007489  -0.010396  -0.008323   0.012774   0.008276
  149  H  10  Y   0.004731  -0.007996  -0.000814   0.005250   0.009191
  150  H  10  Z  -0.000940   0.001466   0.000545  -0.001288  -0.001485
  151  H  11  S   0.051074   0.083773   0.064674   0.122314   0.106493
  152  H  11  S   0.009226   0.010167   0.021979   0.031943   0.014966
  153  H  11  X  -0.007485  -0.010403  -0.008319  -0.012777  -0.008279
  154  H  11  Y  -0.004727  -0.008000  -0.000813  -0.005253  -0.009192
  155  H  11  Z   0.000930   0.001451   0.000535   0.001269   0.001472
  156  H  12  S   0.051066   0.083750  -0.064754  -0.122427   0.106343
  157  H  12  S   0.009229   0.010164  -0.021992  -0.031957   0.014914
  158  H  12  X  -0.007629  -0.010646   0.008350   0.012947  -0.008552
  159  H  12  Y   0.004581   0.007796  -0.000659  -0.005014   0.009023
  160  H  12  Z  -0.000107  -0.000309  -0.000372  -0.000127  -0.000557

                     16         17         18         19         20
                   -0.7176    -0.7130    -0.6908    -0.6476    -0.6305
                     A          A          A          A          A   
    1  C   1  S  -0.002662  -0.000011  -0.005636   0.000622  -0.001864
    2  C   1  S   0.012968  -0.003804   0.089173  -0.023883   0.021941
    3  C   1  S  -0.004766  -0.010465   0.138430  -0.050224   0.038675
    4  C   1  X   0.112202  -0.106900   0.094286   0.196755   0.161168
    5  C   1  Y  -0.196516  -0.133065   0.058266   0.163984   0.028321
    6  C   1  Z   0.016178   0.020644  -0.011529  -0.028852  -0.011763
    7  C   1  X   0.044462  -0.045805  -0.007639   0.096263   0.053520
    8  C   1  Y  -0.064899  -0.040023   0.013841   0.042122   0.013785
    9  C   1  Z   0.004957   0.006935  -0.001119  -0.009826  -0.004390
   10  C   1 XX  -0.010604  -0.001835   0.005822   0.007360  -0.008709
   11  C   1 YY   0.008624   0.003650  -0.005834  -0.008774   0.006099
   12  C   1 ZZ   0.001979  -0.001815   0.000012   0.001414   0.002610
   13  C   1 XY   0.005757   0.004510   0.018013  -0.000541   0.016312
   14  C   1 XZ   0.000113  -0.000512  -0.002400  -0.000304  -0.001143
   15  C   1 YZ  -0.001186  -0.000969  -0.000211   0.001365  -0.001345
   16  C   2  S  -0.002659  -0.000017   0.005633   0.000627   0.001861
   17  C   2  S   0.012957  -0.003741  -0.089168  -0.023964  -0.021901
   18  C   2  S  -0.004816  -0.010285  -0.138426  -0.050348  -0.038543
   19  C   2  X   0.105952  -0.111001  -0.096205   0.201524  -0.162375
   20  C   2  Y   0.198659   0.130913   0.056650  -0.160044   0.025232
   21  C   2  Z  -0.027879  -0.008781  -0.001259   0.007275   0.005851
   22  C   2  X   0.042439  -0.047102   0.007142   0.097470  -0.054136
   23  C   2  Y   0.065774   0.039151   0.014054  -0.040212   0.012736
   24  C   2  Z  -0.009614  -0.001887  -0.001983  -0.000648   0.001462
   25  C   2 XX  -0.010278  -0.001577  -0.006802   0.007331   0.007811
   26  C   2 YY   0.008423   0.003493   0.006445  -0.008758  -0.005543
   27  C   2 ZZ   0.001855  -0.001916   0.000357   0.001427  -0.002268
   28  C   2 XY  -0.006272  -0.004718   0.017646   0.001078   0.016677
   29  C   2 XZ   0.001445   0.000509  -0.001545  -0.000485  -0.002508
   30  C   2 YZ  -0.000513  -0.000449  -0.001753   0.001279  -0.000484
   31  C   3  S   0.002658  -0.000002  -0.005634  -0.000628  -0.001860
   32  C   3  S  -0.012919  -0.003872   0.089174   0.023940   0.021876
   33  C   3  S   0.004882  -0.010499   0.138469   0.050296   0.038593
   34  C   3  X   0.105536   0.111404  -0.096028   0.201525  -0.162313
   35  C   3  Y   0.199116  -0.130335   0.056462  -0.160055   0.025526
   36  C   3  Z  -0.028204   0.008578  -0.001080   0.006952   0.005971
   37  C   3  X   0.042253   0.047199   0.007200   0.097474  -0.054107
   38  C   3  Y   0.065877  -0.038926   0.013988  -0.040221   0.012851
   39  C   3  Z  -0.009740   0.001802  -0.001938  -0.000828   0.001510
   40  C   3 XX   0.010284  -0.001551   0.006795  -0.007328  -0.007794
   41  C   3 YY  -0.008439   0.003469  -0.006426   0.008754   0.005534
   42  C   3 ZZ  -0.001845  -0.001918  -0.000368  -0.001426   0.002260
   43  C   3 XY   0.006283  -0.004687  -0.017642  -0.001079  -0.016662
   44  C   3 XZ  -0.001478   0.000502   0.001558   0.000479   0.002512
   45  C   3 YZ   0.000513  -0.000450   0.001788  -0.001273   0.000505
   46  C   4  S   0.002661  -0.000010   0.005634  -0.000623   0.001861
   47  C   4  S  -0.012963  -0.003773  -0.089159   0.023878  -0.021932
   48  C   4  S   0.004836  -0.010279  -0.138478   0.050216  -0.038680
   49  C   4  X   0.111804   0.107219   0.094304   0.196741   0.161043
   50  C   4  Y  -0.197034   0.132356   0.058466   0.163902   0.028014
   51  C   4  Z   0.015964  -0.020710  -0.011742  -0.029189  -0.011903
   52  C   4  X   0.044326   0.046003  -0.007617   0.096264   0.053466
   53  C   4  Y  -0.065069   0.039829   0.013904   0.042086   0.013702
   54  C   4  Z   0.004860  -0.006983  -0.001174  -0.010010  -0.004450
   55  C   4 XX   0.010608  -0.001792  -0.005833  -0.007359   0.008725
   56  C   4 YY  -0.008635   0.003616   0.005852   0.008772  -0.006113
   57  C   4 ZZ  -0.001973  -0.001824  -0.000018  -0.001413  -0.002612
   58  C   4 XY  -0.005776   0.004506  -0.017998   0.000543  -0.016303
   59  C   4 XZ  -0.000143  -0.000516   0.002385   0.000299   0.001136
   60  C   4 YZ   0.001190  -0.000962   0.000245  -0.001368   0.001368
   61  C   5  S   0.000003  -0.001910  -0.002270   0.000002   0.002571
   62  C   5  S   0.000132  -0.085109  -0.134697  -0.000036  -0.046930
   63  C   5  S   0.000118  -0.073483  -0.169261  -0.000073  -0.097228
   64  C   5  X  -0.259337   0.002109   0.001904  -0.080911  -0.003960
   65  C   5  Y  -0.002247  -0.159711  -0.121709  -0.000534   0.253162
   66  C   5  Z   0.014225   0.017917   0.013845   0.004419  -0.028503
   67  C   5  X  -0.061573   0.000473  -0.000379   0.028257  -0.001379
   68  C   5  Y  -0.000524  -0.036539   0.023799   0.000357   0.086365
   69  C   5  Z   0.003376   0.004075  -0.002639  -0.001562  -0.009712
   70  C   5 XX   0.000146  -0.003002   0.020322  -0.000597  -0.005936
   71  C   5 YY  -0.000086  -0.000489  -0.023987   0.000369   0.008888
   72  C   5 ZZ  -0.000060   0.003491   0.003666   0.000228  -0.002952
   73  C   5 XY  -0.005017  -0.000008   0.000694   0.021832  -0.000271
   74  C   5 XZ   0.000554   0.000409  -0.001096  -0.002419   0.000208
   75  C   5 YZ   0.000281   0.000539   0.003637  -0.001225  -0.001554
   76  C   6  S   0.000003  -0.001914   0.002272  -0.000001  -0.002578
   77  C   6  S   0.000121  -0.085228   0.134606   0.000059   0.046943
   78  C   6  S   0.000069  -0.073659   0.169166   0.000085   0.097290
   79  C   6  X  -0.259352  -0.002941   0.001972  -0.080904  -0.003804
   80  C   6  Y  -0.002720   0.159880  -0.121682  -0.000531   0.253416
   81  C   6  Z   0.014282  -0.017706   0.013283   0.004412  -0.027950
   82  C   6  X  -0.061544  -0.000678  -0.000368   0.028262  -0.001367
   83  C   6  Y  -0.000663   0.036484   0.023837   0.000340   0.086419
   84  C   6  Z   0.003391  -0.004066  -0.002672  -0.001565  -0.009537
   85  C   6 XX  -0.000132  -0.002983  -0.020332   0.000594   0.005967
   86  C   6 YY   0.000079  -0.000518   0.024014  -0.000366  -0.008926
   87  C   6 ZZ   0.000052   0.003501  -0.003682  -0.000228   0.002960
   88  C   6 XY   0.005025   0.000009  -0.000689  -0.021828   0.000266
   89  C   6 XZ  -0.000555   0.000407   0.001095   0.002412  -0.000208
   90  C   6 YZ  -0.000281   0.000515  -0.003544   0.001224   0.001528
   91  O   7  S   0.000001  -0.000573  -0.001601   0.000000  -0.000085
   92  O   7  S  -0.000158   0.118194  -0.101804   0.000065   0.064244
   93  O   7  S  -0.000284   0.212837  -0.175044   0.000129   0.136313
   94  O   7  S  -0.000051   0.043279  -0.035699   0.000035   0.042480
   95  O   7  X  -0.202954   0.003616  -0.004136   0.003009   0.003990
   96  O   7  Y  -0.001641  -0.251354   0.264948  -0.000194  -0.245003
   97  O   7  Z   0.011122   0.027531  -0.029188  -0.000148   0.026835
   98  O   7  X  -0.124309   0.001827  -0.002112  -0.008122   0.002190
   99  O   7  Y  -0.001032  -0.129396   0.135632  -0.000198  -0.132886
  100  O   7  Z   0.006815   0.014157  -0.014951   0.000455   0.014543
  101  O   7  X  -0.000726   0.000127  -0.000121   0.003150   0.000143
  102  O   7  Y   0.000008  -0.008190   0.007765   0.000022  -0.008859
  103  O   7  Z   0.000038   0.000903  -0.000852  -0.000173   0.000970
  104  O   7 XX   0.000272   0.006523  -0.007168   0.000064   0.006139
  105  O   7 YY  -0.000157  -0.011961   0.012848  -0.000047  -0.011812
  106  O   7 ZZ  -0.000115   0.005438  -0.005680  -0.000017   0.005673
  107  O   7 XY  -0.010274   0.000313  -0.000353  -0.002131   0.000333
  108  O   7 XZ   0.001120  -0.000089   0.000118   0.000233  -0.000053
  109  O   7 YZ   0.000573   0.002226  -0.002383   0.000121   0.002240
  110  O   7 XX   0.000239   0.002266  -0.001209   0.000119   0.000971
  111  O   7 YY  -0.000140  -0.005056   0.000328  -0.000074  -0.002247
  112  O   7 ZZ  -0.000100   0.002790   0.000881  -0.000045   0.001276
  113  O   7 XY  -0.008914   0.000122  -0.000011  -0.004306   0.000071
  114  O   7 XZ   0.000973   0.000025   0.000132   0.000468   0.000014
  115  O   7 YZ   0.000498   0.000999   0.000068   0.000241   0.000446
  116  O   8  S   0.000002  -0.000574   0.001600   0.000000   0.000085
  117  O   8  S  -0.000191   0.118084   0.101898  -0.000072  -0.064224
  118  O   8  S  -0.000349   0.212631   0.175196  -0.000151  -0.136237
  119  O   8  S  -0.000073   0.043239   0.035731  -0.000046  -0.042449
  120  O   8  X  -0.202851  -0.004312  -0.004214   0.003041   0.003852
  121  O   8  Y  -0.002343   0.250926   0.265028  -0.000211  -0.244686
  122  O   8  Z   0.011193  -0.028441  -0.029871  -0.000139   0.027749
  123  O   8  X  -0.124244  -0.002254  -0.002161  -0.008097   0.002093
  124  O   8  Y  -0.001394   0.129187   0.135693  -0.000206  -0.132732
  125  O   8  Z   0.006851  -0.014658  -0.015283   0.000460   0.015066
  126  O   8  X  -0.000723  -0.000131  -0.000125   0.003153   0.000135
  127  O   8  Y  -0.000018   0.008178   0.007768   0.000024  -0.008848
  128  O   8  Z   0.000041  -0.000922  -0.000879  -0.000172   0.001004
  129  O   8 XX  -0.000292   0.006513   0.007171  -0.000064  -0.006132
  130  O   8 YY   0.000190  -0.011929  -0.012843   0.000047   0.011785
  131  O   8 ZZ   0.000102   0.005416   0.005672   0.000017  -0.005652
  132  O   8 XY   0.010265   0.000348   0.000358   0.002129  -0.000327
  133  O   8 XZ  -0.001151  -0.000094  -0.000119  -0.000238   0.000053
  134  O   8 YZ  -0.000579   0.002299   0.002440  -0.000122  -0.002310
  135  O   8 XX  -0.000248   0.002267   0.001215  -0.000119  -0.000975
  136  O   8 YY   0.000157  -0.005052  -0.000342   0.000074   0.002252
  137  O   8 ZZ   0.000091   0.002785  -0.000872   0.000045  -0.001277
  138  O   8 XY   0.008908   0.000153   0.000014   0.004302  -0.000064
  139  O   8 XZ  -0.000998   0.000021  -0.000132  -0.000483  -0.000014
  140  O   8 YZ  -0.000501   0.001046  -0.000078  -0.000242  -0.000475
  141  H   9  S  -0.003729  -0.122596   0.151383  -0.192156   0.147274
  142  H   9  S   0.005522  -0.025476   0.053267  -0.050169   0.047905
  143  H   9  X   0.001376  -0.009830   0.009038  -0.013346   0.008200
  144  H   9  Y   0.005128   0.003635  -0.006209   0.004903  -0.008102
  145  H   9  Z  -0.000654   0.000127   0.000206   0.000174   0.000463
  146  H  10  S  -0.003810  -0.122469  -0.151512  -0.192461  -0.146756
  147  H  10  S   0.005499  -0.025424  -0.053303  -0.050270  -0.047758
  148  H  10  X   0.001530  -0.009705  -0.008851  -0.013205  -0.007907
  149  H  10  Y  -0.005106  -0.003815  -0.006381  -0.005171  -0.008245
  150  H  10  Z   0.000487   0.000958   0.001198   0.001299   0.001359
  151  H  11  S   0.004247  -0.122563   0.151423   0.192479   0.146977
  152  H  11  S  -0.005403  -0.025490   0.053285   0.050272   0.047831
  153  H  11  X   0.001497   0.009717  -0.008842  -0.013207  -0.007923
  154  H  11  Y  -0.005118   0.003803  -0.006383  -0.005172  -0.008251
  155  H  11  Z   0.000498  -0.000944   0.001188   0.001285   0.001348
  156  H  12  S   0.004210  -0.122465  -0.151583   0.192149  -0.147228
  157  H  12  S  -0.005423  -0.025441  -0.053320   0.050164  -0.047887
  158  H  12  X   0.001337   0.009828   0.009053  -0.013347   0.008196
  159  H  12  Y   0.005144  -0.003611  -0.006213   0.004898  -0.008107
  160  H  12  Z  -0.000646  -0.000119   0.000214   0.000164   0.000474

                     21         22         23         24         25
                   -0.5973    -0.5971    -0.5901    -0.5546    -0.4618
                     A          A          A          A          A   
    1  C   1  S   0.001078  -0.000498   0.002353  -0.000008  -0.001691
    2  C   1  S   0.011972  -0.005590  -0.049777   0.000052   0.026869
    3  C   1  S  -0.011087   0.005109  -0.029502   0.000190   0.025009
    4  C   1  X  -0.008716  -0.004197  -0.156043  -0.002163  -0.089293
    5  C   1  Y  -0.225426   0.087472  -0.026272  -0.004689   0.152686
    6  C   1  Z  -0.034279  -0.138812   0.011265  -0.041879  -0.012249
    7  C   1  X  -0.000514  -0.004371  -0.099916  -0.001263  -0.043858
    8  C   1  Y  -0.079755   0.027401   0.022250  -0.002679   0.045591
    9  C   1  Z  -0.024602  -0.075123   0.002795  -0.023478  -0.002667
   10  C   1 XX  -0.015922   0.008547   0.000578   0.000925   0.003464
   11  C   1 YY   0.015331  -0.005766   0.001868  -0.001547  -0.003994
   12  C   1 ZZ   0.000591  -0.002781  -0.002446   0.000622   0.000530
   13  C   1 XY  -0.001029   0.002236  -0.020108   0.000718  -0.000300
   14  C   1 XZ   0.005952   0.009418   0.002082   0.009870  -0.000140
   15  C   1 YZ   0.000996   0.006459   0.000525  -0.007811   0.000603
   16  C   2  S   0.001085  -0.000504  -0.002347   0.000008  -0.001690
   17  C   2  S   0.011837  -0.005494   0.049837  -0.000052   0.026868
   18  C   2  S  -0.011177   0.005184   0.029494  -0.000193   0.025044
   19  C   2  X  -0.016241  -0.000585   0.156729   0.002156  -0.084524
   20  C   2  Y   0.212049  -0.116030  -0.022445   0.004684  -0.154339
   21  C   2  Z  -0.083016  -0.116155  -0.005738   0.041596   0.021984
   22  C   2  X  -0.003248  -0.003032   0.099154   0.001262  -0.042483
   23  C   2  Y   0.072280  -0.043339   0.024467   0.002578  -0.046434
   24  C   2  Z  -0.041539  -0.067258  -0.007948   0.023323   0.007599
   25  C   2 XX  -0.015972   0.008593   0.000453  -0.000903   0.003446
   26  C   2 YY   0.014337  -0.008015  -0.002485  -0.001547  -0.003980
   27  C   2 ZZ   0.001635  -0.000578   0.002033   0.002450   0.000534
   28  C   2 XY   0.001286   0.000423  -0.019994  -0.001478   0.000534
   29  C   2 XZ   0.005783   0.009806   0.002350  -0.009513  -0.000233
   30  C   2 YZ  -0.004388  -0.004782   0.001685  -0.007903   0.000570
   31  C   3  S   0.001085  -0.000503  -0.002349  -0.000008   0.001690
   32  C   3  S   0.011817  -0.005480   0.049875   0.000055  -0.026877
   33  C   3  S  -0.011210   0.005181   0.029585   0.000194  -0.025035
   34  C   3  X   0.009734  -0.013105  -0.156867  -0.002342  -0.084508
   35  C   3  Y  -0.225307   0.087435   0.022440  -0.004688  -0.154296
   36  C   3  Z  -0.035293  -0.138349   0.006132  -0.041798   0.021799
   37  C   3  X  -0.000357  -0.004648  -0.099227  -0.001263  -0.042446
   38  C   3  Y  -0.079681   0.027345  -0.024462  -0.002678  -0.046395
   39  C   3  Z  -0.024624  -0.075113   0.008245  -0.023440   0.007409
   40  C   3 XX  -0.016872   0.006679   0.000448  -0.000889  -0.003440
   41  C   3 YY   0.015360  -0.005827  -0.002474  -0.001585   0.003979
   42  C   3 ZZ   0.001512  -0.000853   0.002026   0.002474  -0.000539
   43  C   3 XY   0.000486  -0.001274  -0.020008  -0.001546  -0.000531
   44  C   3 XZ  -0.003754  -0.010737   0.002375  -0.009520   0.000243
   45  C   3 YZ   0.000821   0.006463   0.001712  -0.007880  -0.000555
   46  C   4  S   0.001078  -0.000498   0.002355   0.000008   0.001691
   47  C   4  S   0.011975  -0.005597  -0.049815  -0.000053  -0.026863
   48  C   4  S  -0.011097   0.005130  -0.029594  -0.000194  -0.025025
   49  C   4  X   0.002502  -0.009576   0.156099   0.002341  -0.089309
   50  C   4  Y   0.212119  -0.116062   0.026368   0.004701   0.152605
   51  C   4  Z  -0.084071  -0.115722  -0.011460   0.041660  -0.012425
   52  C   4  X  -0.002985  -0.003316   0.099949   0.001261  -0.043895
   53  C   4  Y   0.072319  -0.043385  -0.022247   0.002584   0.045558
   54  C   4  Z  -0.041573  -0.067262  -0.002972   0.023364  -0.002846
   55  C   4 XX  -0.016784   0.006660   0.000576   0.000912  -0.003456
   56  C   4 YY   0.014270  -0.008029   0.001877  -0.001511   0.003983
   57  C   4 ZZ   0.002513   0.001369  -0.002453   0.000599  -0.000527
   58  C   4 XY  -0.002381  -0.000657  -0.020124   0.000647   0.000301
   59  C   4 XZ  -0.003358  -0.010633   0.002080   0.009865   0.000151
   60  C   4 YZ  -0.004273  -0.004922   0.000561  -0.007830  -0.000615
   61  C   5  S   0.003600  -0.001676   0.000007   0.000001   0.000000
   62  C   5  S  -0.003463   0.001623  -0.000046  -0.000033   0.000000
   63  C   5  S  -0.022911   0.010689  -0.000122  -0.000114  -0.000008
   64  C   5  X  -0.008483  -0.009647   0.183374  -0.013009   0.103151
   65  C   5  Y   0.175214  -0.110253   0.002197  -0.027464   0.000990
   66  C   5  Z  -0.118107  -0.198981  -0.010028  -0.241515  -0.005668
   67  C   5  X  -0.003061  -0.005032  -0.013769  -0.006485   0.088381
   68  C   5  Y   0.032910  -0.028946  -0.000019  -0.013662   0.000851
   69  C   5  Z  -0.050082  -0.096449   0.000792  -0.120388  -0.004857
   70  C   5 XX  -0.027109   0.012648  -0.000367   0.000057   0.001287
   71  C   5 YY   0.029805  -0.016427   0.000250  -0.005221  -0.000783
   72  C   5 ZZ  -0.002696   0.003779   0.000116   0.005165  -0.000504
   73  C   5 XY  -0.001166  -0.000124   0.011405  -0.001373  -0.046733
   74  C   5 XZ   0.001647  -0.000486  -0.001294   0.000574   0.005265
   75  C   5 YZ  -0.009363  -0.008351  -0.000643  -0.026054   0.002621
   76  C   6  S   0.003600  -0.001676   0.000007  -0.000001  -0.000002
   77  C   6  S  -0.003444   0.001617   0.000023   0.000039   0.000009
   78  C   6  S  -0.022856   0.010652  -0.000065   0.000131   0.000026
   79  C   6  X  -0.002065  -0.012824  -0.183302   0.013009   0.103155
   80  C   6  Y  -0.196808   0.063258  -0.002074   0.026772   0.001033
   81  C   6  Z  -0.076776  -0.218511   0.010203   0.241398  -0.005675
   82  C   6  X  -0.001895  -0.005576   0.013799   0.006485   0.088352
   83  C   6  Y  -0.043116   0.006775   0.000063   0.013376   0.000872
   84  C   6  Z  -0.041651  -0.100526  -0.000706   0.120314  -0.004860
   85  C   6 XX  -0.027108   0.012610  -0.000369   0.000021  -0.001264
   86  C   6 YY   0.031717  -0.012302   0.000255  -0.005051   0.000777
   87  C   6 ZZ  -0.004609  -0.000308   0.000114   0.005030   0.000487
   88  C   6 XY  -0.000639   0.000977   0.011428  -0.001379   0.046755
   89  C   6 XZ   0.001431  -0.000943  -0.001226   0.000570  -0.005076
   90  C   6 YZ   0.000455   0.012555  -0.000654  -0.026101  -0.002619
   91  O   7  S  -0.000975   0.000454  -0.000003  -0.000001   0.000000
   92  O   7  S  -0.036374   0.016842  -0.000060   0.000002  -0.000004
   93  O   7  S  -0.084094   0.038992  -0.000138  -0.000003  -0.000003
   94  O   7  S  -0.031127   0.014460  -0.000055   0.000008   0.000009
   95  O   7  X  -0.008816  -0.010664  -0.271704   0.017679  -0.402337
   96  O   7  Y   0.211241  -0.128223  -0.002221   0.036334  -0.003943
   97  O   7  Z  -0.128283  -0.212040   0.014994   0.328037   0.022125
   98  O   7  X  -0.005500  -0.007629  -0.194368   0.012601  -0.309959
   99  O   7  Y   0.109460  -0.071604  -0.001660   0.025890  -0.003030
  100  O   7  Z  -0.084499  -0.148122   0.010732   0.233821   0.017045
  101  O   7  X  -0.000424  -0.000587  -0.019075   0.001454  -0.061619
  102  O   7  Y   0.008766  -0.005670  -0.000167   0.002988  -0.000599
  103  O   7  Z  -0.006521  -0.011377   0.001053   0.026972   0.003388
  104  O   7 XX  -0.005880   0.002756   0.000288  -0.000025   0.000205
  105  O   7 YY   0.009598  -0.007569  -0.000163   0.003306  -0.000128
  106  O   7 ZZ  -0.003718   0.004813  -0.000125  -0.003281  -0.000078
  107  O   7 XY  -0.000608  -0.000568  -0.010941   0.000899  -0.007484
  108  O   7 XZ   0.000216   0.000252   0.001194  -0.000374   0.000817
  109  O   7 YZ  -0.008138  -0.012238   0.000615   0.017029   0.000420
  110  O   7 XX   0.000468  -0.000194   0.000355  -0.000032   0.000320
  111  O   7 YY  -0.004491  -0.001280  -0.000222   0.004043  -0.000197
  112  O   7 ZZ   0.004023   0.001474  -0.000133  -0.004011  -0.000123
  113  O   7 XY  -0.000253  -0.000806  -0.013015   0.001100  -0.011760
  114  O   7 XZ   0.000282   0.000250   0.001418  -0.000456   0.001279
  115  O   7 YZ  -0.005875  -0.014648   0.000737   0.020838   0.000659
  116  O   8  S  -0.000975   0.000454  -0.000002   0.000000   0.000000
  117  O   8  S  -0.036457   0.016875  -0.000071  -0.000002  -0.000003
  118  O   8  S  -0.084252   0.039057  -0.000170   0.000003  -0.000001
  119  O   8  S  -0.031178   0.014484  -0.000067  -0.000005   0.000004
  120  O   8  X  -0.002472  -0.013342   0.271655  -0.017668  -0.402473
  121  O   8  Y  -0.234776   0.078181   0.002160  -0.037337  -0.003863
  122  O   8  Z  -0.078398  -0.234767  -0.014768  -0.328077   0.022118
  123  O   8  X  -0.002287  -0.008930   0.194331  -0.012593  -0.310064
  124  O   8  Y  -0.125676   0.037078   0.001629  -0.026623  -0.002981
  125  O   8  Z  -0.058171  -0.160047  -0.010577  -0.233850   0.017040
  126  O   8  X  -0.000174  -0.000686   0.019068  -0.001453  -0.061637
  127  O   8  Y  -0.010008   0.003013   0.000164  -0.003070  -0.000594
  128  O   8  Z  -0.004418  -0.012327  -0.001039  -0.026974   0.003388
  129  O   8 XX  -0.005905   0.002719   0.000288  -0.000025  -0.000205
  130  O   8 YY   0.012009  -0.002386  -0.000161   0.003398   0.000124
  131  O   8 ZZ  -0.006104  -0.000333  -0.000127  -0.003373   0.000081
  132  O   8 XY   0.000040   0.000819  -0.010935   0.000897   0.007483
  133  O   8 XZ  -0.000054  -0.000329   0.001226  -0.000378  -0.000838
  134  O   8 YZ   0.004034   0.014101   0.000602   0.017013  -0.000419
  135  O   8 XX   0.000443  -0.000234   0.000358  -0.000030  -0.000323
  136  O   8 YY  -0.001867   0.004337  -0.000224   0.004162   0.000197
  137  O   8 ZZ   0.001423  -0.004102  -0.000134  -0.004132   0.000126
  138  O   8 XY   0.000453   0.000697  -0.013012   0.001098   0.011764
  139  O   8 XZ  -0.000012  -0.000379   0.001460  -0.000462  -0.001322
  140  O   8 YZ   0.007408   0.013889   0.000724   0.020822  -0.000660
  141  H   9  S  -0.099127   0.046251   0.171346   0.000098  -0.024458
  142  H   9  S  -0.039898   0.018615   0.058819   0.000060  -0.021206
  143  H   9  X  -0.007301   0.003115   0.009748  -0.000103  -0.002766
  144  H   9  Y  -0.002264   0.000457  -0.008922  -0.000216  -0.000364
  145  H   9  Z  -0.001392  -0.004618   0.000475  -0.001895   0.000185
  146  H  10  S  -0.098696   0.045873  -0.171752  -0.000106  -0.024461
  147  H  10  S  -0.039752   0.018492  -0.058987  -0.000064  -0.021209
  148  H  10  X  -0.007339   0.003123  -0.009495   0.000103  -0.002777
  149  H  10  Y   0.001697  -0.001386  -0.009095   0.000210   0.000311
  150  H  10  Z  -0.001836  -0.004413   0.001540   0.001892   0.000109
  151  H  11  S  -0.098584   0.045835  -0.171619   0.000099   0.024509
  152  H  11  S  -0.039713   0.018476  -0.058933   0.000060   0.021235
  153  H  11  X   0.007118  -0.003588   0.009488  -0.000101  -0.002781
  154  H  11  Y  -0.002156   0.000415   0.009092  -0.000216   0.000311
  155  H  11  Z  -0.002181  -0.004253  -0.001526  -0.001898   0.000120
  156  H  12  S  -0.099217   0.046264   0.171229  -0.000097   0.024454
  157  H  12  S  -0.039930   0.018623   0.058777  -0.000060   0.021215
  158  H  12  X   0.007089  -0.003583  -0.009743   0.000101  -0.002766
  159  H  12  Y   0.001810  -0.001430   0.008913   0.000210  -0.000367
  160  H  12  Z  -0.002626  -0.004045  -0.000477   0.001889   0.000196

                     26         27         28         29         30
                   -0.4463    -0.4134    -0.4133     0.0056     0.1200
                     A          A          A          A          A   
    1  C   1  S  -0.001331  -0.000009  -0.000005   0.000011   0.000026
    2  C   1  S   0.057335  -0.000045  -0.000011   0.000072   0.000054
    3  C   1  S   0.139403   0.000020   0.000118   0.000059  -0.000999
    4  C   1  X  -0.166713  -0.002886   0.018294  -0.009576   0.013996
    5  C   1  Y   0.032370  -0.006169   0.038659  -0.020105   0.029696
    6  C   1  Z   0.005189  -0.055487   0.344310  -0.178960   0.264025
    7  C   1  X  -0.095379  -0.001825   0.014110  -0.013102   0.027509
    8  C   1  Y  -0.051741  -0.003799   0.029932  -0.027476   0.058429
    9  C   1  Z   0.010898  -0.033812   0.266477  -0.244916   0.515426
   10  C   1 XX  -0.001122   0.000011  -0.000450   0.001231  -0.000330
   11  C   1 YY   0.001758   0.000323  -0.006145  -0.003262   0.004291
   12  C   1 ZZ  -0.000636  -0.000334   0.006596   0.002031  -0.003961
   13  C   1 XY  -0.023485   0.000092  -0.002239   0.000595   0.000771
   14  C   1 XZ   0.002689   0.000018  -0.004676   0.013144  -0.003788
   15  C   1 YZ   0.000973   0.001690  -0.031154  -0.016493   0.021931
   16  C   2  S   0.001331  -0.000009  -0.000005  -0.000010  -0.000026
   17  C   2  S  -0.057341  -0.000042  -0.000013  -0.000072  -0.000063
   18  C   2  S  -0.139456   0.000017   0.000089  -0.000069   0.000983
   19  C   2  X   0.165704  -0.002900   0.018372   0.009599  -0.014031
   20  C   2  Y   0.035706  -0.006291   0.038689   0.020107  -0.029613
   21  C   2  Z  -0.012879  -0.055454   0.344297   0.179022  -0.264120
   22  C   2  X   0.097022  -0.001831   0.014160   0.013142  -0.027624
   23  C   2  Y  -0.049828  -0.003786   0.029897   0.027554  -0.057376
   24  C   2  Z   0.000355  -0.033797   0.266473   0.245002  -0.515715
   25  C   2 XX   0.002391   0.000016  -0.000542  -0.001185   0.000266
   26  C   2 YY  -0.002536  -0.000343   0.006123  -0.003254   0.004349
   27  C   2 ZZ   0.000145   0.000327  -0.005581   0.004439  -0.004615
   28  C   2 XY  -0.023360  -0.000078   0.001015  -0.002296   0.001511
   29  C   2 XZ   0.002495   0.000088  -0.006044  -0.012411   0.002799
   30  C   2 YZ   0.001625  -0.001688   0.031116  -0.016585   0.021930
   31  C   3  S   0.001329  -0.000005  -0.000009   0.000011  -0.000025
   32  C   3  S  -0.057311  -0.000005  -0.000051   0.000072  -0.000058
   33  C   3  S  -0.139406   0.000114   0.000013   0.000059   0.000919
   34  C   3  X  -0.165636   0.018862  -0.002568  -0.009708  -0.014448
   35  C   3  Y  -0.035641   0.038823  -0.005069  -0.020120  -0.029719
   36  C   3  Z   0.013063   0.345708  -0.045618  -0.179004  -0.264050
   37  C   3  X  -0.096991   0.014631  -0.001405  -0.013294  -0.028010
   38  C   3  Y   0.049863   0.030038  -0.002941  -0.027493  -0.058461
   39  C   3  Z  -0.000339   0.267261  -0.026188  -0.244993  -0.515529
   40  C   3 XX   0.002394   0.000554   0.000017  -0.001160  -0.000284
   41  C   3 YY  -0.002531  -0.006134   0.000147  -0.003310  -0.004303
   42  C   3 ZZ   0.000138   0.005580  -0.000164   0.004470   0.004587
   43  C   3 XY  -0.023359  -0.001055   0.000055  -0.002340  -0.001545
   44  C   3 XZ   0.002508   0.006046   0.000082  -0.012411  -0.002800
   45  C   3 YZ   0.001654  -0.031154   0.000800  -0.016577  -0.021937
   46  C   4  S  -0.001332  -0.000005  -0.000009  -0.000010   0.000026
   47  C   4  S   0.057336  -0.000019  -0.000035  -0.000073   0.000049
   48  C   4  S   0.139433   0.000089   0.000034  -0.000071  -0.000999
   49  C   4  X   0.166741   0.018850  -0.002525   0.009702   0.014442
   50  C   4  Y  -0.032436   0.038868  -0.005192   0.020113   0.029622
   51  C   4  Z  -0.005430   0.345726  -0.045595   0.178981   0.263973
   52  C   4  X   0.095410   0.014628  -0.001391   0.013272   0.028037
   53  C   4  Y   0.051732   0.030010  -0.002933   0.027555   0.057420
   54  C   4  Z  -0.010959   0.267294  -0.026180   0.244957   0.515481
   55  C   4 XX  -0.001127   0.000460   0.000019   0.001208   0.000355
   56  C   4 YY   0.001766   0.006152  -0.000168  -0.003209  -0.004341
   57  C   4 ZZ  -0.000640  -0.006612   0.000149   0.002000   0.003987
   58  C   4 XY  -0.023486   0.002270  -0.000037   0.000549  -0.000798
   59  C   4 XZ   0.002677   0.004672   0.000120   0.013145   0.003792
   60  C   4 YZ   0.000998   0.031186  -0.000799  -0.016503  -0.021920
   61  C   5  S   0.000001   0.000010   0.000010   0.000012   0.000000
   62  C   5  S   0.000000   0.000016   0.000022   0.000064  -0.000002
   63  C   5  S  -0.000021  -0.000121  -0.000117   0.000240   0.000018
   64  C   5  X   0.171173  -0.001976  -0.001993  -0.011292  -0.000032
   65  C   5  Y   0.001660  -0.004117  -0.004240  -0.023908   0.000017
   66  C   5  Z  -0.009402  -0.036502  -0.037540  -0.209675   0.000147
   67  C   5  X   0.108411  -0.001351  -0.001412  -0.011007   0.000472
   68  C   5  Y   0.001060  -0.002755  -0.002834  -0.023056   0.000043
   69  C   5  Z  -0.005955  -0.025383  -0.026111  -0.204346   0.000205
   70  C   5 XX   0.001478  -0.001649   0.001631  -0.000006   0.003403
   71  C   5 YY  -0.000898  -0.005345  -0.005434   0.006924   0.000071
   72  C   5 ZZ  -0.000580   0.006993   0.003803  -0.006918  -0.003474
   73  C   5 XY  -0.054081  -0.003444   0.000519   0.001839   0.004154
   74  C   5 XZ   0.006051  -0.017176   0.017889  -0.000777   0.036389
   75  C   5 YZ   0.003034  -0.026802  -0.027468   0.034854   0.000115
   76  C   6  S   0.000001   0.000010   0.000010  -0.000013   0.000001
   77  C   6  S   0.000009   0.000017   0.000011  -0.000057   0.000002
   78  C   6  S  -0.000010  -0.000122  -0.000133  -0.000220   0.000000
   79  C   6  X  -0.171194  -0.001961  -0.002047   0.011303   0.000044
   80  C   6  Y  -0.001671  -0.004079  -0.004200   0.023196   0.000023
   81  C   6  Z   0.009420  -0.036471  -0.037504   0.209705   0.000181
   82  C   6  X  -0.108437  -0.001326  -0.001452   0.011014  -0.000508
   83  C   6  Y  -0.001074  -0.002935  -0.003016   0.022877  -0.000016
   84  C   6  Z   0.005970  -0.025348  -0.026049   0.204327   0.000313
   85  C   6 XX   0.001462  -0.001731   0.001551  -0.000098  -0.003411
   86  C   6 YY  -0.000896   0.005201   0.005412   0.006815  -0.000062
   87  C   6 ZZ  -0.000567  -0.003470  -0.006963  -0.006717   0.003473
   88  C   6 XY  -0.054114  -0.000573   0.003379   0.001841  -0.004081
   89  C   6 XZ   0.005912  -0.018363   0.016673  -0.000763  -0.036395
   90  C   6 YZ   0.003029   0.026716   0.027598   0.034897  -0.000120
   91  O   7  S   0.000000  -0.000001  -0.000001  -0.000006   0.000001
   92  O   7  S   0.000004   0.000013   0.000012   0.000044   0.000004
   93  O   7  S   0.000000  -0.000007  -0.000006   0.000193  -0.000007
   94  O   7  S  -0.000018  -0.000057  -0.000056   0.000321  -0.000045
   95  O   7  X   0.344763  -0.010390  -0.010155  -0.013380  -0.000217
   96  O   7  Y   0.003387  -0.020737  -0.021319  -0.027395  -0.000008
   97  O   7  Z  -0.018938  -0.188021  -0.193371  -0.248168  -0.000082
   98  O   7  X   0.262864  -0.008242  -0.008028  -0.013610  -0.000135
   99  O   7  Y   0.002575  -0.016439  -0.016900  -0.027841  -0.000018
  100  O   7  Z  -0.014439  -0.148890  -0.153136  -0.252433  -0.000096
  101  O   7  X   0.055216  -0.001594  -0.001560  -0.003961   0.000417
  102  O   7  Y   0.000534  -0.003207  -0.003297  -0.007791  -0.000036
  103  O   7  Z  -0.003033  -0.028872  -0.029694  -0.073442  -0.000231
  104  O   7 XX  -0.000115  -0.000069   0.000080  -0.000004  -0.000096
  105  O   7 YY   0.000072  -0.001179  -0.001209   0.000161  -0.000001
  106  O   7 ZZ   0.000043   0.001248   0.001128  -0.000157   0.000097
  107  O   7 XY   0.004176  -0.000418  -0.000236   0.000043  -0.000126
  108  O   7 XZ  -0.000455  -0.000677   0.000926  -0.000018  -0.001023
  109  O   7 YZ  -0.000234  -0.006083  -0.006249   0.000820   0.000003
  110  O   7 XX  -0.000147   0.000196  -0.000153  -0.000009  -0.001558
  111  O   7 YY   0.000090  -0.002273  -0.002344  -0.000541  -0.000033
  112  O   7 ZZ   0.000056   0.002077   0.002497   0.000550   0.001591
  113  O   7 XY   0.005364  -0.000424  -0.000827  -0.000154  -0.001775
  114  O   7 XZ  -0.000585   0.002148  -0.001574   0.000065  -0.016632
  115  O   7 YZ  -0.000300  -0.011722  -0.012072  -0.002909  -0.000075
  116  O   8  S   0.000000   0.000000   0.000000   0.000005   0.000000
  117  O   8  S   0.000000   0.000011   0.000012  -0.000043   0.000003
  118  O   8  S  -0.000002  -0.000013  -0.000014  -0.000181  -0.000001
  119  O   8  S  -0.000004  -0.000058  -0.000061  -0.000284  -0.000028
  120  O   8  X  -0.344722  -0.010343  -0.010228   0.013360   0.000202
  121  O   8  Y  -0.003327  -0.021480  -0.022103   0.028333  -0.000013
  122  O   8  Z   0.018966  -0.187927  -0.193460   0.248094  -0.000100
  123  O   8  X  -0.262827  -0.008204  -0.008088   0.013589   0.000128
  124  O   8  Y  -0.002535  -0.016993  -0.017486   0.028838  -0.000007
  125  O   8  Z   0.014460  -0.148822  -0.153209   0.252344  -0.000109
  126  O   8  X  -0.055206  -0.001586  -0.001575   0.003949  -0.000428
  127  O   8  Y  -0.000530  -0.003276  -0.003372   0.008668  -0.000011
  128  O   8  Z   0.003036  -0.028864  -0.029718   0.073379  -0.000135
  129  O   8 XX  -0.000115  -0.000088   0.000062   0.000002   0.000096
  130  O   8 YY   0.000070   0.001214   0.001252   0.000162   0.000001
  131  O   8 ZZ   0.000045  -0.001127  -0.001315  -0.000164  -0.000097
  132  O   8 XY   0.004173   0.000233   0.000414   0.000043   0.000106
  133  O   8 XZ  -0.000469  -0.000947   0.000651  -0.000018   0.001026
  134  O   8 YZ  -0.000235   0.006067   0.006250   0.000821  -0.000001
  135  O   8 XX  -0.000147   0.000160  -0.000188   0.000017   0.001553
  136  O   8 YY   0.000089   0.002346   0.002407  -0.000602   0.000033
  137  O   8 ZZ   0.000058  -0.002506  -0.002219   0.000584  -0.001587
  138  O   8 XY   0.005363   0.000848   0.000412  -0.000153   0.001983
  139  O   8 XZ  -0.000600   0.001627  -0.002103   0.000064   0.016607
  140  O   8 YZ  -0.000302   0.011722   0.012054  -0.002901   0.000062
  141  H   9  S   0.096668  -0.000025   0.000072   0.000020   0.000057
  142  H   9  S   0.039467   0.000003   0.000073   0.000084   0.000049
  143  H   9  X   0.000806   0.000634  -0.000115  -0.000414  -0.000772
  144  H   9  Y  -0.003302   0.001308  -0.000243  -0.000852  -0.001572
  145  H   9  Z   0.000329   0.011644  -0.002118  -0.007611  -0.014022
  146  H  10  S  -0.096704  -0.000018   0.000047  -0.000025  -0.000046
  147  H  10  S  -0.039485   0.000004   0.000056  -0.000108   0.000021
  148  H  10  X  -0.000703   0.000634  -0.000115   0.000413   0.000772
  149  H  10  Y  -0.003316   0.001309  -0.000234   0.000859   0.001579
  150  H  10  Z   0.000411   0.011646  -0.002119   0.007609   0.014014
  151  H  11  S  -0.096675   0.000064  -0.000038   0.000016  -0.000041
  152  H  11  S  -0.039466   0.000066  -0.000005   0.000084   0.000013
  153  H  11  X   0.000702  -0.000131   0.000617  -0.000406   0.000738
  154  H  11  Y   0.003314  -0.000280   0.001301  -0.000851   0.001570
  155  H  11  Z  -0.000412  -0.002450   0.011584  -0.007610   0.014019
  156  H  12  S   0.096664   0.000057  -0.000001  -0.000029   0.000071
  157  H  12  S   0.039453   0.000064   0.000018  -0.000105   0.000086
  158  H  12  X  -0.000805  -0.000131   0.000619   0.000407  -0.000740
  159  H  12  Y   0.003304  -0.000271   0.001301   0.000858  -0.001579
  160  H  12  Z  -0.000329  -0.002450   0.011583   0.007613  -0.014025

                     31         32         33         34         35
                    0.1630     0.1737     0.1801     0.1935     0.1951
                     A          A          A          A          A   
    1  C   1  S   0.000157  -0.017626  -0.010688  -0.005331   0.013305
    2  C   1  S  -0.000667   0.061308   0.024052  -0.071683  -0.013181
    3  C   1  S  -0.006736   0.715518   0.422222  -0.236590  -0.390504
    4  C   1  X   0.003332   0.068539   0.117956  -0.024669   0.002970
    5  C   1  Y   0.007790   0.072530   0.041129  -0.026055   0.001266
    6  C   1  Z   0.074672  -0.011159  -0.010933   0.004283  -0.000092
    7  C   1  X   0.005954   0.333977   0.408202  -0.533460   0.267198
    8  C   1  Y   0.016616   0.313172   0.195538  -0.031243  -0.005253
    9  C   1  Z   0.174799  -0.051184  -0.043756   0.031978  -0.013240
   10  C   1 XX   0.002499  -0.006006   0.007101  -0.005790  -0.022416
   11  C   1 YY  -0.002185   0.007514  -0.002213   0.011840  -0.002210
   12  C   1 ZZ  -0.000313  -0.001509  -0.004888  -0.006050   0.024626
   13  C   1 XY   0.002422  -0.003227  -0.001226  -0.008182  -0.000144
   14  C   1 XZ   0.025774   0.000888  -0.000604   0.000906   0.002994
   15  C   1 YZ  -0.010743  -0.001095  -0.000286  -0.001893   0.003532
   16  C   2  S   0.000160  -0.017635  -0.010682   0.005319   0.013318
   17  C   2  S  -0.000636   0.061320   0.024069   0.071672  -0.013127
   18  C   2  S  -0.006762   0.715970   0.422243   0.236833  -0.390551
   19  C   2  X   0.003306   0.070801   0.119258   0.025439   0.003020
   20  C   2  Y   0.008909  -0.071047  -0.038832  -0.025598  -0.001176
   21  C   2  Z   0.074290   0.004817  -0.002028   0.001470   0.000151
   22  C   2  X   0.006035   0.343623   0.414547   0.533822   0.267452
   23  C   2  Y   0.022305  -0.306092  -0.187465  -0.020837   0.010435
   24  C   2  Z   0.173515   0.017734  -0.001145  -0.026188  -0.015122
   25  C   2 XX   0.002475  -0.006161   0.007041   0.006249  -0.022430
   26  C   2 YY   0.002081   0.007645  -0.002184  -0.012108  -0.002201
   27  C   2 ZZ  -0.004556  -0.001483  -0.004857   0.005859   0.024631
   28  C   2 XY   0.003368   0.002842   0.001383  -0.007536   0.000095
   29  C   2 XZ   0.025320   0.000211  -0.000895   0.000825   0.002969
   30  C   2 YZ   0.010968  -0.001251  -0.000433   0.002782   0.003560
   31  C   3  S   0.000158  -0.017656   0.010634  -0.005333   0.013301
   32  C   3  S  -0.000665   0.061403  -0.023886  -0.071699  -0.013189
   33  C   3  S  -0.006772   0.716674  -0.420161  -0.236575  -0.390395
   34  C   3  X   0.004711  -0.071097   0.119048   0.025496  -0.002981
   35  C   3  Y   0.007777   0.071316  -0.038646  -0.025596   0.001199
   36  C   3  Z   0.074370  -0.003524  -0.002124   0.001531   0.000232
   37  C   3  X   0.012853  -0.344699   0.413239   0.534357  -0.266803
   38  C   3  Y   0.016634   0.307294  -0.186720  -0.021102  -0.010331
   39  C   3  Z   0.173857  -0.014044  -0.001488  -0.026691   0.016080
   40  C   3 XX  -0.002280  -0.006199  -0.007043  -0.006222  -0.022429
   41  C   3 YY  -0.002290   0.007603   0.002196   0.012109  -0.002204
   42  C   3 ZZ   0.004570  -0.001403   0.004847  -0.005887   0.024633
   43  C   3 XY  -0.003563   0.002794  -0.001390   0.007530   0.000087
   44  C   3 XZ  -0.025310  -0.000272   0.000909  -0.000857   0.002927
   45  C   3 YZ  -0.010930  -0.001439   0.000429  -0.002775   0.003519
   46  C   4  S   0.000162  -0.017665   0.010629   0.005324   0.013315
   47  C   4  S  -0.000641   0.061353  -0.023892   0.071694  -0.013134
   48  C   4  S  -0.006804   0.717043  -0.419930   0.236623  -0.390644
   49  C   4  X   0.004717  -0.068839   0.117791  -0.024686  -0.002952
   50  C   4  Y   0.008957  -0.072497   0.040924  -0.026087  -0.001230
   51  C   4  Z   0.074452   0.012536  -0.010984   0.004231   0.000484
   52  C   4  X   0.012724  -0.334782   0.407532  -0.533331  -0.267639
   53  C   4  Y   0.022485  -0.313072   0.194483  -0.031090   0.005306
   54  C   4  Z   0.173734   0.055185  -0.043980   0.032498   0.014319
   55  C   4 XX  -0.002316  -0.006030  -0.007115   0.005818  -0.022422
   56  C   4 YY   0.001987   0.007544   0.002245  -0.011847  -0.002209
   57  C   4 ZZ   0.000329  -0.001515   0.004870   0.006029   0.024631
   58  C   4 XY  -0.002217  -0.003285   0.001225   0.008198  -0.000149
   59  C   4 XZ  -0.025810   0.000396   0.000620  -0.000884   0.002953
   60  C   4 YZ   0.010765  -0.000917   0.000283   0.001901   0.003574
   61  C   5  S  -0.000046   0.003129   0.000002  -0.005302   0.004998
   62  C   5  S  -0.000025  -0.001283  -0.000012   0.013743  -0.046938
   63  C   5  S   0.001320  -0.029084   0.000037  -0.890973  -1.032605
   64  C   5  X  -0.016813  -0.000636   0.040985   0.000025   0.000184
   65  C   5  Y  -0.035776   0.026523   0.000448  -0.003749  -0.012254
   66  C   5  Z  -0.312240  -0.005955  -0.002244   0.000273   0.001055
   67  C   5  X  -0.036399   0.001521   0.285529   0.003117   0.011409
   68  C   5  Y  -0.074832  -0.145035   0.002526  -0.199891  -0.714054
   69  C   5  Z  -0.675366   0.009308  -0.015643   0.021987   0.080036
   70  C   5 XX  -0.000256   0.020673  -0.000221   0.007273   0.013818
   71  C   5 YY   0.002280  -0.021230   0.000125  -0.040644  -0.044771
   72  C   5 ZZ  -0.002024   0.000557   0.000096   0.033370   0.030953
   73  C   5 XY   0.000517   0.000614   0.009227   0.001069   0.001203
   74  C   5 XZ  -0.000191  -0.001306  -0.001038   0.001566   0.000993
   75  C   5 YZ   0.009879   0.002922  -0.000514   0.009788   0.010035
   76  C   6  S  -0.000047   0.003137   0.000009   0.005308   0.004990
   77  C   6  S  -0.000041  -0.001265   0.000000  -0.013692  -0.046972
   78  C   6  S   0.001551  -0.029113  -0.000052   0.892145  -1.032186
   79  C   6  X  -0.016844   0.000169   0.041001   0.000057  -0.000219
   80  C   6  Y  -0.034387  -0.027167   0.000370  -0.003721   0.012186
   81  C   6  Z  -0.312423   0.000022  -0.002251   0.000600  -0.001631
   82  C   6  X  -0.036365  -0.003015   0.285948   0.003062  -0.011314
   83  C   6  Y  -0.076871   0.143157   0.002872  -0.200678   0.714310
   84  C   6  Z  -0.675220  -0.022838  -0.015723   0.022736  -0.079039
   85  C   6 XX  -0.000229   0.020659   0.000272  -0.007296   0.013816
   86  C   6 YY  -0.001623  -0.021252  -0.000172   0.040754  -0.044803
   87  C   6 ZZ   0.001852   0.000593  -0.000100  -0.033458   0.030987
   88  C   6 XY  -0.000536   0.000629  -0.009232  -0.001065   0.001194
   89  C   6 XZ   0.000213  -0.001307   0.001003  -0.001572   0.000998
   90  C   6 YZ  -0.009987   0.002725   0.000519  -0.009581   0.009741
   91  O   7  S   0.000075  -0.006183  -0.000009   0.006720  -0.014175
   92  O   7  S   0.000206  -0.007476   0.000007   0.086862  -0.024941
   93  O   7  S  -0.001007   0.106238   0.000180   0.083992   0.220081
   94  O   7  S  -0.001770  -0.002749  -0.000188  -0.812201   1.495576
   95  O   7  X   0.007717   0.000838   0.045666   0.000484   0.000463
   96  O   7  Y   0.016414  -0.052287   0.000376  -0.031464  -0.027610
   97  O   7  Z   0.143245   0.006943  -0.002507   0.003684   0.003426
   98  O   7  X   0.009213   0.000835   0.072159   0.005060  -0.002783
   99  O   7  Y   0.019011  -0.053865   0.000584  -0.321792   0.179556
  100  O   7  Z   0.170942   0.007346  -0.003963   0.035827  -0.019053
  101  O   7  X   0.029781  -0.000986  -0.482211  -0.005607  -0.021411
  102  O   7  Y   0.059663   0.124409  -0.004465   0.360981   1.359438
  103  O   7  Z   0.552302  -0.007267   0.026501  -0.041788  -0.150406
  104  O   7 XX   0.000026  -0.000578  -0.000272   0.000213   0.004419
  105  O   7 YY  -0.002950   0.000650   0.000167  -0.005456  -0.011609
  106  O   7 ZZ   0.002924  -0.000071   0.000104   0.005244   0.007191
  107  O   7 XY  -0.000800  -0.000041   0.009935   0.000138   0.000312
  108  O   7 XZ   0.000332   0.000036  -0.001085   0.000307   0.000153
  109  O   7 YZ  -0.015160  -0.000265  -0.000557   0.001418   0.002426
  110  O   7 XX  -0.000040   0.004881   0.000814   0.029818  -0.048491
  111  O   7 YY   0.006849  -0.007643  -0.000511  -0.035639   0.086536
  112  O   7 ZZ  -0.006810   0.002762  -0.000303   0.005821  -0.038045
  113  O   7 XY   0.001866   0.000270  -0.029436   0.001033  -0.002388
  114  O   7 XZ  -0.000786  -0.000157   0.003211  -0.001580   0.000822
  115  O   7 YZ   0.035378   0.001773   0.001652   0.005218  -0.016003
  116  O   8  S   0.000072  -0.006189  -0.000010  -0.006703  -0.014174
  117  O   8  S   0.000187  -0.007500  -0.000013  -0.086786  -0.024982
  118  O   8  S  -0.001005   0.106299   0.000162  -0.084184   0.219896
  119  O   8  S  -0.001580  -0.002476  -0.000072   0.810348   1.495626
  120  O   8  X   0.007724  -0.000833   0.045640   0.000499  -0.000415
  121  O   8  Y   0.015766   0.052543   0.000509  -0.031505   0.027659
  122  O   8  Z   0.143290  -0.004742  -0.002520   0.003336  -0.002746
  123  O   8  X   0.009208  -0.000880   0.072174   0.005075   0.002870
  124  O   8  Y   0.019311   0.054096   0.000772  -0.321426  -0.179513
  125  O   8  Z   0.170858  -0.004690  -0.003976   0.035875   0.020929
  126  O   8  X   0.029684   0.002946  -0.481932  -0.005649   0.021413
  127  O   8  Y   0.064286  -0.122929  -0.004731   0.362182  -1.358594
  128  O   8  Z   0.551630   0.020264   0.026460  -0.039004   0.152726
  129  O   8 XX  -0.000019  -0.000581   0.000271  -0.000214   0.004418
  130  O   8 YY   0.003018   0.000717  -0.000163   0.005465  -0.011594
  131  O   8 ZZ  -0.002999  -0.000137  -0.000108  -0.005252   0.007175
  132  O   8 XY   0.000798   0.000002  -0.009926  -0.000140   0.000313
  133  O   8 XZ  -0.000336   0.000026   0.001112  -0.000307   0.000152
  134  O   8 YZ   0.015138   0.000059   0.000555  -0.001387   0.002480
  135  O   8 XX   0.000059   0.004879  -0.000795  -0.029771  -0.048510
  136  O   8 YY  -0.007062  -0.007799   0.000471   0.035502   0.086476
  137  O   8 ZZ   0.007003   0.002919   0.000324  -0.005731  -0.037967
  138  O   8 XY  -0.001861   0.000155   0.029396  -0.001023  -0.002398
  139  O   8 XZ   0.000793  -0.000129  -0.003295   0.001583   0.000830
  140  O   8 YZ  -0.035315   0.000980  -0.001643  -0.005502  -0.016437
  141  H   9  S   0.000643  -0.042701   0.016780  -0.001499  -0.028254
  142  H   9  S   0.009780  -1.000336   0.751030   0.644857  -0.304044
  143  H   9  X   0.000464  -0.006277   0.008210   0.003720   0.000667
  144  H   9  Y   0.000806   0.007147  -0.002434  -0.003605   0.002351
  145  H   9  Z   0.007680  -0.000386  -0.000177   0.000209  -0.000286
  146  H  10  S   0.000643  -0.042675   0.016782   0.001564  -0.028270
  147  H  10  S   0.009718  -1.000145   0.751166  -0.644437  -0.304577
  148  H  10  X   0.000463  -0.006054   0.008130  -0.003608   0.000742
  149  H  10  Y   0.000922  -0.007250   0.002591  -0.003673  -0.002339
  150  H  10  Z   0.007680   0.001222  -0.000736   0.000601   0.000235
  151  H  11  S   0.000644  -0.042614  -0.016879  -0.001501  -0.028258
  152  H  11  S   0.009790  -0.998140  -0.753919   0.644813  -0.304109
  153  H  11  X   0.000366   0.006040   0.008152  -0.003606  -0.000740
  154  H  11  Y   0.000805   0.007260   0.002613  -0.003675   0.002339
  155  H  11  Z   0.007698  -0.001060  -0.000726   0.000612  -0.000209
  156  H  12  S   0.000634  -0.042613  -0.016858   0.001553  -0.028256
  157  H  12  S   0.009584  -0.998181  -0.754092  -0.644227  -0.304594
  158  H  12  X   0.000364   0.006270   0.008234   0.003721  -0.000669
  159  H  12  Y   0.000918  -0.007128  -0.002457  -0.003605  -0.002349
  160  H  12  Z   0.007672   0.000542  -0.000161   0.000198   0.000311

                     36         37         38         39         40
                    0.2018     0.2051     0.2144     0.2207     0.2342
                     A          A          A          A          A   
    1  C   1  S   0.000010   0.014293   0.001468  -0.000055   0.004858
    2  C   1  S   0.000003   0.064325   0.014689   0.000017   0.067156
    3  C   1  S  -0.001234  -0.464271   0.127400   0.001449  -0.203552
    4  C   1  X  -0.001736   0.076353   0.006482   0.005936   0.027525
    5  C   1  Y  -0.003599   0.021354  -0.029623   0.012311   0.042548
    6  C   1  Z  -0.032782  -0.006570   0.002821   0.108324  -0.006037
    7  C   1  X  -0.009584   0.805872   0.172651   0.006940   0.387252
    8  C   1  Y  -0.018341   0.271298   0.207604   0.013844   0.653048
    9  C   1  Z  -0.175658  -0.073722  -0.032646   0.115472  -0.093473
   10  C   1 XX  -0.000337   0.014907  -0.021656   0.001617   0.008137
   11  C   1 YY  -0.000465  -0.030118   0.009283  -0.003694  -0.019462
   12  C   1 ZZ   0.000801   0.015210   0.012373   0.002077   0.011325
   13  C   1 XY  -0.000529   0.014197  -0.010914   0.000964   0.006448
   14  C   1 XZ  -0.003464  -0.001557   0.003336   0.017749  -0.000506
   15  C   1 YZ  -0.002279   0.005185   0.001038  -0.018913   0.003697
   16  C   2  S  -0.000003  -0.014303   0.001497  -0.000060  -0.004851
   17  C   2  S  -0.000005  -0.064308   0.014790   0.000033  -0.067156
   18  C   2  S   0.001058   0.464425   0.126775   0.001666   0.203276
   19  C   2  X   0.001718  -0.076947   0.005573   0.005945  -0.028858
   20  C   2  Y   0.003752   0.019872   0.029684   0.012017   0.042001
   21  C   2  Z   0.032667   0.001986  -0.003811   0.108343  -0.003325
   22  C   2  X   0.009568  -0.813864   0.180135   0.006864  -0.407737
   23  C   2  Y   0.021106   0.255540  -0.204609   0.012033   0.645412
   24  C   2  Z   0.175177   0.015030   0.013175   0.115670  -0.051184
   25  C   2 XX   0.000338  -0.015642  -0.022246   0.001572  -0.008459
   26  C   2 YY  -0.000435   0.030573   0.009617   0.003773   0.019669
   27  C   2 ZZ   0.000097  -0.014931   0.012629  -0.005345  -0.011210
   28  C   2 XY   0.000262   0.012534   0.010259   0.002955   0.005399
   29  C   2 XZ   0.003548  -0.001397   0.000998   0.016917  -0.000793
   30  C   2 YZ  -0.002279  -0.006656  -0.000173   0.019037  -0.004339
   31  C   3  S   0.000011  -0.014292   0.001475  -0.000054   0.004852
   32  C   3  S   0.000011  -0.064312   0.014708   0.000022   0.067158
   33  C   3  S  -0.001242   0.464412   0.127372   0.001406  -0.203395
   34  C   3  X  -0.001812   0.077006  -0.005567   0.005726  -0.028847
   35  C   3  Y  -0.003601  -0.019896  -0.029750   0.012309   0.042040
   36  C   3  Z  -0.032799  -0.001848   0.003475   0.108308  -0.002946
   37  C   3  X  -0.009471   0.814017  -0.179167   0.005419  -0.407518
   38  C   3  Y  -0.018312  -0.255797   0.204247   0.013849   0.645652
   39  C   3  Z  -0.175733  -0.015294  -0.013350   0.115419  -0.049826
   40  C   3 XX   0.000323  -0.015635  -0.022232  -0.001626   0.008458
   41  C   3 YY  -0.000454   0.030560   0.009632  -0.003763  -0.019658
   42  C   3 ZZ   0.000131  -0.014925   0.012600   0.005388   0.011200
   43  C   3 XY   0.000288   0.012527   0.010268  -0.002970  -0.005389
   44  C   3 XZ   0.003566  -0.001418   0.001039  -0.016906   0.000806
   45  C   3 YZ  -0.002258  -0.006684  -0.000149  -0.019037   0.004361
   46  C   4  S  -0.000004   0.014301   0.001494  -0.000061  -0.004856
   47  C   4  S  -0.000009   0.064318   0.014770   0.000028  -0.067149
   48  C   4  S   0.001113  -0.464816   0.126741   0.001692   0.203692
   49  C   4  X   0.001805  -0.076314  -0.006523   0.005747   0.027509
   50  C   4  Y   0.003759  -0.021364   0.029575   0.012024   0.042523
   51  C   4  Z   0.032692   0.006455  -0.003134   0.108395  -0.006428
   52  C   4  X   0.009341  -0.805709  -0.173535   0.005700   0.387145
   53  C   4  Y   0.021132  -0.271134  -0.208052   0.012075   0.653012
   54  C   4  Z   0.175334   0.074055   0.032667   0.115832  -0.094900
   55  C   4 XX  -0.000318   0.014904  -0.021659  -0.001674  -0.008128
   56  C   4 YY  -0.000446  -0.030122   0.009266   0.003711   0.019462
   57  C   4 ZZ   0.000764   0.015218   0.012393  -0.002037  -0.011333
   58  C   4 XY  -0.000504   0.014197  -0.010913  -0.000954  -0.006452
   59  C   4 XZ  -0.003452  -0.001541   0.003383  -0.017748   0.000492
   60  C   4 YZ  -0.002306   0.005159   0.001012   0.018918  -0.003674
   61  C   5  S  -0.000041   0.000002  -0.006864  -0.000058  -0.014096
   62  C   5  S  -0.000031  -0.000001  -0.034925  -0.000075  -0.012393
   63  C   5  S   0.000377   0.000200  -0.892023  -0.000453   1.265852
   64  C   5  X   0.007554  -0.014216  -0.000646  -0.007379  -0.001051
   65  C   5  Y   0.016122  -0.000140   0.041453  -0.015427   0.067263
   66  C   5  Z   0.140268   0.000778  -0.004612  -0.136998  -0.007862
   67  C   5  X   0.024465   0.801438   0.010837  -0.007372  -0.001591
   68  C   5  Y   0.051230   0.007696  -0.684928  -0.017177   0.108800
   69  C   5  Z   0.454896  -0.044046   0.076833  -0.136641  -0.013645
   70  C   5 XX   0.000033  -0.000136   0.020508   0.000034   0.003425
   71  C   5 YY   0.001689   0.000084  -0.061033   0.002536   0.026892
   72  C   5 ZZ  -0.001722   0.000052   0.040525  -0.002570  -0.030316
   73  C   5 XY   0.000464   0.004851   0.001642   0.000705  -0.000678
   74  C   5 XZ  -0.000194  -0.000579   0.001145  -0.000289  -0.002074
   75  C   5 YZ   0.008774  -0.000272   0.013387   0.013318  -0.007636
   76  C   6  S   0.000042  -0.000001  -0.006888  -0.000055   0.014089
   77  C   6  S   0.000015  -0.000011  -0.034990  -0.000061   0.012408
   78  C   6  S  -0.000569   0.000224  -0.891276  -0.000132  -1.265562
   79  C   6  X  -0.007562   0.014203   0.000635  -0.007391  -0.001026
   80  C   6  Y  -0.015370   0.000109  -0.041450  -0.015379   0.067340
   81  C   6  Z  -0.140212  -0.000793   0.004627  -0.137109  -0.007233
   82  C   6  X  -0.024492  -0.801509  -0.010756  -0.007392  -0.001731
   83  C   6  Y  -0.050775  -0.007536   0.685663  -0.014025   0.108844
   84  C   6  Z  -0.454765   0.043994  -0.075921  -0.137339  -0.010731
   85  C   6 XX  -0.000057  -0.000123   0.020518   0.000065  -0.003429
   86  C   6 YY   0.001764   0.000072  -0.061068  -0.002684  -0.026937
   87  C   6 ZZ  -0.001706   0.000051   0.040550   0.002619   0.030366
   88  C   6 XY   0.000463   0.004861   0.001636  -0.000701   0.000675
   89  C   6 XZ  -0.000191  -0.000492   0.001146   0.000286   0.002079
   90  C   6 YZ   0.008782  -0.000270   0.013130  -0.013289   0.007347
   91  O   7  S  -0.000003  -0.000001  -0.009215  -0.000009  -0.008829
   92  O   7  S   0.000215  -0.000021  -0.105440  -0.000262  -0.012850
   93  O   7  S   0.000463  -0.000007  -0.047835  -0.000373   0.079185
   94  O   7  S   0.000123   0.000188   1.536090   0.001768   1.126280
   95  O   7  X  -0.002575  -0.100672  -0.000421   0.010955   0.000590
   96  O   7  Y  -0.005410  -0.000970   0.026811   0.022638  -0.037234
   97  O   7  Z  -0.047801   0.005542  -0.003433   0.203202   0.004321
   98  O   7  X  -0.006206  -0.069822  -0.006490   0.019106  -0.001797
   99  O   7  Y  -0.013259  -0.000620   0.411412   0.040174   0.115524
  100  O   7  Z  -0.115152   0.003845  -0.046083   0.354564  -0.012348
  101  O   7  X   0.047504   0.792864   0.000506  -0.038447  -0.020220
  102  O   7  Y   0.101089   0.007552  -0.030281  -0.081813   1.282351
  103  O   7  Z   0.881842  -0.043550   0.006208  -0.713266  -0.143105
  104  O   7 XX   0.000032   0.000411  -0.000609  -0.000025   0.004749
  105  O   7 YY  -0.003066  -0.000251   0.004552   0.001192  -0.013895
  106  O   7 ZZ   0.003035  -0.000160  -0.003944  -0.001166   0.009146
  107  O   7 XY  -0.000822  -0.015115  -0.000118   0.000312   0.000372
  108  O   7 XZ   0.000343   0.001645  -0.000201  -0.000130   0.000251
  109  O   7 YZ  -0.015579   0.000846  -0.001133   0.005908   0.002998
  110  O   7 XX  -0.000078  -0.002123  -0.037669   0.000020  -0.040092
  111  O   7 YY   0.007001   0.001305   0.052048  -0.003004   0.085066
  112  O   7 ZZ  -0.006923   0.000818  -0.014379   0.002984  -0.044974
  113  O   7 XY   0.001870   0.078024  -0.001477  -0.000812  -0.002312
  114  O   7 XZ  -0.000784  -0.008475   0.001566   0.000337  -0.000148
  115  O   7 YZ   0.035467  -0.004369  -0.008404  -0.015330  -0.016811
  116  O   8  S   0.000000   0.000001  -0.009208  -0.000018   0.008834
  117  O   8  S  -0.000211   0.000011  -0.105460  -0.000276   0.012852
  118  O   8  S  -0.000393   0.000014  -0.048107  -0.000237  -0.079255
  119  O   8  S   0.000140  -0.000054   1.535902   0.002488  -1.126584
  120  O   8  X   0.002561   0.100672   0.000402   0.010942   0.000591
  121  O   8  Y   0.005314   0.000976  -0.026908   0.023025  -0.037257
  122  O   8  Z   0.047657  -0.005523   0.002570   0.203191   0.004087
  123  O   8  X   0.006191   0.069860   0.006474   0.019114  -0.001840
  124  O   8  Y   0.012570   0.000714  -0.411536   0.039414   0.115475
  125  O   8  Z   0.114987  -0.003824   0.045659   0.354735  -0.013215
  126  O   8  X  -0.047469  -0.792783  -0.000395  -0.038462  -0.020375
  127  O   8  Y  -0.097327  -0.007736   0.031315  -0.079243   1.282642
  128  O   8  Z  -0.881784   0.043536  -0.000763  -0.714227  -0.143044
  129  O   8 XX   0.000016   0.000415  -0.000607  -0.000006  -0.004749
  130  O   8 YY  -0.003072  -0.000253   0.004560  -0.001146   0.013893
  131  O   8 ZZ   0.003056  -0.000162  -0.003953   0.001152  -0.009144
  132  O   8 XY  -0.000821  -0.015108  -0.000118  -0.000313  -0.000376
  133  O   8 XZ   0.000344   0.001697  -0.000202   0.000131  -0.000250
  134  O   8 YZ  -0.015571   0.000847  -0.001091  -0.005927  -0.003017
  135  O   8 XX  -0.000036  -0.002139  -0.037690  -0.000044   0.040101
  136  O   8 YY   0.006985   0.001299   0.052000   0.003073  -0.085032
  137  O   8 ZZ  -0.006949   0.000840  -0.014309  -0.003029   0.044931
  138  O   8 XY   0.001867   0.077979  -0.001480   0.000806   0.002343
  139  O   8 XZ  -0.000781  -0.008775   0.001575  -0.000335   0.000140
  140  O   8 YZ   0.035452  -0.004371  -0.008843   0.015338   0.017086
  141  H   9  S  -0.000066  -0.009792  -0.057563  -0.000049  -0.006881
  142  H   9  S   0.000062   0.643332  -0.354991  -0.001778  -0.554265
  143  H   9  X  -0.000261   0.002873   0.002559   0.000246  -0.001557
  144  H   9  Y  -0.000581   0.001011   0.002673   0.000521  -0.004216
  145  H   9  Z  -0.005006  -0.000271  -0.000443   0.004532   0.000579
  146  H  10  S   0.000070   0.009812  -0.057589  -0.000041   0.006866
  147  H  10  S  -0.000117  -0.643116  -0.355802  -0.001626   0.554143
  148  H  10  X   0.000261  -0.002902   0.002643   0.000246   0.001688
  149  H  10  Y   0.000543   0.000956  -0.002622   0.000500  -0.004192
  150  H  10  Z   0.005005   0.000053   0.000148   0.004542   0.000362
  151  H  11  S  -0.000070   0.009804  -0.057560  -0.000048  -0.006866
  152  H  11  S   0.000165  -0.643602  -0.354981  -0.001727  -0.554087
  153  H  11  X  -0.000279   0.002908  -0.002642   0.000242   0.001690
  154  H  11  Y  -0.000581  -0.000953   0.002621   0.000521  -0.004189
  155  H  11  Z  -0.005004  -0.000047  -0.000156   0.004536   0.000401
  156  H  12  S   0.000064  -0.009822  -0.057572  -0.000046   0.006871
  157  H  12  S  -0.000133   0.643011  -0.355881  -0.001692   0.554443
  158  H  12  X   0.000278  -0.002873  -0.002563   0.000245  -0.001561
  159  H  12  Y   0.000544  -0.001014  -0.002669   0.000498  -0.004218
  160  H  12  Z   0.005003   0.000266   0.000433   0.004540   0.000540

                     41         42         43         44         45
                    0.2515     0.2600     0.3145     0.3411     0.3485
                     A          A          A          A          A   
    1  C   1  S   0.029092  -0.017622   0.019660  -0.014737  -0.000016
    2  C   1  S   0.004302  -0.066605  -0.038592   0.065596  -0.000144
    3  C   1  S  -1.134937   0.982453  -0.789596   0.911508   0.000661
    4  C   1  X  -0.061196  -0.046236  -0.074333  -0.150174  -0.011883
    5  C   1  Y  -0.032849  -0.054376  -0.037053   0.034205  -0.024458
    6  C   1  Z   0.006850   0.008848   0.007951   0.004002  -0.220570
    7  C   1  X  -0.055268  -1.153026  -0.596866  -0.870765  -0.038400
    8  C   1  Y  -0.470593  -0.856242  -0.432974   0.357157  -0.073673
    9  C   1  Z   0.055859   0.158238   0.080231   0.005853  -0.657996
   10  C   1 XX   0.001817   0.027286  -0.002610  -0.008869  -0.001993
   11  C   1 YY  -0.006162  -0.006635   0.001531   0.016947  -0.002009
   12  C   1 ZZ   0.004345  -0.020650   0.001079  -0.008078   0.004002
   13  C   1 XY  -0.001916   0.000840  -0.007426   0.025777  -0.003045
   14  C   1 XZ   0.000381  -0.003065   0.001071  -0.002914  -0.021213
   15  C   1 YZ   0.001506  -0.001875   0.000330  -0.004743  -0.010478
   16  C   2  S   0.029087   0.017615  -0.019658  -0.014736   0.000033
   17  C   2  S   0.004271   0.066602   0.038628   0.065650   0.000066
   18  C   2  S  -1.134370  -0.982297   0.789607   0.911271  -0.001871
   19  C   2  X  -0.062231   0.047899   0.075384  -0.149190   0.012056
   20  C   2  Y   0.031661  -0.053565  -0.035589  -0.037092   0.025106
   21  C   2  Z  -0.000341   0.003190   0.000128   0.012228   0.220476
   22  C   2  X  -0.070588   1.179283   0.609940  -0.859768   0.039471
   23  C   2  Y   0.469606  -0.833645  -0.421257  -0.373553   0.074731
   24  C   2  Z  -0.048897   0.030123   0.014962   0.088160   0.657721
   25  C   2 XX   0.001711  -0.027298   0.003011  -0.007438   0.002031
   26  C   2 YY  -0.006099   0.006662  -0.001782   0.016066  -0.002106
   27  C   2 ZZ   0.004388   0.020636  -0.001229  -0.008628   0.000075
   28  C   2 XY   0.002244   0.000265  -0.007331  -0.026690   0.001851
   29  C   2 XZ  -0.000078   0.002948   0.000562   0.002913   0.021675
   30  C   2 YZ   0.001234   0.001872   0.000452  -0.001752  -0.010287
   31  C   3  S  -0.029090  -0.017626  -0.019666  -0.014730  -0.000017
   32  C   3  S  -0.004312  -0.066613   0.038607   0.065641  -0.000142
   33  C   3  S   1.134428   0.982885   0.789732   0.911473   0.000760
   34  C   3  X  -0.062209   0.047958  -0.075375   0.149123  -0.011880
   35  C   3  Y   0.031683  -0.053494   0.035623   0.037047  -0.024469
   36  C   3  Z  -0.000065   0.003683   0.000252  -0.012438  -0.220588
   37  C   3  X  -0.070196   1.179454  -0.609449   0.859278  -0.032466
   38  C   3  Y   0.469464  -0.834045   0.421332   0.373631  -0.073567
   39  C   3  Z  -0.049004   0.030081  -0.013976  -0.089192  -0.658399
   40  C   3 XX  -0.001712   0.027302   0.003011  -0.007426   0.002020
   41  C   3 YY   0.006097  -0.006648  -0.001771   0.016058  -0.001928
   42  C   3 ZZ  -0.004385  -0.020654  -0.001240  -0.008632  -0.000092
   43  C   3 XY  -0.002233  -0.000278  -0.007320  -0.026698   0.001937
   44  C   3 XZ   0.000076  -0.003003   0.000566   0.002953   0.021657
   45  C   3 YZ  -0.001275  -0.001816   0.000497  -0.001798  -0.010342
   46  C   4  S  -0.029093   0.017611   0.019658  -0.014742   0.000030
   47  C   4  S  -0.004300   0.066608  -0.038586   0.065612   0.000068
   48  C   4  S   1.134769  -0.982732  -0.789456   0.912031  -0.001676
   49  C   4  X  -0.061226  -0.046298   0.074298   0.150190   0.011715
   50  C   4  Y  -0.032823  -0.054452   0.036988  -0.034217   0.025113
   51  C   4  Z   0.007127   0.008388  -0.008360  -0.004238   0.220529
   52  C   4  X  -0.055553  -1.152969   0.596470   0.871019   0.031477
   53  C   4  Y  -0.470783  -0.856432   0.432680  -0.357430   0.074595
   54  C   4  Z   0.055883   0.158437  -0.081299  -0.006948   0.658387
   55  C   4 XX  -0.001809  -0.027264  -0.002619  -0.008863  -0.001982
   56  C   4 YY   0.006158   0.006644   0.001541   0.016960  -0.002185
   57  C   4 ZZ  -0.004349   0.020620   0.001077  -0.008097   0.004167
   58  C   4 XY   0.001912  -0.000816  -0.007427   0.025787  -0.002936
   59  C   4 XZ  -0.000384   0.003117   0.001067  -0.002878  -0.021213
   60  C   4 YZ  -0.001467   0.001934   0.000373  -0.004700  -0.010438
   61  C   5  S  -0.000003   0.029138   0.000013   0.048036   0.000126
   62  C   5  S  -0.000006   0.112031  -0.000012  -0.123309   0.000298
   63  C   5  S  -0.000044   0.151132  -0.000500  -2.161031  -0.001853
   64  C   5  X   0.079097   0.001062   0.092672  -0.002163   0.015719
   65  C   5  Y   0.000756  -0.069312   0.000913   0.140947   0.033196
   66  C   5  Z  -0.004352   0.007614  -0.005078  -0.015837   0.291580
   67  C   5  X   0.996296  -0.023565   0.461823  -0.014335   0.033544
   68  C   5  Y   0.009418   1.482914   0.004822   0.904002   0.074383
   69  C   5  Z  -0.054733  -0.167134  -0.025395  -0.101494   0.622049
   70  C   5 XX  -0.000070  -0.045734  -0.000221  -0.001263   0.000072
   71  C   5 YY   0.000034   0.063122   0.000140   0.017232  -0.000876
   72  C   5 ZZ   0.000037  -0.017388   0.000081  -0.015968   0.000804
   73  C   5 XY   0.002809  -0.001791   0.007904  -0.000438  -0.000223
   74  C   5 XZ  -0.000329   0.001907  -0.000899  -0.000895   0.000087
   75  C   5 YZ  -0.000155  -0.010591  -0.000445  -0.004389  -0.004254
   76  C   6  S   0.000003  -0.029145   0.000000   0.048043  -0.000181
   77  C   6  S   0.000037  -0.112046  -0.000040  -0.123318  -0.000173
   78  C   6  S   0.000090  -0.151203  -0.000174  -2.161377   0.004170
   79  C   6  X   0.079126   0.001065  -0.092683   0.002101  -0.015711
   80  C   6  Y   0.000789  -0.069286  -0.000933  -0.141056  -0.032153
   81  C   6  Z  -0.004354   0.007817   0.005105   0.015293  -0.291720
   82  C   6  X   0.996154  -0.023164  -0.461674   0.014351  -0.033537
   83  C   6  Y   0.009261   1.483119  -0.004494  -0.904591  -0.064332
   84  C   6  Z  -0.054743  -0.163547   0.025403   0.099461  -0.623192
   85  C   6 XX   0.000063   0.045728  -0.000204  -0.001260  -0.000053
   86  C   6 YY  -0.000032  -0.063145   0.000130   0.017247  -0.000824
   87  C   6 ZZ  -0.000032   0.017417   0.000074  -0.015987   0.000878
   88  C   6 XY  -0.002820   0.001781   0.007915  -0.000431  -0.000227
   89  C   6 XZ   0.000290  -0.001904  -0.000851  -0.000896   0.000094
   90  C   6 YZ   0.000156   0.010340  -0.000445  -0.004303  -0.004252
   91  O   7  S   0.000005  -0.018251   0.000000  -0.001986   0.000002
   92  O   7  S   0.000022  -0.088124   0.000000   0.028898  -0.000036
   93  O   7  S  -0.000059   0.187588   0.000000   0.096412   0.000160
   94  O   7  S  -0.000568   1.895910   0.000062  -0.469276   0.005325
   95  O   7  X   0.073041   0.000322  -0.038572  -0.000869   0.009354
   96  O   7  Y   0.000700  -0.018581  -0.000359   0.059266   0.019453
   97  O   7  Z  -0.004016   0.001858   0.002119  -0.006357   0.173652
   98  O   7  X   0.053758  -0.004519  -0.081158  -0.001050   0.017673
   99  O   7  Y   0.000413   0.288829  -0.000752   0.071863   0.037198
  100  O   7  Z  -0.002944  -0.031973   0.004461  -0.007666   0.328320
  101  O   7  X  -0.955272  -0.012657   0.882262   0.001310  -0.014979
  102  O   7  Y  -0.009497   0.788899   0.008516  -0.102247  -0.029065
  103  O   7  Z   0.052572  -0.085791  -0.048543   0.010558  -0.277198
  104  O   7 XX  -0.000412   0.000779   0.000316   0.004384  -0.000006
  105  O   7 YY   0.000254  -0.000577  -0.000194  -0.003235  -0.001201
  106  O   7 ZZ   0.000158  -0.000202  -0.000122  -0.001149   0.001207
  107  O   7 XY   0.015105   0.000021  -0.011579   0.000101  -0.000329
  108  O   7 XZ  -0.001644  -0.000063   0.001263  -0.000355   0.000138
  109  O   7 YZ  -0.000847   0.000038   0.000649   0.000267  -0.006247
  110  O   7 XX   0.001799  -0.033697  -0.000821   0.020672  -0.000162
  111  O   7 YY  -0.001117   0.038257   0.000507   0.001921   0.000333
  112  O   7 ZZ  -0.000682  -0.004560   0.000314  -0.022593  -0.000172
  113  O   7 XY  -0.065604  -0.001127   0.030127   0.000011   0.000061
  114  O   7 XZ   0.007148   0.001911  -0.003307  -0.002721  -0.000015
  115  O   7 YZ   0.003682  -0.005397  -0.001690  -0.003236   0.001258
  116  O   8  S  -0.000002   0.018247   0.000002  -0.001988   0.000000
  117  O   8  S  -0.000013   0.088150   0.000016   0.028890   0.000001
  118  O   8  S   0.000002  -0.187404  -0.000005   0.096446  -0.000264
  119  O   8  S   0.000353  -1.896400  -0.000290  -0.469125  -0.004570
  120  O   8  X   0.073067   0.000318   0.038603   0.000895  -0.009362
  121  O   8  Y   0.000712  -0.018545   0.000353  -0.059236  -0.019489
  122  O   8  Z  -0.004012   0.002308  -0.002129   0.006664  -0.173621
  123  O   8  X   0.053808  -0.004532   0.081220   0.001068  -0.017714
  124  O   8  Y   0.000472   0.288905   0.000786  -0.071816  -0.036510
  125  O   8  Z  -0.002947  -0.032333  -0.004476   0.007999  -0.328348
  126  O   8  X  -0.955309  -0.012578  -0.882498  -0.001484   0.014921
  127  O   8  Y  -0.009408   0.788538  -0.008390   0.102067   0.032946
  128  O   8  Z   0.052512  -0.090100   0.048479  -0.011893   0.276801
  129  O   8 XX   0.000415  -0.000781   0.000318   0.004383   0.000020
  130  O   8 YY  -0.000253   0.000576  -0.000194  -0.003237  -0.001254
  131  O   8 ZZ  -0.000161   0.000204  -0.000125  -0.001147   0.001234
  132  O   8 XY  -0.015099  -0.000018  -0.011576   0.000099  -0.000329
  133  O   8 XZ   0.001695   0.000063   0.001298  -0.000355   0.000137
  134  O   8 YZ   0.000847  -0.000057   0.000649   0.000259  -0.006236
  135  O   8 XX  -0.001807   0.033728  -0.000820   0.020672   0.000128
  136  O   8 YY   0.001109  -0.038255   0.000503   0.001905   0.000174
  137  O   8 ZZ   0.000698   0.004527   0.000317  -0.022577  -0.000302
  138  O   8 XY   0.065586   0.001117   0.030133   0.000023   0.000070
  139  O   8 XZ  -0.007358  -0.001914  -0.003358  -0.002721  -0.000039
  140  O   8 YZ  -0.003678   0.005689  -0.001691  -0.003232   0.001267
  141  H   9  S  -0.015716   0.080245  -0.038352   0.034788  -0.000096
  142  H   9  S  -0.948109   1.435885  -1.494308   0.390119   0.002313
  143  H   9  X  -0.009171  -0.002153  -0.009880   0.006001  -0.001047
  144  H   9  Y   0.010263  -0.000517   0.008824   0.018155  -0.002198
  145  H   9  Z  -0.000661   0.000188  -0.000457  -0.002390  -0.019592
  146  H  10  S  -0.015690  -0.080230   0.038325   0.034754   0.000073
  147  H  10  S  -0.948281  -1.436229   1.494563   0.389848  -0.002838
  148  H  10  X  -0.008853   0.002166   0.009608   0.006567   0.001038
  149  H  10  Y  -0.010432  -0.000481   0.009006  -0.018038   0.002222
  150  H  10  Z   0.001646  -0.000075  -0.001532   0.001668   0.019589
  151  H  11  S   0.015679   0.080240   0.038358   0.034738  -0.000127
  152  H  11  S   0.948082   1.436174   1.495244   0.389822   0.002283
  153  H  11  X  -0.008851   0.002174  -0.009608  -0.006570  -0.001066
  154  H  11  Y  -0.010436  -0.000474  -0.009011   0.018032  -0.002200
  155  H  11  Z   0.001651  -0.000050   0.001526  -0.001699  -0.019589
  156  H  12  S   0.015718  -0.080197  -0.038351   0.034711   0.000036
  157  H  12  S   0.948692  -1.435732  -1.494801   0.390753  -0.002725
  158  H  12  X  -0.009176  -0.002155   0.009883  -0.006012   0.001070
  159  H  12  Y   0.010266  -0.000518  -0.008826  -0.018154   0.002225
  160  H  12  Z  -0.000655   0.000160   0.000461   0.002358   0.019584

                     46         47         48         49         50
                    0.4400     0.4545     0.4774     0.5278     0.5887
                     A          A          A          A          A   
    1  C   1  S  -0.002642   0.014015   0.037862   0.036054   0.030443
    2  C   1  S  -0.016518  -0.032298   0.121333  -0.111408  -0.148791
    3  C   1  S   0.043916  -1.549123   0.058855  -2.804250  -2.498145
    4  C   1  X   0.121461   0.102332  -0.054533   0.068622   0.112713
    5  C   1  Y  -0.174070   0.026675  -0.054717   0.128156   0.050769
    6  C   1  Z   0.012568  -0.008332   0.009219  -0.018347  -0.011746
    7  C   1  X   1.624574   0.723149  -0.520833   0.090775   1.233917
    8  C   1  Y  -1.020738  -0.893212  -0.250682   2.453295   1.079259
    9  C   1  Z   0.026220   0.062296   0.056327  -0.280503  -0.185805
   10  C   1 XX   0.022306  -0.012684  -0.044036  -0.008634   0.008506
   11  C   1 YY  -0.027851  -0.005164   0.023773   0.018348   0.010573
   12  C   1 ZZ   0.005545   0.017848   0.020263  -0.009714  -0.019080
   13  C   1 XY   0.022435  -0.063577  -0.072612  -0.007243   0.017863
   14  C   1 XZ  -0.003609   0.009088   0.012274   0.000729  -0.003700
   15  C   1 YZ   0.003131   0.006476   0.003504  -0.003319  -0.004847
   16  C   2  S   0.002554   0.014024   0.037889  -0.036078  -0.030553
   17  C   2  S   0.016633  -0.032330   0.121365   0.111324   0.148623
   18  C   2  S  -0.037012  -1.549940   0.057209   2.803051   2.496145
   19  C   2  X  -0.116475   0.102691  -0.056263  -0.072641  -0.114415
   20  C   2  Y  -0.176231  -0.025623   0.053670   0.126651   0.048067
   21  C   2  Z   0.026521  -0.002528  -0.002870  -0.010017   0.000759
   22  C   2  X  -1.594753   0.686187  -0.528237  -0.167146  -1.266550
   23  C   2  Y  -1.055792   0.899579   0.239607   2.451563   1.056279
   24  C   2  Z   0.205472  -0.137253   0.001721  -0.266379  -0.052373
   25  C   2 XX  -0.023403  -0.016266  -0.047952   0.008961  -0.009644
   26  C   2 YY   0.028558  -0.002859   0.026183  -0.018604  -0.010011
   27  C   2 ZZ  -0.005155   0.019125   0.021769   0.009643   0.019654
   28  C   2 XY   0.020490   0.063782   0.071009  -0.006222   0.018302
   29  C   2 XZ  -0.001144  -0.004998  -0.003607   0.000765  -0.000288
   30  C   2 YZ  -0.005566  -0.000554  -0.004406   0.004032   0.002947
   31  C   3  S  -0.002558  -0.014063   0.037866  -0.036063   0.030534
   32  C   3  S  -0.016656   0.032150   0.121437   0.111332  -0.148652
   33  C   3  S   0.036741   1.550029   0.060446   2.804007  -2.497530
   34  C   3  X  -0.116518   0.102568   0.056355   0.072657  -0.114293
   35  C   3  Y  -0.176276  -0.025595  -0.053756  -0.126595   0.048175
   36  C   3  Z   0.025632  -0.002800   0.003131   0.010575   0.000748
   37  C   3  X  -1.595112   0.685880   0.529476   0.166969  -1.266792
   38  C   3  Y  -1.055583   0.900880  -0.239774  -2.451166   1.057093
   39  C   3  Z   0.203627  -0.138999  -0.001497   0.266390  -0.048563
   40  C   3 XX   0.023420   0.016319  -0.047944   0.008973   0.009557
   41  C   3 YY  -0.028574   0.002875   0.026170  -0.018579   0.010013
   42  C   3 ZZ   0.005154  -0.019194   0.021774   0.009606  -0.019570
   43  C   3 XY  -0.020491  -0.063841   0.070934  -0.006251  -0.018311
   44  C   3 XZ   0.001259   0.004961  -0.003732   0.000769   0.000164
   45  C   3 YZ   0.005550   0.000688  -0.004545   0.004078  -0.002838
   46  C   4  S   0.002637  -0.014046   0.037898   0.036046  -0.030461
   47  C   4  S   0.016477   0.032253   0.121393  -0.111367   0.148788
   48  C   4  S  -0.043810   1.549699   0.058940  -2.803638   2.498752
   49  C   4  X   0.121421   0.102300   0.054597  -0.068621   0.112785
   50  C   4  Y  -0.173929   0.026661   0.054786  -0.128078   0.050541
   51  C   4  Z   0.013435  -0.008670  -0.008970   0.017808  -0.011797
   52  C   4  X   1.624377   0.722164   0.521403  -0.089943   1.233436
   53  C   4  Y  -1.020338  -0.892879   0.248617  -2.453939   1.079815
   54  C   4  Z   0.028023   0.060525  -0.055850   0.280527  -0.189727
   55  C   4 XX  -0.022308   0.012738  -0.044041  -0.008626  -0.008571
   56  C   4 YY   0.027848   0.005091   0.023819   0.018366  -0.010540
   57  C   4 ZZ  -0.005540  -0.017829   0.020222  -0.009740   0.019112
   58  C   4 XY  -0.022449   0.063642  -0.072565  -0.007223  -0.017865
   59  C   4 XZ   0.003502  -0.009137   0.012145   0.000722   0.003843
   60  C   4 YZ  -0.003153  -0.006614   0.003633  -0.003270   0.004944
   61  C   5  S  -0.057713  -0.000163   0.027833  -0.000031  -0.038989
   62  C   5  S  -0.001299  -0.000083   0.137419  -0.000049   0.145084
   63  C   5  S   2.291631   0.005927   0.573855   0.000831   3.318930
   64  C   5  X   0.000961   0.331564  -0.000208   0.125697  -0.000076
   65  C   5  Y  -0.113649   0.002895   0.021985   0.001232  -0.006520
   66  C   5  Z   0.013532  -0.018205  -0.002737  -0.006914   0.000705
   67  C   5  X   0.019827   1.932809  -0.028625  -0.339356   0.003590
   68  C   5  Y  -1.517511   0.013802   1.869356  -0.003971  -0.155599
   69  C   5  Z   0.173502  -0.105718  -0.211245   0.018732   0.015810
   70  C   5 XX  -0.034603  -0.000648   0.036988  -0.001205  -0.004178
   71  C   5 YY   0.022115   0.000408  -0.043220   0.000741  -0.020195
   72  C   5 ZZ   0.012488   0.000240   0.006232   0.000464   0.024373
   73  C   5 XY  -0.000753   0.019797   0.001256   0.045049   0.000500
   74  C   5 XZ   0.003016  -0.002193  -0.002020  -0.004993   0.001762
   75  C   5 YZ  -0.001227  -0.001116   0.006454  -0.002526   0.005959
   76  C   6  S   0.057705   0.000136   0.027831  -0.000028   0.038933
   77  C   6  S   0.001291  -0.000036   0.137424  -0.000060  -0.145178
   78  C   6  S  -2.291184  -0.006859   0.574634   0.000146  -3.317766
   79  C   6  X   0.000767   0.331656   0.000435  -0.125629  -0.000124
   80  C   6  Y  -0.113782   0.002945  -0.021949  -0.001304  -0.006771
   81  C   6  Z   0.011940  -0.018184   0.002153   0.006912   0.000769
   82  C   6  X   0.019108   1.931889   0.030505   0.340423   0.003511
   83  C   6  Y  -1.518238   0.015318  -1.869561   0.003446  -0.155265
   84  C   6  Z   0.165435  -0.105798   0.205456  -0.018735   0.018990
   85  C   6 XX   0.034594   0.000603   0.036987  -0.001202   0.004259
   86  C   6 YY  -0.022118  -0.000367  -0.043218   0.000734   0.020185
   87  C   6 ZZ  -0.012476  -0.000236   0.006230   0.000468  -0.024444
   88  C   6 XY   0.000759  -0.019817   0.001242   0.045039  -0.000482
   89  C   6 XZ  -0.003016   0.002172  -0.002022  -0.004981  -0.001771
   90  C   6 YZ   0.001186   0.001111   0.006376  -0.002523  -0.005726
   91  O   7  S   0.000577  -0.000015   0.037287   0.000000  -0.011161
   92  O   7  S  -0.017583  -0.000054  -0.020788   0.000000   0.075081
   93  O   7  S  -0.145007  -0.000054  -0.965726   0.000036   0.579419
   94  O   7  S  -1.144631  -0.002547  -1.033656   0.000001   0.772963
   95  O   7  X   0.001297  -0.106731   0.002403   0.150544  -0.002763
   96  O   7  Y  -0.062103  -0.001151  -0.154465   0.001440   0.178394
   97  O   7  Z   0.007093   0.005872   0.017134  -0.008273  -0.019551
   98  O   7  X   0.003580  -0.400370   0.007639   0.143276  -0.008965
   99  O   7  Y  -0.159538  -0.004109  -0.496758   0.001366   0.560187
  100  O   7  Z   0.018209   0.022023   0.054762  -0.007874  -0.061959
  101  O   7  X   0.004445   0.311733   0.002751   0.205597  -0.004048
  102  O   7  Y  -0.344798   0.002166  -0.166904   0.001923   0.254052
  103  O   7  Z   0.037253  -0.017039   0.017941  -0.011286  -0.027844
  104  O   7 XX   0.007719  -0.000211   0.005906   0.000286   0.000035
  105  O   7 YY  -0.006248   0.000129  -0.011288  -0.000173  -0.000645
  106  O   7 ZZ  -0.001470   0.000082   0.005382  -0.000113   0.000609
  107  O   7 XY   0.000168   0.008408   0.000314  -0.010627   0.000019
  108  O   7 XZ  -0.000588  -0.000910  -0.000055   0.001165   0.000035
  109  O   7 YZ   0.000581  -0.000470   0.002144   0.000595   0.000184
  110  O   7 XX   0.037772   0.000873   0.011791   0.000416  -0.016467
  111  O   7 YY  -0.002650  -0.000495   0.007994  -0.000268   0.064710
  112  O   7 ZZ  -0.035122  -0.000378  -0.019786  -0.000149  -0.048243
  113  O   7 XY   0.000264  -0.028713  -0.000183  -0.016470  -0.001831
  114  O   7 XZ  -0.004607   0.003022  -0.001975   0.001509  -0.001870
  115  O   7 YZ  -0.004180   0.001602  -0.003672   0.000917  -0.014814
  116  O   8  S  -0.000577  -0.000016   0.037290  -0.000004   0.011168
  117  O   8  S   0.017589   0.000067  -0.020778  -0.000001  -0.075092
  118  O   8  S   0.145004   0.000786  -0.965692   0.000132  -0.579533
  119  O   8  S   1.144828   0.003630  -1.033356   0.000242  -0.773024
  120  O   8  X   0.001263  -0.106644  -0.002485  -0.150559  -0.002770
  121  O   8  Y  -0.062183  -0.001273   0.154466  -0.001458   0.178400
  122  O   8  Z   0.006714   0.005896  -0.017296   0.008277  -0.020215
  123  O   8  X   0.003472  -0.400314  -0.008057  -0.143469  -0.008978
  124  O   8  Y  -0.159759  -0.004527   0.496628  -0.001407   0.560246
  125  O   8  Z   0.017239   0.022092  -0.055936   0.007888  -0.062945
  126  O   8  X   0.004670   0.311732  -0.002445  -0.205487  -0.004041
  127  O   8  Y  -0.344552   0.001938   0.166620  -0.002017   0.253998
  128  O   8  Z   0.039667  -0.017019  -0.019215   0.011304  -0.028797
  129  O   8 XX  -0.007718   0.000207   0.005900   0.000288  -0.000044
  130  O   8 YY   0.006234  -0.000118  -0.011270  -0.000173   0.000665
  131  O   8 ZZ   0.001484  -0.000089   0.005370  -0.000115  -0.000621
  132  O   8 XY  -0.000170  -0.008402   0.000308  -0.010629  -0.000015
  133  O   8 XZ   0.000590   0.000951  -0.000055   0.001187  -0.000035
  134  O   8 YZ  -0.000645   0.000469   0.002197   0.000595  -0.000151
  135  O   8 XX  -0.037775  -0.000913   0.011768   0.000466   0.016445
  136  O   8 YY   0.002707   0.000495   0.008034  -0.000273  -0.064674
  137  O   8 ZZ   0.035069   0.000417  -0.019802  -0.000194   0.048229
  138  O   8 XY  -0.000261   0.028720  -0.000141  -0.016352   0.001811
  139  O   8 XZ   0.004599  -0.003302  -0.001974   0.002103   0.001866
  140  O   8 YZ   0.004416  -0.001599  -0.003644   0.000922   0.014709
  141  H   9  S   0.096281   0.167265  -0.220779  -0.023195   0.133694
  142  H   9  S  -0.660228   0.088523   0.734223   0.483201  -0.617417
  143  H   9  X  -0.021005  -0.020382   0.038061  -0.000011  -0.021526
  144  H   9  Y  -0.006247   0.026276  -0.016371  -0.009888   0.018104
  145  H   9  Z   0.001788  -0.001841  -0.000210   0.001134  -0.000828
  146  H  10  S  -0.097093   0.166730  -0.220726   0.023194  -0.133608
  147  H  10  S   0.659608   0.091977   0.733745  -0.483319   0.617375
  148  H  10  X   0.021274  -0.019433   0.037531   0.000312   0.020923
  149  H  10  Y  -0.005699  -0.026685   0.017094  -0.009883   0.018499
  150  H  10  Z  -0.000461   0.004056  -0.003941   0.001071  -0.003256
  151  H  11  S   0.097114  -0.166480  -0.220896   0.023135   0.133419
  152  H  11  S  -0.659936  -0.092667   0.733829  -0.483621  -0.617191
  153  H  11  X   0.021274  -0.019398  -0.037548  -0.000325   0.020894
  154  H  11  Y  -0.005713  -0.026663  -0.017119   0.009869   0.018481
  155  H  11  Z  -0.000549   0.004031   0.003947  -0.001114  -0.003157
  156  H  12  S  -0.096282  -0.166949  -0.220909  -0.023294  -0.133863
  157  H  12  S   0.660068  -0.089767   0.733657   0.483442   0.617373
  158  H  12  X  -0.020989  -0.020333  -0.038082  -0.000004  -0.021553
  159  H  12  Y  -0.006242   0.026250   0.016397   0.009909   0.018112
  160  H  12  Z   0.001879  -0.001865   0.000213  -0.001091  -0.000924

                     51         52         53         54         55
                    0.6333     0.6430     0.6732     0.6747     0.6869
                     A          A          A          A          A   
    1  C   1  S  -0.056843   0.100778  -0.000351  -0.000088   0.084372
    2  C   1  S  -0.071650   0.164964  -0.000490  -0.000292   0.060120
    3  C   1  S  -0.232935   0.601500   0.001992   0.003754  -4.533285
    4  C   1  X  -0.144902   0.076774  -0.023341  -0.022402  -0.141206
    5  C   1  Y   0.293815  -0.292961  -0.050302  -0.049763  -0.037924
    6  C   1  Z  -0.026521   0.027989  -0.449916  -0.435298   0.011612
    7  C   1  X   0.438610  -0.261095   0.022379   0.015451   1.604903
    8  C   1  Y  -0.349000   0.700976   0.049480   0.039587   3.094086
    9  C   1  Z   0.016653  -0.064248   0.462394   0.353097  -0.434070
   10  C   1 XX  -0.096816   0.056232   0.003377   0.001477   0.074981
   11  C   1 YY  -0.014733   0.057528   0.017303   0.005506  -0.074115
   12  C   1 ZZ   0.111549  -0.113759  -0.020681  -0.006983  -0.000866
   13  C   1 XY   0.000278  -0.038533   0.009174   0.002899   0.031268
   14  C   1 XZ   0.012904  -0.006189   0.040462   0.012771  -0.008164
   15  C   1 YZ   0.016704  -0.020355   0.087374   0.028003   0.007946
   16  C   2  S  -0.056742   0.100774  -0.000212  -0.000015  -0.084237
   17  C   2  S  -0.071618   0.165137  -0.000372  -0.000268  -0.059856
   18  C   2  S  -0.239970   0.602944  -0.005033  -0.000096   4.532499
   19  C   2  X  -0.135828   0.067507  -0.023594  -0.022540   0.142003
   20  C   2  Y  -0.296960   0.294288  -0.050656  -0.047980  -0.035364
   21  C   2  Z   0.039314  -0.037463  -0.449866  -0.435489  -0.004468
   22  C   2  X   0.427024  -0.238726   0.025761   0.017382  -1.700470
   23  C   2  Y   0.349758  -0.703346   0.050652   0.037625   3.062588
   24  C   2  Z  -0.061278   0.092317   0.462054   0.353064  -0.251254
   25  C   2 XX  -0.096790   0.054213   0.003724   0.001613  -0.076489
   26  C   2 YY  -0.014860   0.058731  -0.017159  -0.005564   0.075087
   27  C   2 ZZ   0.111650  -0.112943   0.013435   0.003951   0.001402
   28  C   2 XY  -0.000335   0.036072   0.000370   0.000131   0.026829
   29  C   2 XZ   0.012989  -0.014451   0.044259   0.013958   0.001825
   30  C   2 YZ   0.016663  -0.024685  -0.086960  -0.027966  -0.011231
   31  C   3  S  -0.057109  -0.100602   0.000222  -0.000082   0.084270
   32  C   3  S  -0.072037  -0.164934   0.000386  -0.000299   0.059987
   33  C   3  S  -0.237010  -0.601150   0.004951   0.004009  -4.536046
   34  C   3  X   0.135887   0.067062   0.025346  -0.024035   0.142453
   35  C   3  Y   0.297523   0.293487   0.051255  -0.048877  -0.035052
   36  C   3  Z  -0.042067  -0.035805   0.457663  -0.426919  -0.003294
   37  C   3  X  -0.425393  -0.238871  -0.025159   0.021677  -1.700276
   38  C   3  Y  -0.353834  -0.705635  -0.054777   0.038010   3.065804
   39  C   3  Z   0.063727   0.091709  -0.468151   0.344242  -0.253584
   40  C   3 XX  -0.096928  -0.053901   0.004484  -0.000952   0.076450
   41  C   3 YY  -0.014989  -0.058658  -0.017138   0.005162  -0.075206
   42  C   3 ZZ   0.111918   0.112559   0.012654  -0.004209  -0.001244
   43  C   3 XY  -0.000399  -0.035998   0.000004   0.000071  -0.026858
   44  C   3 XZ   0.013344   0.014791   0.044460  -0.013247  -0.001733
   45  C   3 YZ   0.016827   0.024471  -0.087579   0.026315   0.011114
   46  C   4  S  -0.057059  -0.100590   0.000353  -0.000015  -0.084381
   47  C   4  S  -0.072153  -0.164657   0.000502  -0.000249  -0.060138
   48  C   4  S  -0.238680  -0.601744  -0.001986  -0.000258   4.536429
   49  C   4  X   0.145041   0.076545   0.025572  -0.023953  -0.141256
   50  C   4  Y  -0.295018  -0.291981   0.051619  -0.047089  -0.038044
   51  C   4  Z   0.024005   0.029467   0.457618  -0.427132   0.011752
   52  C   4  X  -0.440907  -0.257767  -0.027065   0.020713   1.603511
   53  C   4  Y   0.348759   0.696786  -0.055976   0.036000   3.097826
   54  C   4  Z  -0.014408  -0.064846  -0.467914   0.344593  -0.433996
   55  C   4 XX  -0.096905  -0.055912   0.004300  -0.000820  -0.075037
   56  C   4 YY  -0.014944  -0.057490   0.017322  -0.005313   0.074234
   57  C   4 ZZ   0.111848   0.113402  -0.021622   0.006133   0.000803
   58  C   4 XY   0.000464   0.038576   0.009659  -0.002898  -0.031298
   59  C   4 XZ   0.013247   0.006543   0.040546  -0.012074   0.008223
   60  C   4 YZ   0.016670   0.020472   0.087762  -0.026446  -0.007843
   61  C   5  S  -0.054344   0.000048  -0.000043   0.000139   0.067585
   62  C   5  S  -0.200902   0.000392  -0.000036   0.000648   0.067934
   63  C   5  S   0.431140   0.001598  -0.000272  -0.003162   0.207297
   64  C   5  X  -0.001669   0.381583  -0.001174  -0.017106   0.004900
   65  C   5  Y   0.161143   0.003474   0.000496  -0.036274  -0.284128
   66  C   5  Z  -0.019101  -0.020949   0.002879  -0.316283   0.031603
   67  C   5  X   0.011653  -1.286892   0.003180   0.018322   0.048286
   68  C   5  Y  -0.699111  -0.010645   0.002016   0.044282  -2.994655
   69  C   5  Z   0.080115   0.070536  -0.003459   0.345945   0.337434
   70  C   5 XX   0.120525  -0.000976  -0.004682  -0.000476  -0.020994
   71  C   5 YY  -0.059892   0.000542  -0.000254   0.011018   0.095872
   72  C   5 ZZ  -0.060633   0.000434   0.004936  -0.010542  -0.074877
   73  C   5 XY   0.002054   0.028095  -0.005475   0.002862  -0.002540
   74  C   5 XZ  -0.011536  -0.003171  -0.050077  -0.001653  -0.003248
   75  C   5 YZ  -0.000218  -0.001568  -0.000661   0.055330  -0.022606
   76  C   6  S  -0.054359   0.000151   0.000045   0.000181  -0.067591
   77  C   6  S  -0.200817   0.000249   0.000038   0.000687  -0.068028
   78  C   6  S   0.433710  -0.003163   0.000321  -0.002931  -0.205841
   79  C   6  X   0.002657   0.381995  -0.001127  -0.017010   0.004403
   80  C   6  Y  -0.161305   0.004003   0.000494  -0.034583  -0.283982
   81  C   6  Z   0.016902  -0.021039   0.002896  -0.316475   0.031479
   82  C   6  X  -0.014422  -1.283941   0.004468   0.019071   0.046097
   83  C   6  Y   0.701679  -0.013167   0.002127   0.036303  -2.995760
   84  C   6  Z  -0.075764   0.070674  -0.003573   0.346881   0.330557
   85  C   6 XX   0.120510   0.000593  -0.004686  -0.000321   0.021067
   86  C   6 YY  -0.059875  -0.000359   0.000074  -0.010720  -0.095974
   87  C   6 ZZ  -0.060635  -0.000234   0.004612   0.011042   0.074907
   88  C   6 XY   0.001934  -0.028131  -0.005855  -0.002975   0.002568
   89  C   6 XZ  -0.011528   0.003054  -0.050038   0.000829   0.003173
   90  C   6 YZ  -0.000338   0.001571   0.000352  -0.055338   0.021971
   91  O   7  S  -0.002345  -0.000014  -0.000031  -0.000026   0.036719
   92  O   7  S   0.033735  -0.000003   0.000018  -0.000151  -0.028060
   93  O   7  S   0.316919   0.000197   0.000978  -0.000438  -1.216649
   94  O   7  S   0.287965  -0.000039   0.000738  -0.000996  -0.961407
   95  O   7  X  -0.000992  -0.103500  -0.000056   0.004009   0.002495
   96  O   7  Y   0.053375  -0.000942   0.000040   0.008063  -0.157010
   97  O   7  Z  -0.005664   0.005684  -0.000680   0.074388   0.017278
   98  O   7  X  -0.002204   0.132399  -0.000797  -0.002370   0.006888
   99  O   7  Y   0.159440   0.001477   0.000366  -0.004985  -0.429067
  100  O   7  Z  -0.017753  -0.007301   0.000397  -0.043277   0.046918
  101  O   7  X   0.000284   0.081633  -0.000566  -0.017495   0.003816
  102  O   7  Y  -0.040227   0.000959   0.000507  -0.036238  -0.243417
  103  O   7  Z   0.003890  -0.004505   0.002971  -0.325437   0.026562
  104  O   7 XX  -0.007480  -0.000015  -0.000454   0.000007  -0.004105
  105  O   7 YY   0.010232  -0.000001  -0.000012   0.000455   0.001312
  106  O   7 ZZ  -0.002752   0.000015   0.000466  -0.000462   0.002793
  107  O   7 XY  -0.000288   0.000998  -0.000534   0.000125  -0.000052
  108  O   7 XZ   0.000317  -0.000134  -0.004866  -0.000098   0.000434
  109  O   7 YZ  -0.001638  -0.000054  -0.000038   0.002431   0.000204
  110  O   7 XX  -0.003273  -0.005137   0.010617   0.000213  -0.129731
  111  O   7 YY   0.059396   0.003126   0.000289  -0.022887   0.155714
  112  O   7 ZZ  -0.056123   0.002011  -0.010905   0.022674  -0.025983
  113  O   7 XY  -0.001320   0.192313   0.011988  -0.006101  -0.004476
  114  O   7 XZ  -0.003237  -0.020520   0.112205   0.003619   0.006918
  115  O   7 YZ  -0.015415  -0.010760   0.001495  -0.117759  -0.023265
  116  O   8  S  -0.002331   0.000024   0.000029   0.000014  -0.036685
  117  O   8  S   0.033776  -0.000097  -0.000019  -0.000156   0.028124
  118  O   8  S   0.316550  -0.001232  -0.000946  -0.001576   1.216104
  119  O   8  S   0.287826  -0.001060  -0.000709  -0.001844   0.961313
  120  O   8  X   0.000666  -0.103454  -0.000058   0.004003   0.002464
  121  O   8  Y  -0.053361  -0.000782   0.000035   0.008746  -0.157081
  122  O   8  Z   0.006244   0.005661  -0.000691   0.074302   0.017768
  123  O   8  X   0.002439   0.132711  -0.000636  -0.002314   0.006699
  124  O   8  Y  -0.159624   0.001983   0.000357  -0.004352  -0.428892
  125  O   8  Z   0.017843  -0.007375   0.000357  -0.043327   0.048618
  126  O   8  X  -0.000153   0.081209  -0.000602  -0.017582   0.004244
  127  O   8  Y   0.040102   0.000887   0.000499  -0.036632  -0.243301
  128  O   8  Z  -0.005131  -0.004476   0.002947  -0.325369   0.027397
  129  O   8 XX  -0.007478   0.000036  -0.000457   0.000013   0.004110
  130  O   8 YY   0.010207  -0.000033  -0.000006  -0.000505  -0.001324
  131  O   8 ZZ  -0.002729  -0.000003   0.000463   0.000492  -0.002786
  132  O   8 XY  -0.000296  -0.000995  -0.000563  -0.000132   0.000050
  133  O   8 XZ   0.000320   0.000088  -0.004863   0.000009  -0.000441
  134  O   8 YZ  -0.001729   0.000058   0.000005  -0.002426  -0.000196
  135  O   8 XX  -0.003325   0.005284   0.010387  -0.000238   0.129797
  136  O   8 YY   0.059625  -0.003301   0.000121   0.023578  -0.155648
  137  O   8 ZZ  -0.056300  -0.001983  -0.010507  -0.023339   0.025851
  138  O   8 XY  -0.001827  -0.192087   0.013344   0.006329   0.004421
  139  O   8 XZ  -0.003189   0.021990   0.112082  -0.001573  -0.006750
  140  O   8 YZ  -0.014850   0.010802  -0.000710   0.117577   0.023951
  141  H   9  S  -0.276031  -0.148022   0.001007   0.000710   0.116359
  142  H   9  S   0.011078   0.044751  -0.000487   0.001110  -1.413362
  143  H   9  X   0.041769   0.035285  -0.000348  -0.001106  -0.040577
  144  H   9  Y  -0.031167  -0.009315  -0.000112  -0.002025   0.028630
  145  H   9  Z   0.001154  -0.000858  -0.001195  -0.018697  -0.001027
  146  H  10  S  -0.275642  -0.148266   0.001128   0.000752  -0.116890
  147  H  10  S   0.009362   0.045150  -0.002444  -0.000009   1.413956
  148  H  10  X   0.040723   0.035024  -0.000390  -0.001127   0.039778
  149  H  10  Y   0.031898   0.009993  -0.000192  -0.002195   0.029423
  150  H  10  Z  -0.005878  -0.003011  -0.001174  -0.018673  -0.005462
  151  H  11  S  -0.275395   0.148919  -0.001134   0.000649   0.116674
  152  H  11  S   0.010374  -0.044716   0.002481   0.001200  -1.414067
  153  H  11  X  -0.040677   0.035121  -0.000244  -0.000917   0.039753
  154  H  11  Y  -0.031922   0.010086   0.000108  -0.002022   0.029391
  155  H  11  Z   0.005681  -0.003024   0.001543  -0.018688  -0.005439
  156  H  12  S  -0.275462   0.148834  -0.001015   0.000795  -0.116667
  157  H  12  S   0.009564  -0.044670   0.000411  -0.000070   1.413256
  158  H  12  X  -0.041666   0.035406  -0.000201  -0.000886  -0.040609
  159  H  12  Y   0.031095  -0.009394   0.000190  -0.002192   0.028627
  160  H  12  Z  -0.001347  -0.000850   0.001531  -0.018683  -0.001037

                     56         57         58         59         60
                    0.6900     0.7250     0.7344     0.7670     0.8057
                     A          A          A          A          A   
    1  C   1  S  -0.002364  -0.058928   0.000022  -0.000074  -0.103568
    2  C   1  S  -0.089213  -0.096526   0.000091  -0.000218  -0.225612
    3  C   1  S   1.032334   0.359193   0.000553  -0.001420   0.492497
    4  C   1  X   0.114143   0.237303   0.010711   0.026186   0.339121
    5  C   1  Y  -0.028291  -0.110302   0.022272   0.056507   0.001852
    6  C   1  Z  -0.002217   0.001090   0.198609   0.500177  -0.016720
    7  C   1  X   1.691368  -0.648201  -0.026272  -0.046542  -0.980988
    8  C   1  Y  -2.747425   0.453979  -0.054462  -0.081836   0.072808
    9  C   1  Z   0.218964  -0.018001  -0.485884  -0.796927   0.042176
   10  C   1 XX   0.016479  -0.110866  -0.004217  -0.001662  -0.050844
   11  C   1 YY   0.070091   0.034127  -0.015533   0.008271  -0.017193
   12  C   1 ZZ  -0.086570   0.076739   0.019750  -0.006609   0.068037
   13  C   1 XY  -0.024216  -0.087489  -0.009834   0.000375  -0.088076
   14  C   1 XZ  -0.003678   0.021310  -0.047350  -0.017427   0.017088
   15  C   1 YZ  -0.019261   0.010243  -0.077926   0.041704   0.016162
   16  C   2  S   0.002672  -0.058955   0.000013   0.000099  -0.103494
   17  C   2  S   0.089687  -0.096475   0.000064   0.000253  -0.225489
   18  C   2  S  -1.033681   0.361595   0.000992   0.000966   0.491377
   19  C   2  X  -0.113173   0.233820   0.010806  -0.026315   0.338607
   20  C   2  Y  -0.030007   0.115114   0.022273  -0.055796   0.004767
   21  C   2  Z   0.008540  -0.024090   0.198564  -0.500270  -0.019144
   22  C   2  X  -1.603710  -0.634659  -0.027058   0.046756  -0.978163
   23  C   2  Y  -2.779697  -0.464617  -0.054793   0.097209  -0.094194
   24  C   2  Z   0.397398   0.084525  -0.485823   0.795157   0.063064
   25  C   2 XX  -0.014962  -0.115647  -0.004478   0.001556  -0.055598
   26  C   2 YY  -0.070767   0.037101   0.015156   0.008195  -0.014263
   27  C   2 ZZ   0.085730   0.078546  -0.010678  -0.009751   0.069861
   28  C   2 XY  -0.020825   0.084712  -0.001267   0.004064   0.088382
   29  C   2 XZ   0.008649   0.002276  -0.050854   0.015568  -0.002145
   30  C   2 YZ   0.021751   0.001082   0.077566   0.041844   0.006503
   31  C   3  S   0.002442   0.059019   0.000026   0.000094  -0.103456
   32  C   3  S   0.089392   0.096645   0.000101   0.000253  -0.225439
   33  C   3  S  -1.029789  -0.363157   0.000670   0.001282   0.490278
   34  C   3  X   0.112865   0.233945   0.010658  -0.027647  -0.338328
   35  C   3  Y   0.030098   0.114681   0.022287  -0.056562  -0.004592
   36  C   3  Z  -0.010324  -0.026991   0.198544  -0.500196   0.020432
   37  C   3  X   1.606602  -0.635267  -0.025684   0.039338   0.977566
   38  C   3  Y   2.777161  -0.463483  -0.054198   0.081922   0.094940
   39  C   3  Z  -0.399933   0.088255  -0.485887   0.797375  -0.065690
   40  C   3 XX  -0.015108   0.115599   0.004957  -0.001414  -0.055407
   41  C   3 YY  -0.070754  -0.037050  -0.015324  -0.008339  -0.014382
   42  C   3 ZZ   0.085862  -0.078549   0.010367   0.009753   0.069788
   43  C   3 XY  -0.020761  -0.084822   0.001633  -0.004051   0.088353
   44  C   3 XZ   0.008904  -0.002879   0.050752  -0.015599  -0.001760
   45  C   3 YZ   0.021756  -0.000593  -0.077583  -0.041872   0.006285
   46  C   4  S  -0.002428   0.058968   0.000010  -0.000080  -0.103545
   47  C   4  S  -0.089423   0.096576   0.000052  -0.000212  -0.225560
   48  C   4  S   1.028607  -0.358250   0.000934  -0.000990   0.493673
   49  C   4  X  -0.113937   0.237224   0.010643   0.027674  -0.338959
   50  C   4  Y   0.028355  -0.110577   0.022304   0.055842  -0.001814
   51  C   4  Z   0.003777  -0.001813   0.198461   0.500242   0.018203
   52  C   4  X  -1.693523  -0.648254  -0.025764  -0.039014   0.980609
   53  C   4  Y   2.746140   0.455114  -0.054587  -0.097116  -0.071677
   54  C   4  Z  -0.215881  -0.014322  -0.485860  -0.795681  -0.045207
   55  C   4 XX   0.016401   0.110833   0.004730   0.001532  -0.050804
   56  C   4 YY   0.069992  -0.034132   0.015323  -0.008127  -0.017122
   57  C   4 ZZ  -0.086393  -0.076701  -0.020053   0.006595   0.067926
   58  C   4 XY  -0.024211   0.087388   0.009482  -0.000342  -0.087979
   59  C   4 XZ  -0.003927  -0.021925   0.047344   0.017437   0.017481
   60  C   4 YZ  -0.019265  -0.010763   0.077934  -0.041755   0.016373
   61  C   5  S   0.000008   0.000028   0.000491   0.000011  -0.058081
   62  C   5  S   0.000110   0.000019   0.000934   0.000017  -0.038811
   63  C   5  S   0.000012   0.000102  -0.005953   0.000001  -1.000634
   64  C   5  X   0.526672  -0.211882  -0.027340  -0.000753  -0.003932
   65  C   5  Y   0.005061  -0.002190  -0.058925  -0.000052   0.253647
   66  C   5  Z  -0.028982   0.011646  -0.507848  -0.000053  -0.027118
   67  C   5  X   2.344258  -0.221065   0.071046  -0.008424  -0.008674
   68  C   5  Y   0.024378  -0.003683   0.148439  -0.000163   0.618996
   69  C   5  Z  -0.129013   0.012340   1.314312   0.000667  -0.071775
   70  C   5 XX  -0.000958  -0.002800  -0.000107   0.005808  -0.084095
   71  C   5 YY   0.000553   0.001780   0.000933   0.000127  -0.098120
   72  C   5 ZZ   0.000405   0.001019  -0.000825  -0.005934   0.182215
   73  C   5 XY   0.032282   0.103256   0.000201   0.006944   0.002283
   74  C   5 XZ  -0.003548  -0.011269  -0.000074   0.061993   0.016587
   75  C   5 YZ  -0.001795  -0.005799   0.003938   0.000219   0.036875
   76  C   6  S   0.000044   0.000031   0.000488   0.000005  -0.058152
   77  C   6  S   0.000175   0.000087   0.000949   0.000010  -0.038900
   78  C   6  S   0.002580   0.000615  -0.006407   0.000076  -0.999039
   79  C   6  X  -0.526245  -0.212197  -0.027419   0.000715   0.003804
   80  C   6  Y  -0.004835  -0.002046  -0.055236   0.000020  -0.253784
   81  C   6  Z   0.028871   0.011678  -0.508356   0.000010   0.026632
   82  C   6  X  -2.344938  -0.220406   0.070651   0.009103   0.008659
   83  C   6  Y  -0.020842  -0.003399   0.146707   0.000188  -0.620309
   84  C   6  Z   0.128742   0.012243   1.314888  -0.000614   0.071541
   85  C   6 XX  -0.000985   0.002837  -0.000081  -0.005787  -0.084046
   86  C   6 YY   0.000646  -0.001720  -0.000674  -0.000108  -0.098306
   87  C   6 ZZ   0.000339  -0.001117   0.000755   0.005895   0.182352
   88  C   6 XY   0.032292  -0.103201  -0.000222  -0.007075   0.002206
   89  C   6 XZ  -0.003604   0.011573   0.000105  -0.061942   0.016598
   90  C   6 YZ  -0.001832   0.005785  -0.004033  -0.000170   0.036205
   91  O   7  S  -0.000013   0.000021  -0.000088  -0.000002  -0.014825
   92  O   7  S  -0.000017  -0.000010   0.000034  -0.000002  -0.054557
   93  O   7  S   0.000274  -0.000705   0.001993   0.000030   0.086376
   94  O   7  S   0.000569  -0.000257   0.001519   0.000073  -0.785765
   95  O   7  X   0.058289  -0.068436   0.002003   0.000034   0.002048
   96  O   7  Y   0.000602  -0.000699   0.004310   0.000001  -0.129677
   97  O   7  Z  -0.003202   0.003764   0.037223   0.000011   0.014231
   98  O   7  X   0.274747  -0.014028  -0.011204  -0.001212   0.001336
   99  O   7  Y   0.002661  -0.000372  -0.021568   0.000006  -0.076039
  100  O   7  Z  -0.015110   0.000797  -0.207964   0.000103   0.007857
  101  O   7  X  -0.468007  -0.430056  -0.012731   0.001184   0.005778
  102  O   7  Y  -0.004237  -0.004127  -0.025514   0.000054  -0.381375
  103  O   7  Z   0.025666   0.023652  -0.236454  -0.000029   0.040831
  104  O   7 XX   0.000138  -0.000059  -0.000006  -0.000684  -0.007563
  105  O   7 YY  -0.000088   0.000031   0.002045  -0.000013   0.013784
  106  O   7 ZZ  -0.000050   0.000028  -0.002039   0.000697  -0.006221
  107  O   7 XY  -0.004805   0.002294   0.000562  -0.000795  -0.000381
  108  O   7 XZ   0.000515  -0.000249  -0.000233  -0.007300   0.000110
  109  O   7 YZ   0.000270  -0.000127   0.010660  -0.000026  -0.002553
  110  O   7 XX   0.002431  -0.001339   0.000705   0.019533  -0.067679
  111  O   7 YY  -0.001613   0.000800  -0.062463   0.000375   0.189828
  112  O   7 ZZ  -0.000817   0.000539   0.061758  -0.019908  -0.122149
  113  O   7 XY  -0.086621   0.047967  -0.016981   0.022904  -0.005139
  114  O   7 XZ   0.009797  -0.005260   0.007012   0.208462  -0.003044
  115  O   7 YZ   0.004883  -0.002679  -0.321697   0.000765  -0.040669
  116  O   8  S   0.000019  -0.000016  -0.000077  -0.000001  -0.014851
  117  O   8  S  -0.000036   0.000014   0.000062   0.000002  -0.054544
  118  O   8  S  -0.000822   0.000572   0.001898   0.000031   0.087161
  119  O   8  S  -0.000511   0.000582   0.001582   0.000082  -0.785106
  120  O   8  X  -0.058320  -0.068470   0.002012  -0.000040  -0.002105
  121  O   8  Y  -0.000463  -0.000737   0.004007  -0.000010   0.129564
  122  O   8  Z   0.003202   0.003775   0.037254   0.000018  -0.014714
  123  O   8  X  -0.274560  -0.013926  -0.011188   0.001110  -0.001367
  124  O   8  Y  -0.002337  -0.000331  -0.025046  -0.000014   0.075658
  125  O   8  Z   0.015050   0.000788  -0.207490  -0.000080  -0.008201
  126  O   8  X   0.468344  -0.429769  -0.012724  -0.001189  -0.006050
  127  O   8  Y   0.004519  -0.004318  -0.027573  -0.000057   0.381057
  128  O   8  Z  -0.025778   0.023625  -0.236063   0.000003  -0.041820
  129  O   8 XX   0.000136   0.000067   0.000028   0.000683  -0.007561
  130  O   8 YY  -0.000087  -0.000040  -0.002154   0.000013   0.013763
  131  O   8 ZZ  -0.000049  -0.000027   0.002126  -0.000696  -0.006202
  132  O   8 XY  -0.004798  -0.002292  -0.000561   0.000853  -0.000387
  133  O   8 XZ   0.000545   0.000259   0.000237   0.007292   0.000114
  134  O   8 YZ   0.000270   0.000129  -0.010638   0.000024  -0.002655
  135  O   8 XX   0.002285   0.001379  -0.000226  -0.019469  -0.067616
  136  O   8 YY  -0.001441  -0.000908   0.064096  -0.000412   0.189638
  137  O   8 ZZ  -0.000844  -0.000471  -0.063870   0.019881  -0.122022
  138  O   8 XY  -0.086817  -0.048132   0.016946  -0.024195  -0.005196
  139  O   8 XZ   0.009383   0.005357  -0.007178  -0.208259  -0.003074
  140  O   8 YZ   0.004883   0.002722   0.321106  -0.000636  -0.041505
  141  H   9  S  -0.178872   0.281040  -0.000388   0.000028  -0.010103
  142  H   9  S   0.410718  -0.691007   0.000254  -0.000535   0.679545
  143  H   9  X   0.029319  -0.089103  -0.001419  -0.000530   0.068851
  144  H   9  Y  -0.006986   0.010382  -0.003093  -0.001213  -0.021822
  145  H   9  Z  -0.000876   0.003688  -0.027237  -0.010099  -0.001314
  146  H  10  S   0.179125   0.281053  -0.000389  -0.000074  -0.010433
  147  H  10  S  -0.410683  -0.689829   0.000321   0.000584   0.681280
  148  H  10  X  -0.029120  -0.088733  -0.001423   0.000542   0.068264
  149  H  10  Y  -0.007575  -0.012037  -0.003030   0.001070   0.023208
  150  H  10  Z   0.002495   0.006188  -0.027240   0.010125  -0.006417
  151  H  11  S   0.179224  -0.280879  -0.000417  -0.000014  -0.010503
  152  H  11  S  -0.409561   0.689483   0.000218   0.000369   0.681164
  153  H  11  X   0.029148  -0.088689  -0.001514   0.000572  -0.068304
  154  H  11  Y   0.007571  -0.012056  -0.003086   0.001219  -0.023219
  155  H  11  Z  -0.002345   0.006078  -0.027212   0.010111   0.006231
  156  H  12  S  -0.178459  -0.281092  -0.000355   0.000056  -0.010310
  157  H  12  S   0.408691   0.690628   0.000392  -0.000641   0.680526
  158  H  12  X  -0.029201  -0.089098  -0.001521  -0.000547  -0.068963
  159  H  12  Y   0.006930   0.010353  -0.003020  -0.001066   0.021824
  160  H  12  Z   0.000714   0.003588  -0.027240  -0.010135   0.001140

                     61         62         63         64         65
                    0.8072     0.8280     0.8310     0.8314     0.8563
                     A          A          A          A          A   
    1  C   1  S  -0.000382  -0.023702  -0.000184  -0.046066  -0.013269
    2  C   1  S  -0.000989  -0.029846  -0.000510  -0.044991   0.020580
    3  C   1  S  -0.008524   0.516765   0.000418   0.728039   2.073136
    4  C   1  X  -0.018216   0.213117   0.019586   0.393030   0.138934
    5  C   1  Y  -0.040529   0.060542   0.040388  -0.006232  -0.093392
    6  C   1  Z  -0.359215  -0.018885   0.357332  -0.019623   0.002751
    7  C   1  X   0.020570  -0.595178  -0.064771  -0.334798  -1.505313
    8  C   1  Y   0.048239   0.137793  -0.130539  -1.836580  -0.895479
    9  C   1  Z   0.368923   0.018182  -1.174497   0.223344   0.180618
   10  C   1 XX   0.004358   0.044292  -0.000493  -0.096358   0.060062
   11  C   1 YY  -0.011716  -0.024752   0.003003   0.034373  -0.063839
   12  C   1 ZZ   0.007358  -0.019540  -0.002510   0.061985   0.003777
   13  C   1 XY   0.002232  -0.121614   0.000045  -0.041902   0.028327
   14  C   1 XZ   0.050213   0.009693  -0.005438   0.014564  -0.006506
   15  C   1 YZ  -0.058706   0.007331   0.014659   0.005943   0.007218
   16  C   2  S  -0.000203  -0.024521   0.000129   0.045801   0.013010
   17  C   2  S  -0.000278  -0.030618   0.000417   0.044831  -0.021456
   18  C   2  S   0.011315   0.525981   0.000393  -0.719318  -2.077648
   19  C   2  X   0.020184   0.221899  -0.019274  -0.388984  -0.136936
   20  C   2  Y   0.040135  -0.056298  -0.039963  -0.015054  -0.094941
   21  C   2  Z   0.359203  -0.005722  -0.357413   0.021796   0.018352
   22  C   2  X  -0.026398  -0.596254   0.063938   0.382316   1.538412
   23  C   2  Y  -0.035304  -0.118817   0.133059  -1.831550  -0.864727
   24  C   2  Z  -0.370214   0.045219   1.174105   0.186134   0.015224
   25  C   2 XX  -0.004478   0.035728   0.000526   0.099347  -0.061489
   26  C   2 YY  -0.011602  -0.019958   0.002764  -0.036083   0.064677
   27  C   2 ZZ   0.016080  -0.015770  -0.003290  -0.063264  -0.003188
   28  C   2 XY  -0.008312   0.123826   0.001381  -0.037115   0.023793
   29  C   2 XZ  -0.047542  -0.017269   0.004800  -0.005915   0.000742
   30  C   2 YZ  -0.059102  -0.006280   0.014803  -0.001597  -0.010277
   31  C   3  S  -0.000388  -0.024388  -0.000279   0.045697  -0.012904
   32  C   3  S  -0.001002  -0.030204  -0.000599   0.044642   0.021660
   33  C   3  S  -0.008475   0.531242   0.001803  -0.717899   2.078234
   34  C   3  X  -0.020490  -0.222409   0.018084   0.389127  -0.136668
   35  C   3  Y  -0.040550   0.056378   0.040374   0.014991  -0.094948
   36  C   3  Z  -0.358950   0.005050   0.357456  -0.022760   0.017755
   37  C   3  X   0.019095   0.600466  -0.061149  -0.382134   1.538727
   38  C   3  Y   0.048195   0.117017  -0.134510   1.830111  -0.865015
   39  C   3  Z   0.368821  -0.043895  -1.174326  -0.186469   0.013204
   40  C   3 XX  -0.004798   0.035825   0.000252   0.099253   0.061367
   41  C   3 YY  -0.011879  -0.019999   0.003097  -0.036014  -0.064576
   42  C   3 ZZ   0.016678  -0.015826  -0.003349  -0.063238   0.003209
   43  C   3 XY  -0.008441   0.123949   0.001605  -0.037173  -0.023989
   44  C   3 XZ  -0.047462  -0.017162   0.004806  -0.006010  -0.001009
   45  C   3 YZ  -0.059019  -0.006370   0.014724  -0.001512   0.010141
   46  C   4  S  -0.000206  -0.023491   0.000228  -0.046113   0.013311
   47  C   4  S  -0.000289  -0.029376   0.000528  -0.045163  -0.020525
   48  C   4  S   0.011270   0.513158  -0.000968   0.726199  -2.075543
   49  C   4  X   0.018544  -0.213061  -0.018499  -0.393097   0.139322
   50  C   4  Y   0.040126  -0.060870  -0.040040   0.006464  -0.092999
   51  C   4  Z   0.359148   0.018229  -0.357469   0.020598   0.003193
   52  C   4  X  -0.013685   0.593772   0.062341   0.334080  -1.507237
   53  C   4  Y  -0.035224  -0.140251   0.129216   1.835576  -0.894798
   54  C   4  Z  -0.370689  -0.016519   1.174902  -0.222816   0.182833
   55  C   4 XX   0.004678   0.044247  -0.000238  -0.096302  -0.060079
   56  C   4 YY  -0.011445  -0.024653   0.002678   0.034314   0.063772
   57  C   4 ZZ   0.006767  -0.019594  -0.002440   0.061988  -0.003693
   58  C   4 XY   0.002095  -0.121791   0.000245  -0.041821  -0.028090
   59  C   4 XZ   0.050186   0.009866  -0.005454   0.014701   0.006800
   60  C   4 YZ  -0.058803   0.007410   0.014750   0.006076  -0.007366
   61  C   5  S  -0.000460   0.130692   0.000151   0.001170  -0.019300
   62  C   5  S  -0.000484   0.192548   0.000701   0.001644  -0.139394
   63  C   5  S  -0.003386  -2.005134  -0.006985  -0.016880   0.496640
   64  C   5  X  -0.026549   0.007851  -0.021663  -0.038816   0.003708
   65  C   5  Y  -0.054370  -0.473467  -0.045634  -0.004842  -0.268981
   66  C   5  Z  -0.492635   0.055024  -0.402654   0.002226   0.028313
   67  C   5  X   0.047102  -0.019718   0.082496   1.637537  -0.049798
   68  C   5  Y   0.089620   0.436064   0.173818   0.020657   3.571463
   69  C   5  Z   0.872863  -0.053052   1.564276  -0.088928  -0.397803
   70  C   5 XX  -0.000126  -0.077035   0.000041  -0.004082  -0.143019
   71  C   5 YY   0.018220   0.081772  -0.004531   0.002901   0.160516
   72  C   5 ZZ  -0.018094  -0.004737   0.004490   0.001180  -0.017497
   73  C   5 XY   0.005045  -0.003537  -0.001207   0.125065  -0.004674
   74  C   5 XZ  -0.002113   0.004849   0.000497  -0.013997   0.008213
   75  C   5 YZ   0.095618  -0.011458  -0.020444  -0.007166  -0.023109
   76  C   6  S   0.000147   0.130758   0.000047   0.001194   0.019064
   77  C   6  S   0.000277   0.192790  -0.000411   0.001737   0.139103
   78  C   6  S  -0.002286  -2.006539   0.003910  -0.016879  -0.494229
   79  C   6  X   0.026546  -0.007844   0.021639   0.038918   0.003953
   80  C   6  Y   0.054883   0.473463   0.045554   0.004993  -0.269321
   81  C   6  Z   0.492437  -0.051207   0.402622  -0.002217   0.031816
   82  C   6  X  -0.046799   0.021921  -0.082277  -1.638545  -0.051928
   83  C   6  Y  -0.109903  -0.430000  -0.178215  -0.019011   3.572148
   84  C   6  Z  -0.870318   0.044755  -1.563783   0.088779  -0.399259
   85  C   6 XX  -0.000651  -0.076806  -0.000111  -0.004080   0.143135
   86  C   6 YY   0.018869   0.081677  -0.003437   0.002906  -0.160694
   87  C   6 ZZ  -0.018217  -0.004871   0.003548   0.001173   0.017559
   88  C   6 XY   0.005030  -0.003473  -0.001220   0.125120   0.004690
   89  C   6 XZ  -0.002085   0.004804   0.000453  -0.013655  -0.008230
   90  C   6 YZ   0.095536  -0.010791  -0.020675  -0.007152   0.023076
   91  O   7  S   0.000170   0.004921   0.000224   0.000051  -0.068891
   92  O   7  S   0.000026   0.089364   0.000464   0.000856  -0.077203
   93  O   7  S  -0.005340   0.299529  -0.003289   0.002875   1.598791
   94  O   7  S  -0.005625   0.039577  -0.001676   0.000682   2.004813
   95  O   7  X  -0.000528  -0.002788   0.000510   0.042644   0.001319
   96  O   7  Y  -0.001177   0.149777   0.001869   0.001869  -0.099562
   97  O   7  Z  -0.009853  -0.016369   0.010571  -0.002492   0.011145
   98  O   7  X   0.007775  -0.008376   0.011973   0.249559  -0.010439
   99  O   7  Y   0.014003   0.384841   0.024207   0.006027   0.623938
  100  O   7  Z   0.143841  -0.041881   0.227319  -0.013878  -0.067602
  101  O   7  X   0.022074  -0.000635   0.009442   0.148117  -0.013034
  102  O   7  Y   0.043542  -0.049294   0.018991   0.001101   0.815350
  103  O   7  Z   0.408925   0.005944   0.178383  -0.007918  -0.087933
  104  O   7 XX   0.000031   0.006476   0.000068   0.000203  -0.016971
  105  O   7 YY   0.000071  -0.019292  -0.001864  -0.000273   0.030285
  106  O   7 ZZ  -0.000103   0.012816   0.001797   0.000070  -0.013314
  107  O   7 XY   0.000042   0.000570  -0.000470  -0.005132  -0.000806
  108  O   7 XZ  -0.000011   0.000358   0.000199   0.000547   0.000285
  109  O   7 YZ   0.000766   0.004132  -0.009075   0.000318  -0.005608
  110  O   7 XX  -0.000073   0.215745  -0.000228   0.002733  -0.135279
  111  O   7 YY   0.025070  -0.122775   0.060948  -0.001642   0.396533
  112  O   7 ZZ  -0.024997  -0.092970  -0.060721  -0.001091  -0.261254
  113  O   7 XY   0.006932   0.004158   0.016842  -0.021449  -0.010806
  114  O   7 XZ  -0.002998  -0.019728  -0.006975   0.002633  -0.007200
  115  O   7 YZ   0.131446   0.003754   0.318536   0.001609  -0.083824
  116  O   8  S  -0.000248   0.005056  -0.000213   0.000079   0.068882
  117  O   8  S  -0.000318   0.089485  -0.000322   0.000863   0.077065
  118  O   8  S   0.005722   0.296281   0.003652   0.002041  -1.598912
  119  O   8  S   0.001125   0.035790   0.001736   0.000298  -2.004656
  120  O   8  X   0.000524   0.002679  -0.000538  -0.042610   0.001266
  121  O   8  Y   0.001739  -0.149841  -0.000758  -0.001848  -0.099305
  122  O   8  Z   0.009786   0.016995  -0.010663   0.002495   0.011066
  123  O   8  X  -0.007710   0.008035  -0.011936  -0.249331  -0.010865
  124  O   8  Y  -0.017812  -0.383299  -0.027371  -0.005720   0.624171
  125  O   8  Z  -0.143445   0.043890  -0.226946   0.013845  -0.071350
  126  O   8  X  -0.022007   0.000547  -0.009441  -0.148031  -0.013392
  127  O   8  Y  -0.046082   0.050894  -0.020966  -0.001027   0.814572
  128  O   8  Z  -0.408670  -0.005013  -0.178096   0.007902  -0.093598
  129  O   8 XX  -0.000073   0.006503  -0.000031   0.000208   0.016957
  130  O   8 YY   0.000295  -0.019318  -0.001748  -0.000276  -0.030216
  131  O   8 ZZ  -0.000222   0.012815   0.001778   0.000068   0.013259
  132  O   8 XY   0.000035   0.000553  -0.000476  -0.005122   0.000795
  133  O   8 XZ  -0.000014   0.000356   0.000203   0.000597  -0.000286
  134  O   8 YZ   0.000712   0.004263  -0.009098   0.000319   0.005737
  135  O   8 XX  -0.000683   0.215883  -0.000371   0.002549   0.134823
  136  O   8 YY   0.027651  -0.123543   0.064165  -0.001609  -0.395519
  137  O   8 ZZ  -0.026968  -0.092340  -0.063794  -0.000940   0.260696
  138  O   8 XY   0.006880   0.004247   0.016764  -0.021671   0.011066
  139  O   8 XZ  -0.002980  -0.019675  -0.007137   0.001714   0.007105
  140  O   8 YZ   0.130879   0.002986   0.317730   0.001620   0.087592
  141  H   9  S  -0.000351  -0.235286  -0.000646   0.310680   0.000004
  142  H   9  S  -0.000372   0.412976   0.002513  -1.011982   0.832966
  143  H   9  X  -0.000555   0.076601  -0.001149  -0.101258   0.013014
  144  H   9  Y  -0.001583  -0.031101  -0.003152   0.072551  -0.009650
  145  H   9  Z  -0.013441  -0.000669  -0.026257  -0.002729   0.000325
  146  H  10  S   0.000250  -0.229513   0.000290  -0.314875   0.000354
  147  H  10  S   0.004315   0.392345  -0.001777   1.018541  -0.830379
  148  H  10  X   0.000958   0.073729   0.001286   0.100240  -0.012468
  149  H  10  Y   0.001570   0.031162   0.002800   0.075023  -0.009683
  150  H  10  Z   0.013410  -0.007562   0.026262  -0.013801   0.001814
  151  H  11  S  -0.000340  -0.229490   0.000000  -0.314790  -0.000043
  152  H  11  S  -0.000415   0.393083   0.000374   1.019231   0.829608
  153  H  11  X  -0.000887  -0.073681  -0.001460  -0.100258  -0.012324
  154  H  11  Y  -0.001584  -0.031117  -0.002996  -0.075036  -0.009627
  155  H  11  Z  -0.013442   0.007426  -0.026241   0.013804   0.001690
  156  H  12  S   0.000249  -0.235289  -0.000392   0.310577   0.000479
  157  H  12  S   0.004323   0.410351   0.000174  -1.012207  -0.833230
  158  H  12  X   0.000491  -0.076491   0.001349   0.101249   0.013107
  159  H  12  Y   0.001565   0.031018   0.002943  -0.072523  -0.009674
  160  H  12  Z   0.013460   0.000559   0.026238   0.002708   0.000438

                     66         67         68         69         70
                    0.8586     0.8723     0.8787     0.8954     0.9045
                     A          A          A          A          A   
    1  C   1  S   0.089756   0.051418  -0.040207   0.059146  -0.000128
    2  C   1  S   0.268975   0.143488  -0.056529   0.115884  -0.000307
    3  C   1  S   1.017075   1.703451  -0.051123   1.576277   0.000802
    4  C   1  X   0.175106   0.103750   0.113620  -0.347761  -0.004372
    5  C   1  Y   0.236590   0.315010   0.132281   0.242170  -0.010591
    6  C   1  Z  -0.035931  -0.040969  -0.020723  -0.008581  -0.095841
    7  C   1  X  -1.286502  -3.542889  -0.667882   1.003547   0.002589
    8  C   1  Y   0.219913   2.202677  -0.714206  -2.023587   0.015234
    9  C   1  Z   0.043255  -0.060720   0.115508   0.172813   0.127745
   10  C   1 XX  -0.015067  -0.036271  -0.018765  -0.026004   0.009469
   11  C   1 YY   0.012601   0.144578  -0.026488   0.106580  -0.019761
   12  C   1 ZZ   0.002467  -0.108307   0.045253  -0.080576   0.010292
   13  C   1 XY  -0.156513  -0.073462   0.058362   0.036445   0.006139
   14  C   1 XZ   0.018684   0.003506  -0.002695  -0.007487   0.104013
   15  C   1 YZ   0.007278  -0.029211   0.006265  -0.026619  -0.100730
   16  C   2  S   0.089802  -0.051177  -0.040235  -0.059331  -0.000240
   17  C   2  S   0.268947  -0.142926  -0.056684  -0.116272  -0.000566
   18  C   2  S   1.009150  -1.700381  -0.053797  -1.576525   0.000163
   19  C   2  X   0.182468  -0.113663   0.117098   0.340095  -0.004550
   20  C   2  Y  -0.233723   0.312787  -0.129652   0.248800  -0.010471
   21  C   2  Z   0.016349  -0.028801   0.008475  -0.046172  -0.096071
   22  C   2  X  -1.277804   3.471574  -0.680847  -0.939781   0.006411
   23  C   2  Y  -0.251769   2.269116   0.708610  -2.041222   0.015768
   24  C   2  Z   0.096266  -0.438204  -0.043486   0.280397   0.127718
   25  C   2 XX  -0.023886   0.040097  -0.015565   0.023805   0.009233
   26  C   2 YY   0.018186  -0.146864  -0.028609  -0.105335   0.019922
   27  C   2 ZZ   0.005701   0.106767   0.044174   0.081529  -0.029156
   28  C   2 XY   0.155783  -0.065413  -0.057359   0.041784   0.016854
   29  C   2 XZ  -0.015829   0.011716   0.010128  -0.001109   0.099633
   30  C   2 YZ  -0.010186   0.036819   0.012708   0.022291   0.101595
   31  C   3  S  -0.089863  -0.051335  -0.040348   0.059261   0.000104
   32  C   3  S  -0.269007  -0.143290  -0.056926   0.116189   0.000256
   33  C   3  S  -1.006817  -1.699405  -0.054597   1.576945  -0.001418
   34  C   3  X   0.182049   0.113739  -0.117539   0.339743   0.005844
   35  C   3  Y  -0.233361  -0.313101   0.129456   0.248829   0.010535
   36  C   3  Z   0.016371   0.029041  -0.007966  -0.046349   0.095866
   37  C   3  X  -1.273012  -3.471910   0.682049  -0.938110  -0.010775
   38  C   3  Y  -0.248907  -2.270334  -0.707161  -2.041939  -0.014521
   39  C   3  Z   0.097725   0.446321   0.042046   0.279473  -0.127378
   40  C   3 XX   0.023798   0.040085  -0.015532  -0.023913   0.009595
   41  C   3 YY  -0.017995  -0.146841  -0.028678   0.105304   0.020113
   42  C   3 ZZ  -0.005803   0.106756   0.044211  -0.081391  -0.029708
   43  C   3 XY  -0.155557  -0.065590  -0.057276  -0.041867   0.016827
   44  C   3 XZ   0.015660   0.011676   0.010409   0.000854   0.099543
   45  C   3 YZ   0.010232   0.036981   0.012810  -0.022207   0.101451
   46  C   4  S  -0.089874   0.051304  -0.040174  -0.059192   0.000260
   47  C   4  S  -0.269274   0.143088  -0.056489  -0.115978   0.000609
   48  C   4  S  -1.018665   1.699929  -0.049979  -1.576943   0.000438
   49  C   4  X   0.175216  -0.103519  -0.113007  -0.347720   0.005916
   50  C   4  Y   0.236889  -0.314638  -0.132371   0.241957   0.010389
   51  C   4  Z  -0.036044   0.040776   0.021213  -0.008319   0.095860
   52  C   4  X  -1.290410   3.540114   0.665898   1.003624  -0.007710
   53  C   4  Y   0.222509  -2.205944   0.715655  -2.022312  -0.014966
   54  C   4  Z   0.045657   0.053075  -0.116949   0.173533  -0.127706
   55  C   4 XX   0.015174  -0.036292  -0.018732   0.026024   0.009815
   56  C   4 YY  -0.012846   0.144628  -0.026421  -0.106596  -0.019501
   57  C   4 ZZ  -0.002328  -0.108336   0.045153   0.080571   0.009686
   58  C   4 XY   0.156454  -0.073274   0.058502  -0.036299   0.006176
   59  C   4 XZ  -0.018839   0.003548  -0.002432   0.007847   0.103958
   60  C   4 YZ  -0.007333  -0.029072   0.006160   0.026621  -0.100851
   61  C   5  S   0.000054   0.000227  -0.206508   0.015865   0.000000
   62  C   5  S  -0.000133   0.000530  -0.532633  -0.034412   0.000013
   63  C   5  S  -0.000262  -0.004151   2.578334   2.157638  -0.000498
   64  C   5  X   0.212277   0.112898  -0.000531  -0.000004   0.000136
   65  C   5  Y   0.001274   0.000927   0.042378  -0.011813   0.000024
   66  C   5  Z  -0.011596  -0.006207  -0.005142  -0.000181   0.000120
   67  C   5  X  -2.845087  -6.023993  -0.043709  -0.015509  -0.003837
   68  C   5  Y  -0.020059  -0.059240   2.308082   1.056764  -0.000327
   69  C   5  Z   0.155632   0.331270  -0.258362  -0.114298  -0.000024
   70  C   5 XX  -0.000876  -0.000547  -0.089530   0.113425  -0.018730
   71  C   5 YY   0.000725   0.000327   0.105699   0.063296  -0.000396
   72  C   5 ZZ   0.000151   0.000220  -0.016170  -0.176721   0.019126
   73  C   5 XY   0.022293   0.023866  -0.003046  -0.001224  -0.022612
   74  C   5 XZ  -0.002344  -0.002185   0.004825  -0.018192  -0.199915
   75  C   5 YZ  -0.001308  -0.001319  -0.016013  -0.031794  -0.000714
   76  C   6  S   0.000082   0.000247  -0.206446  -0.016139  -0.000008
   77  C   6  S   0.000358   0.000623  -0.532624   0.033730  -0.000032
   78  C   6  S  -0.001430  -0.005374   2.581333  -2.154705   0.000603
   79  C   6  X   0.212431  -0.112622   0.000502   0.000168   0.000121
   80  C   6  Y   0.001772  -0.001070  -0.042604  -0.011567  -0.000011
   81  C   6  Z  -0.011616   0.006148   0.004272   0.002854  -0.000132
   82  C   6  X  -2.852041   6.020664   0.043330  -0.016605   0.001412
   83  C   6  Y  -0.019953   0.060645  -2.308821   1.053133  -0.000246
   84  C   6  Z   0.155803  -0.331103   0.255598  -0.121014   0.000236
   85  C   6 XX   0.000830  -0.000544  -0.089391  -0.113516  -0.018705
   86  C   6 YY  -0.000646   0.000253   0.105842  -0.063305  -0.000366
   87  C   6 ZZ  -0.000184   0.000291  -0.016452   0.176821   0.019071
   88  C   6 XY  -0.022314   0.023766  -0.003065   0.001146  -0.022665
   89  C   6 XZ   0.002544  -0.002840   0.004805   0.018144  -0.199972
   90  C   6 YZ   0.001293  -0.001313  -0.015673   0.031377  -0.000738
   91  O   7  S  -0.000150  -0.000082   0.066596  -0.040062   0.000010
   92  O   7  S  -0.000128  -0.000082   0.071287  -0.042857   0.000011
   93  O   7  S   0.003672   0.001806  -1.449316   0.964397  -0.000247
   94  O   7  S   0.003837   0.002195  -1.748119  -0.217470  -0.000073
   95  O   7  X   0.138750  -0.122390  -0.001219   0.001188  -0.000132
   96  O   7  Y   0.001182  -0.001261   0.070186  -0.077498   0.000015
   97  O   7  Z  -0.007609   0.006734  -0.007768   0.008740   0.000008
   98  O   7  X   0.403464  -0.774527   0.010325  -0.004671  -0.000368
   99  O   7  Y   0.005373  -0.006555  -0.712765   0.294780  -0.000105
  100  O   7  Z  -0.022324   0.042457   0.078038  -0.031633  -0.000019
  101  O   7  X   0.176591  -0.246208   0.011378   0.003521  -0.000057
  102  O   7  Y   0.003164  -0.001463  -0.741286  -0.232278  -0.000021
  103  O   7  Z  -0.009846   0.013403   0.081032   0.026510  -0.000095
  104  O   7 XX   0.000514  -0.000842   0.011382  -0.004045   0.001625
  105  O   7 YY  -0.000284   0.000530  -0.014283   0.012007   0.000030
  106  O   7 ZZ  -0.000230   0.000312   0.002902  -0.007962  -0.001654
  107  O   7 XY  -0.020089   0.030491   0.000440  -0.000314   0.001947
  108  O   7 XZ   0.002184  -0.003303  -0.000566  -0.000222   0.017339
  109  O   7 YZ   0.001116  -0.001711   0.002210  -0.002571   0.000063
  110  O   7 XX  -0.004347   0.009015  -0.037343   0.106238  -0.049728
  111  O   7 YY   0.003367  -0.005102  -0.374763   0.069144  -0.001030
  112  O   7 ZZ   0.000980  -0.003913   0.412106  -0.175382   0.050758
  113  O   7 XY   0.158595  -0.332576   0.008974  -0.001360  -0.058921
  114  O   7 XZ  -0.017181   0.035806   0.027690  -0.017722  -0.530774
  115  O   7 YZ  -0.009039   0.018490   0.101279  -0.031112  -0.001982
  116  O   8  S   0.000136  -0.000055   0.066560   0.040138  -0.000009
  117  O   8  S   0.000192  -0.000042   0.071260   0.042936  -0.000011
  118  O   8  S  -0.003021   0.001238  -1.448227  -0.965959   0.000217
  119  O   8  S  -0.003627   0.001502  -1.748470   0.215409   0.000027
  120  O   8  X   0.138615   0.122547   0.001263   0.001202   0.000052
  121  O   8  Y   0.001058   0.001202  -0.070089  -0.077578   0.000018
  122  O   8  Z  -0.007588  -0.006739   0.007864   0.008565   0.000004
  123  O   8  X   0.402522   0.774828  -0.010365  -0.004779   0.000345
  124  O   8  Y   0.004852   0.006719   0.712154   0.295342  -0.000067
  125  O   8  Z  -0.022248  -0.042505  -0.080820  -0.034092   0.000028
  126  O   8  X   0.176247   0.246317  -0.011454   0.003590   0.000169
  127  O   8  Y   0.003184   0.001722   0.741269  -0.231488   0.000023
  128  O   8  Z  -0.009867  -0.013482  -0.084161   0.025233   0.000073
  129  O   8 XX  -0.000515  -0.000847   0.011377   0.004055   0.001620
  130  O   8 YY   0.000264   0.000514  -0.014264  -0.012003   0.000036
  131  O   8 ZZ   0.000251   0.000333   0.002887   0.007947  -0.001656
  132  O   8 XY   0.020047   0.030496   0.000444   0.000321   0.002012
  133  O   8 XZ  -0.002255  -0.003461  -0.000566   0.000225   0.017331
  134  O   8 YZ  -0.001110  -0.001710   0.002244   0.002639   0.000056
  135  O   8 XX   0.004737   0.009271  -0.037215  -0.106346  -0.049605
  136  O   8 YY  -0.003439  -0.005230  -0.374058  -0.069179  -0.000999
  137  O   8 ZZ  -0.001298  -0.004041   0.411273   0.175525   0.050605
  138  O   8 XY  -0.158018  -0.332354   0.009094   0.001469  -0.061366
  139  O   8 XZ   0.017879   0.038305   0.027571   0.017522  -0.530392
  140  O   8 YZ   0.009041   0.018552   0.104516   0.033204  -0.001801
  141  H   9  S   0.018972  -0.134849   0.083213   0.155751  -0.000811
  142  H   9  S  -0.865029  -0.844845   0.643402  -0.127176  -0.001720
  143  H   9  X  -0.098335  -0.056398   0.029451  -0.045033  -0.000883
  144  H   9  Y   0.067818   0.035105  -0.012087   0.054686  -0.001653
  145  H   9  Z  -0.002223  -0.000720  -0.000273  -0.003708  -0.014625
  146  H  10  S   0.018775   0.134649   0.083825  -0.155552  -0.000533
  147  H  10  S  -0.869511   0.842717   0.644336   0.128525  -0.000626
  148  H  10  X  -0.096288   0.055134   0.029055   0.043392  -0.000808
  149  H  10  Y  -0.069738   0.036035   0.012604   0.055613  -0.001646
  150  H  10  Z   0.013124  -0.007192  -0.003020  -0.008605  -0.014654
  151  H  11  S  -0.019114   0.134679   0.083617   0.155822   0.000776
  152  H  11  S   0.868467   0.844683   0.645221  -0.128161   0.001716
  153  H  11  X  -0.096285  -0.055285  -0.029173   0.043406   0.000686
  154  H  11  Y  -0.069713  -0.036175  -0.012715   0.055642   0.001631
  155  H  11  Z   0.012911   0.006855   0.002957  -0.008571   0.014646
  156  H  12  S  -0.019175  -0.134848   0.083468  -0.155714   0.000573
  157  H  12  S   0.866579  -0.844698   0.643126   0.128470   0.000642
  158  H  12  X  -0.098531   0.056334  -0.029390  -0.045126   0.000778
  159  H  12  Y   0.067888  -0.034988   0.011997   0.054747   0.001619
  160  H  12  Z  -0.002399   0.001055   0.000195  -0.003724   0.014651

                     71         72         73         74         75
                    0.9495     0.9752     0.9942     1.0167     1.0260
                     A          A          A          A          A   
    1  C   1  S  -0.070636   0.285604  -0.000001   0.030932   0.333073
    2  C   1  S  -0.128551   0.642608   0.000452   0.003887   0.726740
    3  C   1  S  -1.172482  -1.143906  -0.000961  -0.337900  -2.932092
    4  C   1  X  -0.301767   0.088761   0.007344  -0.098777  -0.031724
    5  C   1  Y  -0.295390   0.167099   0.010712   0.396275   0.027289
    6  C   1  Z   0.049877  -0.023636   0.123701  -0.038567  -0.001380
    7  C   1  X   1.782231  -0.522541  -0.038269   3.165255   0.796278
    8  C   1  Y   1.000988  -0.483310  -0.024195  -5.065142  -0.859207
    9  C   1  Z  -0.208776   0.082218  -0.459825   0.399531   0.054500
   10  C   1 XX  -0.021173   0.004198  -0.006845  -0.131493  -0.011065
   11  C   1 YY  -0.104788   0.026238   0.011483   0.158602   0.097643
   12  C   1 ZZ   0.125961  -0.030436  -0.004637  -0.027108  -0.086578
   13  C   1 XY   0.041685  -0.068546  -0.006374   0.057664   0.035769
   14  C   1 XZ   0.004524   0.005529  -0.083974  -0.000830  -0.008911
   15  C   1 YZ   0.028184  -0.003643   0.065322  -0.026965  -0.026368
   16  C   2  S   0.070485   0.285668  -0.000070  -0.032178   0.333002
   17  C   2  S   0.128231   0.642699  -0.000605  -0.006594   0.726785
   18  C   2  S   1.173075  -1.144471   0.002134   0.346779  -2.930685
   19  C   2  X   0.310971   0.094002  -0.007292   0.086431  -0.030237
   20  C   2  Y  -0.289663  -0.165695  -0.017000   0.397968  -0.026433
   21  C   2  Z   0.015279   0.013463  -0.123028  -0.049967   0.004564
   22  C   2  X  -1.813362  -0.536792   0.037312  -3.007423   0.754831
   23  C   2  Y   0.966525   0.474987   0.078314  -5.127236   0.852466
   24  C   2  Z  -0.010397  -0.024610   0.453755   0.736947  -0.135558
   25  C   2 XX   0.019019   0.000398   0.006688   0.128091  -0.008422
   26  C   2 YY   0.106090   0.028616   0.014242  -0.156676   0.095820
   27  C   2 ZZ  -0.125109  -0.029014  -0.020929   0.028586  -0.087398
   28  C   2 XY   0.036464   0.067174   0.012240   0.066933  -0.040503
   29  C   2 XZ  -0.013190  -0.009488   0.081179  -0.012992  -0.000461
   30  C   2 YZ  -0.032326  -0.011343   0.065453   0.021171  -0.021684
   31  C   3  S  -0.070586   0.285691   0.000049  -0.030900  -0.333027
   32  C   3  S  -0.128396   0.642754  -0.000342  -0.003824  -0.726570
   33  C   3  S  -1.172880  -1.144208   0.000760   0.333481   2.932527
   34  C   3  X   0.311000  -0.093846  -0.006066  -0.086590  -0.030703
   35  C   3  Y  -0.289597   0.165545  -0.010700  -0.397785  -0.028044
   36  C   3  Z   0.016239  -0.013607  -0.123753   0.048730   0.004826
   37  C   3  X  -1.813061   0.535858   0.012030   3.006012   0.768109
   38  C   3  Y   0.966227  -0.475137   0.023958   5.125565   0.873530
   39  C   3  Z  -0.011208   0.024245   0.461194  -0.738888  -0.140360
   40  C   3 XX  -0.019033   0.000472  -0.008577   0.127911   0.008965
   41  C   3 YY  -0.106096   0.028620  -0.011803  -0.156529  -0.096386
   42  C   3 ZZ   0.125129  -0.029092   0.020380   0.028618   0.087421
   43  C   3 XY  -0.036440   0.067124  -0.013351   0.066580   0.040866
   44  C   3 XZ   0.013427  -0.009456  -0.080996  -0.014246   0.000413
   45  C   3 YZ   0.032570  -0.011261  -0.065823   0.019999   0.022084
   46  C   4  S   0.070645   0.285669   0.000129   0.032386  -0.332917
   47  C   4  S   0.128532   0.642724   0.000732   0.007081  -0.726646
   48  C   4  S   1.172589  -1.144728  -0.002428  -0.347369   2.930542
   49  C   4  X  -0.301827  -0.088742   0.005884   0.099133  -0.031261
   50  C   4  Y  -0.295596  -0.167172   0.016953  -0.396107   0.025656
   51  C   4  Z   0.049004   0.023476   0.123035   0.039768  -0.001151
   52  C   4  X   1.782269   0.522153  -0.011235  -3.169335   0.782697
   53  C   4  Y   1.000969   0.483126  -0.077983   5.071182  -0.838742
   54  C   4  Z  -0.208114  -0.082596  -0.455187  -0.397862   0.051109
   55  C   4 XX   0.021148   0.004180   0.008781  -0.131319   0.010494
   56  C   4 YY   0.104868   0.026273  -0.013937   0.158761  -0.097032
   57  C   4 ZZ  -0.126016  -0.030453   0.005155  -0.027442   0.086537
   58  C   4 XY  -0.041690  -0.068511   0.005407   0.057839  -0.035614
   59  C   4 XZ  -0.004770   0.005542   0.083932   0.000437   0.008936
   60  C   4 YZ  -0.027968  -0.003712  -0.064834  -0.028162   0.025929
   61  C   5  S  -0.209345   0.132165  -0.000005  -0.000088   0.000078
   62  C   5  S  -0.469819   0.281888  -0.000010  -0.000222   0.000163
   63  C   5  S   3.757433  -1.378276  -0.000076   0.000501   0.000678
   64  C   5  X  -0.005601   0.000809   0.001905  -0.263078  -0.269637
   65  C   5  Y   0.360450  -0.046451   0.000037  -0.002574  -0.002608
   66  C   5  Z  -0.040559   0.005228  -0.000125   0.014461   0.014820
   67  C   5  X   0.007461  -0.003871  -0.034386   7.032165   3.141256
   68  C   5  Y  -0.492315   0.145462  -0.000356   0.067348   0.030614
   69  C   5  Z   0.055658  -0.015772   0.001974  -0.386453  -0.172719
   70  C   5 XX  -0.039606   0.077145   0.016790   0.001689   0.003086
   71  C   5 YY   0.027455  -0.021683   0.000341  -0.000985  -0.001822
   72  C   5 ZZ   0.012151  -0.055462  -0.017131  -0.000704  -0.001264
   73  C   5 XY  -0.000877   0.000890   0.020818  -0.057322  -0.111336
   74  C   5 XZ   0.003312  -0.008419   0.179457   0.007785   0.012430
   75  C   5 YZ  -0.002050  -0.004671   0.000588   0.003236   0.006230
   76  C   6  S   0.209279   0.132081  -0.000001   0.000130  -0.000003
   77  C   6  S   0.469638   0.281712   0.000000   0.000292  -0.000011
   78  C   6  S  -3.756944  -1.377828   0.000096   0.003399  -0.002213
   79  C   6  X  -0.005623  -0.000709  -0.001818   0.264097  -0.268508
   80  C   6  Y   0.360583   0.046511  -0.000023   0.002496  -0.002472
   81  C   6  Z  -0.039743  -0.005127   0.000053  -0.014517   0.014735
   82  C   6  X   0.007278   0.002997   0.032942  -7.044286   3.111744
   83  C   6  Y  -0.493281  -0.145454   0.000400  -0.068102   0.030078
   84  C   6  Z   0.054166   0.016512  -0.001697   0.387269  -0.171014
   85  C   6 XX   0.039578   0.077122  -0.016806   0.001535  -0.003059
   86  C   6 YY  -0.027443  -0.021611  -0.000332  -0.000920   0.001805
   87  C   6 ZZ  -0.012136  -0.055511   0.017138  -0.000615   0.001254
   88  C   6 XY   0.000886   0.000860  -0.019821  -0.058078   0.111089
   89  C   6 XZ  -0.003314  -0.008386  -0.179503   0.005065  -0.012243
   90  C   6 YZ   0.001857  -0.004420  -0.000667   0.003219  -0.006213
   91  O   7  S  -0.013487   0.013723   0.000001   0.000000   0.000000
   92  O   7  S   0.027117   0.049610   0.000004  -0.000064   0.000049
   93  O   7  S   0.427680   0.025283   0.000005  -0.000543   0.000385
   94  O   7  S   1.010475   0.821635   0.000048   0.000165   0.000201
   95  O   7  X  -0.000749  -0.000793  -0.000120   0.074141  -0.133371
   96  O   7  Y   0.049749   0.052445   0.000000   0.000712  -0.001268
   97  O   7  Z  -0.005324  -0.005782   0.000007  -0.004077   0.007324
   98  O   7  X  -0.008919  -0.002791  -0.002785   0.628186  -0.210497
   99  O   7  Y   0.570144   0.173393  -0.000025   0.005718  -0.001695
  100  O   7  Z  -0.062640  -0.019089   0.000138  -0.034496   0.011529
  101  O   7  X  -0.008340  -0.008297  -0.000213   0.162698  -0.290373
  102  O   7  Y   0.533249   0.532603   0.000021   0.001868  -0.002798
  103  O   7  Z  -0.058868  -0.058704  -0.000042  -0.008981   0.015958
  104  O   7 XX   0.000811   0.004985   0.001331   0.000185  -0.000055
  105  O   7 YY  -0.010051  -0.004102   0.000026  -0.000112   0.000036
  106  O   7 ZZ   0.009240  -0.000884  -0.001357  -0.000073   0.000019
  107  O   7 XY   0.000258   0.000121   0.001568  -0.006367   0.002079
  108  O   7 XZ   0.000513  -0.000378   0.014205   0.000784  -0.000208
  109  O   7 YZ   0.002466   0.000412   0.000052   0.000359  -0.000117
  110  O   7 XX  -0.014654  -0.360468  -0.055489  -0.012597   0.008390
  111  O   7 YY   0.172239   0.256857  -0.001138   0.007563  -0.005240
  112  O   7 ZZ  -0.157586   0.103611   0.056627   0.005034  -0.003150
  113  O   7 XY  -0.004380  -0.007952  -0.068259   0.449925  -0.314182
  114  O   7 XZ  -0.008688   0.029788  -0.592531  -0.052965   0.033399
  115  O   7 YZ  -0.042339  -0.019215  -0.002050  -0.025266   0.017604
  116  O   8  S   0.013503   0.013711   0.000000   0.000016   0.000003
  117  O   8  S  -0.027089   0.049575   0.000002   0.000081  -0.000019
  118  O   8  S  -0.427941   0.025307   0.000016   0.000233  -0.000312
  119  O   8  S  -1.010922   0.821953   0.000028  -0.000091   0.000093
  120  O   8  X  -0.000777   0.000864   0.000145  -0.073581  -0.133675
  121  O   8  Y   0.049667  -0.052417   0.000003  -0.000743  -0.001297
  122  O   8  Z  -0.005747   0.005910  -0.000007   0.004047   0.007350
  123  O   8  X  -0.008981   0.002868   0.002941  -0.627198  -0.213057
  124  O   8  Y   0.570044  -0.173381   0.000025  -0.006205  -0.001919
  125  O   8  Z  -0.064415   0.019548  -0.000165   0.034490   0.011697
  126  O   8  X  -0.008374   0.008466   0.000329  -0.161375  -0.290991
  127  O   8  Y   0.533354  -0.532646  -0.000019  -0.001400  -0.002933
  128  O   8  Z  -0.059982   0.060017  -0.000029   0.008849   0.016009
  129  O   8 XX  -0.000807   0.004983  -0.001329   0.000168   0.000060
  130  O   8 YY   0.010024  -0.004099  -0.000026  -0.000105  -0.000040
  131  O   8 ZZ  -0.009217  -0.000884   0.001355  -0.000063  -0.000020
  132  O   8 XY  -0.000260   0.000126  -0.001644  -0.006377  -0.002101
  133  O   8 XZ  -0.000510  -0.000376  -0.014203   0.000617   0.000249
  134  O   8 YZ  -0.002573   0.000415  -0.000048   0.000356   0.000120
  135  O   8 XX   0.014702  -0.360395   0.055479  -0.012128  -0.008682
  136  O   8 YY  -0.172077   0.256832   0.001115   0.007467   0.005287
  137  O   8 ZZ   0.157376   0.103563  -0.056594   0.004661   0.003396
  138  O   8 XY   0.004458  -0.008065   0.065730   0.449279   0.315761
  139  O   8 XZ   0.008644   0.029687   0.592943  -0.046195  -0.036062
  140  O   8 YZ   0.043860  -0.019765   0.002168  -0.025110  -0.017729
  141  H   9  S  -0.101524   0.129702   0.000651  -0.000601   0.069643
  142  H   9  S  -0.864128   0.641759   0.001467  -0.168220  -0.299202
  143  H   9  X  -0.078774   0.079909   0.003734  -0.032805  -0.069365
  144  H   9  Y   0.037153  -0.042319   0.007665  -0.032046   0.023650
  145  H   9  Z   0.000105   0.000415   0.064620   0.005730   0.001162
  146  H  10  S   0.101464   0.129651  -0.000573   0.000480   0.069676
  147  H  10  S   0.864415   0.642010  -0.001072   0.169979  -0.298458
  148  H  10  X   0.077618   0.078578  -0.003693   0.034124  -0.068436
  149  H  10  Y   0.038642   0.043844  -0.006853  -0.031383  -0.025092
  150  H  10  Z  -0.008561  -0.009184  -0.064702   0.001331   0.006565
  151  H  11  S  -0.101406   0.129771  -0.000619   0.000767  -0.069734
  152  H  11  S  -0.864567   0.642084  -0.001365   0.168880   0.299073
  153  H  11  X   0.077612  -0.078567  -0.003232  -0.033930  -0.068598
  154  H  11  Y   0.038661  -0.043859  -0.007661   0.031406  -0.024993
  155  H  11  Z  -0.008488   0.009130  -0.064644  -0.002064   0.006421
  156  H  12  S   0.101478   0.129838   0.000561  -0.000369  -0.069566
  157  H  12  S   0.864514   0.642450   0.001172  -0.169985   0.299028
  158  H  12  X  -0.078785  -0.079984   0.003271   0.033177  -0.069277
  159  H  12  Y   0.037145   0.042315   0.006854   0.032032   0.023798
  160  H  12  Z   0.000040  -0.000466   0.064726  -0.005034   0.001016

                     76         77         78         79         80
                    1.0585     1.0671     1.1375     1.1537     1.1587
                     A          A          A          A          A   
    1  C   1  S   0.000141   0.045635   0.094699  -0.000957  -0.000252
    2  C   1  S   0.000264   0.141121   0.193993  -0.002160  -0.000021
    3  C   1  S  -0.003782   1.652959  -1.196308   0.015159   0.029800
    4  C   1  X   0.007056  -0.093039   0.077409  -0.009405  -0.011173
    5  C   1  Y   0.014213  -0.184364   0.139368  -0.018584  -0.015875
    6  C   1  Z   0.124770   0.026194  -0.020092  -0.169034  -0.141517
    7  C   1  X  -0.009325   0.525372  -0.039363   0.031994   0.013980
    8  C   1  Y  -0.019740  -1.161468  -0.902323   0.035837   0.034889
    9  C   1  Z  -0.194143   0.102094   0.103774   0.427486   0.164391
   10  C   1 XX   0.018174   0.082769   0.042198  -0.010137  -0.030384
   11  C   1 YY   0.021658  -0.031060   0.074406  -0.010897  -0.007141
   12  C   1 ZZ  -0.039832  -0.051709  -0.116604   0.021033   0.037525
   13  C   1 XY   0.028337  -0.049932   0.060510  -0.015033  -0.038978
   14  C   1 XZ   0.198014  -0.002019  -0.016992  -0.102350  -0.323701
   15  C   1 YZ   0.107812   0.000092  -0.029188  -0.058478  -0.037276
   16  C   2  S   0.000257  -0.045898   0.094650   0.000819  -0.000168
   17  C   2  S   0.000621  -0.141691   0.193873   0.001885   0.000201
   18  C   2  S   0.000373  -1.650665  -1.195353  -0.013387   0.030210
   19  C   2  X   0.006806   0.098808   0.081889   0.009265  -0.011136
   20  C   2  Y   0.014236  -0.182452  -0.137932   0.019440  -0.015925
   21  C   2  Z   0.124630   0.015004   0.010964   0.168431  -0.142050
   22  C   2  X  -0.008247  -0.488851  -0.070051  -0.031657   0.011315
   23  C   2  Y  -0.021429  -1.172113   0.901184  -0.061098   0.002444
   24  C   2  Z  -0.193612   0.157606  -0.097466  -0.424115   0.169621
   25  C   2 XX   0.018726  -0.079963   0.045670   0.010220  -0.030408
   26  C   2 YY  -0.020622   0.029283   0.072581  -0.012026   0.006996
   27  C   2 ZZ   0.001896   0.050679  -0.118251   0.001806   0.023412
   28  C   2 XY   0.017139  -0.052219  -0.064007   0.008428  -0.034624
   29  C   2 XZ   0.202680   0.013830  -0.003155   0.103888  -0.325769
   30  C   2 YZ  -0.106400   0.005546  -0.020959  -0.057357   0.034943
   31  C   3  S   0.000151   0.045787   0.094672  -0.000952   0.000151
   32  C   3  S   0.000283   0.141520   0.193930  -0.002155  -0.000241
   33  C   3  S  -0.003875   1.652072  -1.195929   0.014810  -0.030275
   34  C   3  X   0.006409   0.098829  -0.081879  -0.008827   0.004146
   35  C   3  Y   0.014236  -0.182866   0.137895  -0.018521   0.015994
   36  C   3  Z   0.124798   0.015702  -0.011332  -0.168559   0.142427
   37  C   3  X  -0.011773  -0.486349   0.068009   0.014361  -0.006176
   38  C   3  Y  -0.019652  -1.167014  -0.901470   0.035439  -0.035152
   39  C   3  Z  -0.193963   0.157230   0.097912   0.427907  -0.166250
   40  C   3 XX  -0.019341   0.079992   0.045636   0.009155  -0.030514
   41  C   3 YY   0.020919  -0.029496   0.072337  -0.010476   0.006000
   42  C   3 ZZ  -0.001578  -0.050496  -0.117974   0.001321   0.024514
   43  C   3 XY  -0.017041   0.052164  -0.063984   0.008749  -0.035108
   44  C   3 XZ  -0.202693  -0.014820  -0.003073   0.103834  -0.325608
   45  C   3 YZ   0.106398  -0.005616  -0.022208  -0.057632   0.035176
   46  C   4  S   0.000275  -0.045699   0.094658   0.000824   0.000220
   47  C   4  S   0.000656  -0.141327   0.193922   0.001888  -0.000042
   48  C   4  S  -0.000128  -1.653242  -1.195515  -0.013747  -0.029228
   49  C   4  X   0.006573  -0.093017  -0.077488   0.008871   0.004174
   50  C   4  Y   0.014271  -0.184690  -0.139470   0.019498   0.015938
   51  C   4  Z   0.124734   0.025613   0.019756   0.169012   0.141841
   52  C   4  X  -0.012524   0.522343   0.041590  -0.013837  -0.004400
   53  C   4  Y  -0.021116  -1.157419   0.902319  -0.060792  -0.002530
   54  C   4  Z  -0.193601   0.101442  -0.103690  -0.425790  -0.168470
   55  C   4 XX  -0.018776  -0.082820   0.042252  -0.009109  -0.030278
   56  C   4 YY  -0.021388   0.031198   0.074635  -0.012444  -0.008255
   57  C   4 ZZ   0.040164   0.051623  -0.116887   0.021553   0.038534
   58  C   4 XY  -0.028443   0.050094   0.060696  -0.014626  -0.038313
   59  C   4 XZ  -0.197999   0.002971  -0.016987  -0.102519  -0.323693
   60  C   4 YZ  -0.107743  -0.000238  -0.027950  -0.058243  -0.036935
   61  C   5  S  -0.000693   0.230740  -0.090235  -0.000218  -0.000020
   62  C   5  S  -0.001598   0.532124  -0.185354  -0.000481  -0.000029
   63  C   5  S   0.002108   0.483154   2.388934   0.016501   0.001460
   64  C   5  X  -0.020582  -0.000130  -0.005004   0.016767   0.000219
   65  C   5  Y  -0.043573  -0.000998   0.315686   0.034759  -0.000198
   66  C   5  Z  -0.381961  -0.001429  -0.035893   0.311126  -0.000533
   67  C   5  X   0.028076  -0.024198  -0.012449  -0.010086  -0.037038
   68  C   5  Y   0.051930   1.691098   0.794634  -0.019015  -0.001266
   69  C   5  Z   0.518437  -0.188295  -0.088632  -0.183250   0.002476
   70  C   5 XX  -0.000362   0.041938   0.083735   0.000750   0.011614
   71  C   5 YY   0.032595   0.107468   0.069031  -0.032735   0.000240
   72  C   5 ZZ  -0.032233  -0.149406  -0.152766   0.031985  -0.011855
   73  C   5 XY   0.008662  -0.002531  -0.001470  -0.008622   0.012913
   74  C   5 XZ  -0.003593  -0.011858  -0.014763   0.003749   0.123498
   75  C   5 YZ   0.164048  -0.033324  -0.029364  -0.163834   0.000776
   76  C   6  S  -0.000084  -0.230765  -0.090276   0.000335   0.000052
   77  C   6  S  -0.000194  -0.532205  -0.185475   0.000727   0.000096
   78  C   6  S   0.002189  -0.483655   2.386379  -0.019146  -0.001960
   79  C   6  X  -0.020570   0.000185   0.004888  -0.016771   0.000264
   80  C   6  Y  -0.042170  -0.000670  -0.316052  -0.034833  -0.000012
   81  C   6  Z  -0.382025   0.000706   0.034239  -0.311284   0.000596
   82  C   6  X   0.027421  -0.030850   0.012705   0.009623  -0.036919
   83  C   6  Y   0.060256   1.691698  -0.795204   0.022470  -0.001448
   84  C   6  Z   0.517325  -0.187463   0.088691   0.183133   0.001734
   85  C   6 XX   0.000196  -0.042004   0.083676  -0.000327   0.011474
   86  C   6 YY  -0.031782  -0.107421   0.069022  -0.031889   0.000332
   87  C   6 ZZ   0.031585   0.149425  -0.152698   0.032215  -0.011806
   88  C   6 XY  -0.008669   0.002495  -0.001459  -0.008641   0.015030
   89  C   6 XZ   0.003537   0.011870  -0.014755   0.003824   0.123280
   90  C   6 YZ  -0.164192   0.033591  -0.029060  -0.163982   0.000675
   91  O   7  S   0.000038   0.012957  -0.011029   0.000021  -0.000001
   92  O   7  S   0.000178   0.134648  -0.128208   0.000287  -0.000024
   93  O   7  S   0.000705   0.991807  -0.942952   0.003482  -0.000198
   94  O   7  S   0.001214  -0.027200  -0.218373  -0.000180  -0.000226
   95  O   7  X  -0.003460   0.000170  -0.000295   0.001384   0.001356
   96  O   7  Y  -0.006961  -0.004308   0.018404   0.002564   0.000025
   97  O   7  Z  -0.064459   0.000710  -0.002149   0.025498  -0.000126
   98  O   7  X  -0.004838  -0.007579   0.010486  -0.007748   0.004992
   99  O   7  Y  -0.009862   0.502700  -0.669670  -0.014563  -0.000039
  100  O   7  Z  -0.090810  -0.054925   0.073249  -0.144056   0.000006
  101  O   7  X  -0.004236   0.005363  -0.002213   0.009267   0.002527
  102  O   7  Y  -0.008346  -0.331994   0.142598   0.018978   0.000010
  103  O   7  Z  -0.079069   0.036565  -0.015582   0.171656  -0.000405
  104  O   7 XX   0.000020   0.001914  -0.012619   0.000052   0.000681
  105  O   7 YY  -0.003048   0.011264   0.006001  -0.001807   0.000012
  106  O   7 ZZ   0.003027  -0.013177   0.006617   0.001755  -0.000693
  107  O   7 XY  -0.000828  -0.000282  -0.000203  -0.000500   0.000558
  108  O   7 XZ   0.000343  -0.000929   0.001225   0.000212   0.007213
  109  O   7 YZ  -0.015637  -0.003146   0.000101  -0.009462   0.000057
  110  O   7 XX   0.000167  -0.378916   0.548420  -0.004549  -0.026481
  111  O   7 YY   0.072894  -0.033484  -0.170614   0.121878  -0.000539
  112  O   7 ZZ  -0.073061   0.412400  -0.377806  -0.117330   0.027020
  113  O   7 XY   0.019878  -0.000413   0.006590   0.032612  -0.026750
  114  O   7 XZ  -0.008327   0.049796  -0.058748  -0.013633  -0.280977
  115  O   7 YZ   0.375525   0.057373  -0.026632   0.619177  -0.002329
  116  O   8  S   0.000064  -0.012956  -0.011034  -0.000011   0.000004
  117  O   8  S   0.000477  -0.134600  -0.128224  -0.000179   0.000040
  118  O   8  S   0.002951  -0.991231  -0.942930  -0.002712   0.000265
  119  O   8  S   0.000951   0.027147  -0.218187   0.000296   0.000229
  120  O   8  X  -0.003473   0.000043   0.000279  -0.001360   0.001381
  121  O   8  Y  -0.007493  -0.004332  -0.018379  -0.003129   0.000031
  122  O   8  Z  -0.064439   0.000120   0.001956  -0.025415  -0.000024
  123  O   8  X  -0.004887  -0.008207  -0.010581   0.007757   0.005005
  124  O   8  Y  -0.011625   0.502175   0.669368   0.017147  -0.000173
  125  O   8  Z  -0.090623  -0.057283  -0.075869   0.143670  -0.000521
  126  O   8  X  -0.004270   0.005235   0.002244  -0.009234   0.002627
  127  O   8  Y  -0.008494  -0.331672  -0.142549  -0.019435   0.000087
  128  O   8  Z  -0.079019   0.037251   0.016075  -0.171632   0.000147
  129  O   8 XX  -0.000022  -0.001915  -0.012619  -0.000010   0.000666
  130  O   8 YY   0.003138  -0.011230   0.005992  -0.001919   0.000019
  131  O   8 ZZ  -0.003116   0.013145   0.006627   0.001929  -0.000685
  132  O   8 XY   0.000822   0.000282  -0.000201  -0.000494   0.001073
  133  O   8 XZ  -0.000347   0.000927   0.001224   0.000226   0.007158
  134  O   8 YZ   0.015611   0.003285   0.000091  -0.009417   0.000025
  135  O   8 XX   0.000414   0.378922   0.548607   0.002139  -0.026089
  136  O   8 YY  -0.075184   0.032568  -0.171205   0.122019  -0.000893
  137  O   8 ZZ   0.074770  -0.411489  -0.377402  -0.124158   0.026982
  138  O   8 XY  -0.019783   0.000632   0.006472   0.032583  -0.036924
  139  O   8 XZ   0.008311  -0.049726  -0.058682  -0.014466  -0.279892
  140  O   8 YZ  -0.375143  -0.061163  -0.028538   0.618150  -0.001707
  141  H   9  S  -0.000714  -0.085751   0.177601  -0.001038   0.005071
  142  H   9  S  -0.000033  -0.155300   0.275741  -0.001799   0.006564
  143  H   9  X   0.004589  -0.036136   0.017834  -0.001298   0.008514
  144  H   9  Y   0.008926  -0.033774  -0.050470  -0.002332   0.016905
  145  H   9  Z   0.079555   0.006030   0.004368  -0.018505   0.153022
  146  H  10  S  -0.000858   0.085641   0.177954   0.000921   0.005417
  147  H  10  S  -0.000280   0.155263   0.276247   0.001655   0.007061
  148  H  10  X   0.004506   0.037219   0.016215   0.001322   0.008478
  149  H  10  Y   0.009033  -0.033109   0.050659   0.001855   0.017425
  150  H  10  Z   0.079552   0.001648  -0.006892   0.019127   0.152891
  151  H  11  S  -0.000678  -0.085774   0.177586  -0.001090  -0.005535
  152  H  11  S   0.000030  -0.155298   0.275694  -0.001872  -0.007283
  153  H  11  X   0.003987   0.037222  -0.016269  -0.000716  -0.008000
  154  H  11  Y   0.008918  -0.033030  -0.050785  -0.002381  -0.016928
  155  H  11  Z   0.079557   0.001980   0.006214  -0.019064  -0.152996
  156  H  12  S  -0.000947   0.085636   0.177942   0.000861  -0.004958
  157  H  12  S  -0.000430   0.154876   0.276277   0.001559  -0.006372
  158  H  12  X   0.004075  -0.036109  -0.017824   0.000725  -0.007976
  159  H  12  Y   0.009024  -0.033818   0.050339   0.001785  -0.017478
  160  H  12  Z   0.079554   0.005668  -0.005030   0.018611  -0.153020

                     81         82         83         84         85
                    1.1985     1.2097     1.2234     1.2235     1.2334
                     A          A          A          A          A   
    1  C   1  S  -0.162963  -0.017052   0.001167  -0.294012  -0.000947
    2  C   1  S  -0.396149  -0.091128   0.002270  -0.594153  -0.001879
    3  C   1  S   0.547089  -2.560005  -0.024391   4.134260   0.007932
    4  C   1  X  -0.021025   0.356785  -0.002786  -0.225279  -0.002973
    5  C   1  Y   0.172792  -0.029241  -0.009236   0.113325  -0.005678
    6  C   1  Z  -0.017613  -0.016664  -0.083611  -0.001421  -0.052418
    7  C   1  X   2.847517  -0.436031  -0.001664   0.815276  -0.003741
    8  C   1  Y  -1.198599  -1.411669   0.003195  -1.333615   0.005705
    9  C   1  Z  -0.018966   0.183715   0.045520   0.107155   0.041624
   10  C   1 XX  -0.182239   0.030769   0.000134  -0.133742  -0.006632
   11  C   1 YY   0.148129  -0.068102  -0.059675   0.145183  -0.048993
   12  C   1 ZZ   0.034110   0.037333   0.059541  -0.011441   0.055625
   13  C   1 XY  -0.063649   0.010452  -0.016064   0.000135  -0.022071
   14  C   1 XZ   0.021064  -0.004164  -0.001068   0.007017  -0.076408
   15  C   1 YZ  -0.011373   0.013755  -0.299816  -0.021535  -0.244278
   16  C   2  S   0.162913  -0.016615  -0.000710   0.294040  -0.001277
   17  C   2  S   0.396041  -0.090227  -0.001563   0.594297  -0.002578
   18  C   2  S  -0.547157  -2.565349   0.001652  -4.130178   0.011860
   19  C   2  X   0.015590   0.356080  -0.004102   0.221064  -0.003089
   20  C   2  Y   0.173102   0.036154  -0.010338   0.117591  -0.006276
   21  C   2  Z  -0.020982  -0.024038  -0.083475  -0.024827  -0.052416
   22  C   2  X  -2.808563  -0.482053   0.004345  -0.772527  -0.002578
   23  C   2  Y  -1.253346   1.399887   0.017323  -1.350980   0.006093
   24  C   2  Z   0.292396  -0.129347   0.043685   0.192448   0.041583
   25  C   2 XX   0.185476   0.031409  -0.001678   0.133459  -0.007575
   26  C   2 YY  -0.150075  -0.068826   0.059493  -0.144925   0.047408
   27  C   2 ZZ  -0.035401   0.037416  -0.057815   0.011466  -0.039832
   28  C   2 XY  -0.054647  -0.007480   0.014325   0.008756   0.003570
   29  C   2 XZ  -0.007796  -0.002232  -0.014023  -0.008027  -0.087210
   30  C   2 YZ   0.018331   0.013745   0.299857   0.021103   0.243925
   31  C   3  S  -0.162618   0.017000  -0.001033   0.294123  -0.001217
   32  C   3  S  -0.395475   0.091016  -0.001957   0.594459  -0.002445
   33  C   3  S   0.542878   2.560341   0.022941  -4.133977   0.010728
   34  C   3  X   0.015487   0.355870   0.006223  -0.221577  -0.002669
   35  C   3  Y   0.173083   0.036078   0.009153  -0.117730  -0.005627
   36  C   3  Z  -0.019650  -0.022511   0.083607   0.025956  -0.052463
   37  C   3  X  -2.808347  -0.480110  -0.005174   0.776114   0.008214
   38  C   3  Y  -1.251241   1.402470  -0.001546   1.349656   0.003906
   39  C   3  Z   0.291804  -0.133476  -0.045541  -0.194679   0.041316
   40  C   3 XX  -0.185371  -0.031838  -0.001447   0.133650   0.008594
   41  C   3 YY   0.149995   0.068358   0.059578  -0.145262  -0.048533
   42  C   3 ZZ   0.035376  -0.036520  -0.058132   0.011611   0.039938
   43  C   3 XY   0.054681   0.006644   0.015553   0.008545  -0.003654
   44  C   3 XZ   0.007306  -0.004594  -0.014372  -0.008895   0.087206
   45  C   3 YZ  -0.017813  -0.014850   0.300023   0.020888  -0.243330
   46  C   4  S   0.162555   0.016537   0.000552  -0.294121  -0.001040
   47  C   4  S   0.395349   0.090072   0.001203  -0.594528  -0.002114
   48  C   4  S  -0.541267   2.566330  -0.000008   4.130345   0.007832
   49  C   4  X  -0.020884   0.357190   0.004888   0.224766  -0.002784
   50  C   4  Y   0.172667  -0.029224   0.010199  -0.113530  -0.006168
   51  C   4  Z  -0.018971  -0.015198   0.083489   0.000304  -0.052301
   52  C   4  X   2.847369  -0.438018  -0.001427  -0.818041   0.007353
   53  C   4  Y  -1.197638  -1.409830  -0.015476   1.336580   0.004930
   54  C   4  Z  -0.018669   0.180264  -0.044082  -0.105031   0.041053
   55  C   4 XX   0.182205  -0.031617   0.000139  -0.133805   0.007863
   56  C   4 YY  -0.148009   0.068514  -0.059466   0.145280   0.047505
   57  C   4 ZZ  -0.034196  -0.036897   0.059327  -0.011474  -0.055367
   58  C   4 XY   0.063747  -0.011121  -0.017359   0.000131   0.022176
   59  C   4 XZ  -0.020103  -0.002677  -0.001047   0.007990   0.076415
   60  C   4 YZ   0.011496  -0.012687  -0.300118  -0.021442   0.244100
   61  C   5  S  -0.154685  -0.000016   0.000101   0.000071   0.001545
   62  C   5  S  -0.313092  -0.000019   0.000218   0.000132   0.003308
   63  C   5  S   3.936797   0.000363  -0.001434  -0.002083  -0.016548
   64  C   5  X   0.002907   0.046479  -0.000265  -0.150532  -0.006492
   65  C   5  Y  -0.192582   0.000468   0.000014  -0.001329  -0.014850
   66  C   5  Z   0.020390  -0.002577   0.000072   0.008210  -0.122152
   67  C   5  X   0.032333   3.299411   0.014890  -0.975071  -0.012505
   68  C   5  Y  -2.065419   0.032102   0.000744  -0.007913  -0.012609
   69  C   5  Z   0.233600  -0.181334  -0.000738   0.053334  -0.223882
   70  C   5 XX   0.118955  -0.003297  -0.019891  -0.001555  -0.000456
   71  C   5 YY  -0.120979   0.002125  -0.000347   0.000994   0.008832
   72  C   5 ZZ   0.002024   0.001172   0.020239   0.000560  -0.008376
   73  C   5 XY   0.003608   0.126149  -0.024182   0.053165   0.002100
   74  C   5 XZ  -0.007741  -0.012178  -0.212070  -0.006048  -0.001069
   75  C   5 YZ   0.016879  -0.007047  -0.000768  -0.002973   0.041504
   76  C   6  S   0.154752   0.000041  -0.000081  -0.000041   0.001396
   77  C   6  S   0.313266   0.000069  -0.000176  -0.000096   0.002989
   78  C   6  S  -3.937577  -0.001092   0.001275   0.001825  -0.014595
   79  C   6  X   0.003207   0.046723  -0.001246   0.150444  -0.006725
   80  C   6  Y  -0.192219   0.000480   0.000023   0.001533  -0.012626
   81  C   6  Z   0.022475  -0.002600   0.000140  -0.008329  -0.122450
   82  C   6  X   0.033123   3.299521   0.009939   0.969860  -0.012326
   83  C   6  Y  -2.066696   0.031420   0.000482   0.010553  -0.036267
   84  C   6  Z   0.226896  -0.181473  -0.000320  -0.053562  -0.221033
   85  C   6 XX  -0.119089   0.003585  -0.019818  -0.001470  -0.000253
   86  C   6 YY   0.121407  -0.002052  -0.000455   0.000812  -0.007689
   87  C   6 ZZ  -0.002318  -0.001533   0.020273   0.000658   0.007942
   88  C   6 XY  -0.003463  -0.125680  -0.024139   0.053243  -0.002242
   89  C   6 XZ   0.007455   0.015739  -0.212126  -0.007044   0.000834
   90  C   6 YZ  -0.015060   0.007035  -0.000726  -0.003015  -0.041744
   91  O   7  S  -0.009406   0.000003   0.000006   0.000001  -0.000107
   92  O   7  S  -0.080150   0.000003   0.000025   0.000036  -0.000409
   93  O   7  S  -0.468897  -0.000115   0.000019   0.000326  -0.002124
   94  O   7  S  -0.632160  -0.000193   0.000175   0.000399  -0.002398
   95  O   7  X  -0.000842  -0.191835   0.000404  -0.282855   0.011692
   96  O   7  Y   0.041931  -0.001848  -0.000010  -0.002795   0.023831
   97  O   7  Z  -0.004986   0.010600  -0.000184   0.015640   0.214165
   98  O   7  X   0.006779  -0.380635  -0.001527   0.075137  -0.013131
   99  O   7  Y  -0.423113  -0.003753   0.000093   0.001023  -0.027422
  100  O   7  Z   0.047361   0.020884   0.000225  -0.004260  -0.242838
  101  O   7  X  -0.000997  -0.329012   0.001660  -0.556795   0.013594
  102  O   7  Y   0.036756  -0.003253  -0.000017  -0.005370   0.027238
  103  O   7  Z  -0.005263   0.018166  -0.000303   0.030718   0.247007
  104  O   7 XX   0.004802  -0.000680  -0.000207  -0.000404   0.000038
  105  O   7 YY  -0.002150   0.000418  -0.000004   0.000249   0.000816
  106  O   7 ZZ  -0.002652   0.000262   0.000211   0.000155  -0.000855
  107  O   7 XY   0.000083   0.025405  -0.000267   0.014708   0.000236
  108  O   7 XZ  -0.000478  -0.002708  -0.002180  -0.001629  -0.000100
  109  O   7 YZ  -0.000042  -0.001422  -0.000009  -0.000824   0.004605
  110  O   7 XX  -0.381712   0.014898   0.035372   0.013748  -0.002399
  111  O   7 YY   0.273299  -0.009348   0.000539  -0.008469   0.093131
  112  O   7 ZZ   0.108413  -0.005550  -0.035911  -0.005279  -0.090732
  113  O   7 XY  -0.008897  -0.559994   0.043862  -0.496014   0.025301
  114  O   7 XZ   0.031698   0.057906   0.375481   0.055033  -0.010082
  115  O   7 YZ  -0.023512   0.031484   0.000834   0.028040   0.473945
  116  O   8  S   0.009407   0.000002  -0.000006  -0.000002  -0.000108
  117  O   8  S   0.080165  -0.000014  -0.000028  -0.000046  -0.000438
  118  O   8  S   0.468820  -0.000221  -0.000092  -0.000420  -0.002404
  119  O   8  S   0.631952  -0.000106  -0.000227  -0.000429  -0.002776
  120  O   8  X  -0.000506  -0.191435  -0.001241   0.283222   0.011455
  121  O   8  Y   0.041940  -0.001869  -0.000034   0.002665   0.024191
  122  O   8  Z  -0.004300   0.010533  -0.000030  -0.015480   0.214110
  123  O   8  X   0.006637  -0.380747  -0.001035  -0.074666  -0.012956
  124  O   8  Y  -0.423129  -0.003519   0.000130  -0.000369  -0.026815
  125  O   8  Z   0.046863   0.020885   0.000155   0.003969  -0.242841
  126  O   8  X  -0.000216  -0.328195  -0.001644   0.557447   0.013144
  127  O   8  Y   0.037031  -0.003161  -0.000038   0.005348   0.028202
  128  O   8  Z  -0.002866   0.018054  -0.000018  -0.030534   0.246952
  129  O   8 XX  -0.004795   0.000699  -0.000198  -0.000400   0.000059
  130  O   8 YY   0.002149  -0.000424  -0.000008   0.000242  -0.001000
  131  O   8 ZZ   0.002645  -0.000275   0.000206   0.000158   0.000940
  132  O   8 XY  -0.000067  -0.025368  -0.000314   0.014746  -0.000240
  133  O   8 XZ   0.000468   0.002904  -0.002175  -0.001643   0.000098
  134  O   8 YZ   0.000099   0.001422  -0.000001  -0.000828  -0.004568
  135  O   8 XX   0.381459  -0.015483   0.034867   0.013586  -0.001309
  136  O   8 YY  -0.274037   0.009298   0.000903  -0.008164  -0.093277
  137  O   8 ZZ  -0.107421   0.006185  -0.035771  -0.005422   0.094586
  138  O   8 XY   0.008073   0.558454   0.044144  -0.496862  -0.024891
  139  O   8 XZ  -0.031009  -0.065574   0.375448   0.057039   0.011017
  140  O   8 YZ   0.018506  -0.031399   0.001420   0.027652  -0.473507
  141  H   9  S  -0.403757  -0.498160  -0.002467   0.219342   0.000306
  142  H   9  S  -0.711012  -0.670400  -0.004143   0.696757   0.000931
  143  H   9  X  -0.002814   0.001768   0.006021   0.058683  -0.008017
  144  H   9  Y  -0.065544   0.031578   0.013383  -0.046972  -0.015687
  145  H   9  Z   0.007542  -0.002353   0.116622   0.002656  -0.142605
  146  H  10  S   0.403602  -0.498676  -0.001322  -0.218751   0.000280
  147  H  10  S   0.710974  -0.671759  -0.000319  -0.695888   0.001081
  148  H  10  X   0.004838   0.002685   0.006344  -0.057159  -0.007968
  149  H  10  Y  -0.065509  -0.031282   0.013145  -0.048104  -0.016266
  150  H  10  Z   0.006953   0.004698   0.116592   0.008526  -0.142507
  151  H  11  S  -0.403891   0.498239   0.002583  -0.218922   0.000188
  152  H  11  S  -0.711881   0.670708   0.004398  -0.696095   0.001059
  153  H  11  X   0.004905   0.002652  -0.006549   0.057127  -0.007418
  154  H  11  Y  -0.065417  -0.031496  -0.013315   0.048172  -0.015723
  155  H  11  Z   0.007152   0.002060  -0.116388  -0.009122  -0.142692
  156  H  12  S   0.403742   0.498486   0.001242   0.218260   0.000123
  157  H  12  S   0.711707   0.671658   0.000128   0.695133   0.000556
  158  H  12  X  -0.002867   0.001558  -0.006195  -0.058671  -0.007354
  159  H  12  Y  -0.065556   0.031310  -0.013083   0.047067  -0.016332
  160  H  12  Z   0.007399  -0.004959  -0.116416  -0.002246  -0.142690

                     86         87         88         89         90
                    1.2743     1.2806     1.3045     1.3085     1.3415
                     A          A          A          A          A   
    1  C   1  S   0.003818   0.182208  -0.115764   0.000504   0.172651
    2  C   1  S   0.010348   0.360452  -0.229047   0.001124   0.381449
    3  C   1  S  -1.285110  -1.545795   2.531773  -0.000465  -2.006992
    4  C   1  X  -0.021610   0.003704  -0.071207   0.007949  -0.034701
    5  C   1  Y  -0.111270  -0.085721  -0.153709   0.017503  -0.114098
    6  C   1  Z   0.013466   0.009112   0.021216   0.153559   0.014594
    7  C   1  X   1.146495   1.270870  -0.245598  -0.015989  -0.180317
    8  C   1  Y   1.754955   0.494598   1.482818  -0.043244   0.911473
    9  C   1  Z  -0.257853  -0.122991  -0.154458  -0.278449  -0.092918
   10  C   1 XX   0.055835  -0.093198   0.008422   0.023671   0.064821
   11  C   1 YY  -0.089656   0.129400  -0.045166  -0.004140  -0.034039
   12  C   1 ZZ   0.033821  -0.036202   0.036744  -0.019531  -0.030781
   13  C   1 XY  -0.109670  -0.023248  -0.143911   0.028704  -0.026832
   14  C   1 XZ   0.011311   0.005457   0.018882   0.257507  -0.002689
   15  C   1 YZ   0.022373  -0.021197   0.017709  -0.023878   0.001704
   16  C   2  S  -0.004046   0.182513  -0.115717  -0.000324  -0.172536
   17  C   2  S  -0.010826   0.361098  -0.228961  -0.000754  -0.381220
   18  C   2  S   1.286670  -1.546069   2.530186  -0.001068   2.005436
   19  C   2  X   0.025216   0.001013  -0.075991  -0.008040   0.038271
   20  C   2  Y  -0.110705   0.085756   0.152316  -0.017053  -0.113362
   21  C   2  Z   0.011333  -0.009885  -0.013005  -0.153525   0.010739
   22  C   2  X  -1.202560   1.284413  -0.198185   0.017143   0.152427
   23  C   2  Y   1.732158  -0.468425  -1.487197   0.019948   0.914757
   24  C   2  Z  -0.130831  -0.015929   0.176712   0.281010  -0.110692
   25  C   2 XX  -0.049589  -0.094202   0.000488  -0.023742  -0.063347
   26  C   2 YY   0.085739   0.130364  -0.039972  -0.005484   0.033121
   27  C   2 ZZ  -0.036150  -0.036162   0.039485   0.029225   0.030226
   28  C   2 XY  -0.114515   0.015722   0.146234  -0.029500  -0.029131
   29  C   2 XZ   0.013670   0.001272  -0.013382  -0.256659   0.008844
   30  C   2 YZ  -0.009779  -0.021989   0.003391  -0.025738   0.001140
   31  C   3  S   0.003935   0.182353   0.115837  -0.000402   0.172549
   32  C   3  S   0.010598   0.360749   0.229222  -0.000927   0.381248
   33  C   3  S  -1.286721  -1.545910  -2.532036  -0.000172  -2.006453
   34  C   3  X   0.025170  -0.001016  -0.076080  -0.008586   0.038150
   35  C   3  Y  -0.110840  -0.085784   0.152257  -0.017499  -0.113465
   36  C   3  Z   0.010807   0.009481  -0.013116  -0.153481   0.010598
   37  C   3  X  -1.201431  -1.285972  -0.198058   0.013568   0.152803
   38  C   3  Y   1.733844   0.469773  -1.486463   0.043074   0.916170
   39  C   3  Z  -0.128867   0.017323   0.178836   0.278550  -0.111397
   40  C   3 XX   0.049737  -0.094141  -0.000285   0.024324   0.063333
   41  C   3 YY  -0.085963   0.130072   0.040309   0.005222  -0.033231
   42  C   3 ZZ   0.036227  -0.035930  -0.040024  -0.029546  -0.030102
   43  C   3 XY   0.114566   0.015794  -0.145967   0.031346   0.029083
   44  C   3 XZ  -0.013720   0.002152   0.014753   0.256343  -0.009356
   45  C   3 YZ   0.009674  -0.023369  -0.001470   0.025665  -0.001396
   46  C   4  S  -0.004070   0.182420   0.115676   0.000399  -0.172529
   47  C   4  S  -0.010841   0.360922   0.228882   0.000900  -0.381218
   48  C   4  S   1.288851  -1.546076  -2.530444   0.000273   2.006803
   49  C   4  X  -0.021570  -0.003679  -0.071178   0.008536  -0.034600
   50  C   4  Y  -0.111250   0.085699  -0.153822   0.017117  -0.114081
   51  C   4  Z   0.013905  -0.009719   0.021096   0.153588   0.014773
   52  C   4  X   1.147401  -1.269480  -0.245668  -0.014091  -0.182038
   53  C   4  Y   1.755787  -0.493575   1.483934  -0.020356   0.912286
   54  C   4  Z  -0.260230   0.124763  -0.152501  -0.281077  -0.092424
   55  C   4 XX  -0.055783  -0.093050  -0.008301  -0.024491  -0.064884
   56  C   4 YY   0.089603   0.129691   0.044829   0.004565   0.034136
   57  C   4 ZZ  -0.033821  -0.036641  -0.036527   0.019926   0.030748
   58  C   4 XY   0.109737  -0.022928   0.143992  -0.026973   0.026818
   59  C   4 XZ  -0.011062   0.006537  -0.017451  -0.257596   0.003180
   60  C   4 YZ  -0.022233  -0.019836  -0.019638   0.023745  -0.002014
   61  C   5  S   0.266965  -0.245460   0.000027  -0.000067   0.073208
   62  C   5  S   0.612560  -0.515475   0.000059  -0.000148   0.151172
   63  C   5  S  -1.170829   1.391839  -0.001160   0.000238  -1.637408
   64  C   5  X   0.004837  -0.001565   0.324156  -0.002687  -0.002598
   65  C   5  Y  -0.307116   0.103562   0.003144   0.000019   0.157143
   66  C   5  Z   0.035186  -0.011856  -0.017826   0.000172  -0.017443
   67  C   5  X   0.010523   0.057060  -2.605157   0.012359   0.030385
   68  C   5  Y  -0.635737  -3.619893  -0.025221  -0.000629  -1.854825
   69  C   5  Z   0.071178   0.406761   0.143165  -0.000607   0.209149
   70  C   5 XX   0.038950   0.185919   0.000001  -0.028804   0.232204
   71  C   5 YY   0.021154  -0.300876  -0.000119  -0.000692  -0.347586
   72  C   5 ZZ  -0.060105   0.114957   0.000118   0.029495   0.115382
   73  C   5 XY  -0.000332   0.008432  -0.005249  -0.035429   0.009765
   74  C   5 XZ  -0.006217  -0.004977  -0.000668  -0.308386  -0.008038
   75  C   5 YZ  -0.010817   0.054951   0.000289  -0.001029   0.061079
   76  C   6  S  -0.266686  -0.245618  -0.000006  -0.000002  -0.073218
   77  C   6  S  -0.611995  -0.515846  -0.000013  -0.000002  -0.151230
   78  C   6  S   1.168904   1.391168   0.001731  -0.000244   1.637936
   79  C   6  X   0.004796   0.001521   0.324235   0.002492  -0.002445
   80  C   6  Y  -0.307210  -0.104009   0.003100   0.000064   0.156988
   81  C   6  Z   0.033348   0.011282  -0.017817  -0.000102  -0.017599
   82  C   6  X   0.010147  -0.056556  -2.605030  -0.011709   0.029065
   83  C   6  Y  -0.638482   3.620413  -0.024969   0.000871  -1.853408
   84  C   6  Z   0.070878  -0.400304   0.143219   0.000398   0.204082
   85  C   6 XX  -0.039180   0.185993  -0.000222   0.028973  -0.232106
   86  C   6 YY  -0.020924  -0.301348   0.000152   0.000447   0.347750
   87  C   6 ZZ   0.060104   0.115355   0.000070  -0.029419  -0.115644
   88  C   6 XY   0.000306   0.008335   0.005036   0.034430  -0.009758
   89  C   6 XZ   0.006277  -0.005096  -0.001627   0.308477   0.008014
   90  C   6 YZ   0.010539   0.053385  -0.000314   0.001180  -0.059395
   91  O   7  S   0.017579   0.011679   0.000000   0.000003   0.015869
   92  O   7  S   0.001895   0.133706  -0.000013   0.000048  -0.015664
   93  O   7  S  -0.545292   1.426670  -0.000158   0.000540  -1.134168
   94  O   7  S  -0.215004   1.220735  -0.000152   0.000478  -1.073051
   95  O   7  X  -0.001872   0.005228  -0.169523  -0.000860  -0.007248
   96  O   7  Y   0.120505  -0.329496  -0.001608  -0.000160   0.461915
   97  O   7  Z  -0.012391   0.037546   0.009298   0.000064  -0.050661
   98  O   7  X   0.006320  -0.017762   0.533104   0.002314   0.018194
   99  O   7  Y  -0.408802   1.119717   0.004930   0.000557  -1.158376
  100  O   7  Z   0.043881  -0.124251  -0.029269  -0.000137   0.127162
  101  O   7  X   0.000168  -0.000310  -0.334713  -0.001364   0.001649
  102  O   7  Y  -0.013136   0.023797  -0.003250   0.000006  -0.106120
  103  O   7  Z   0.002254  -0.001470   0.018389   0.000092   0.011879
  104  O   7 XX  -0.010739  -0.015777   0.000078   0.000579   0.017563
  105  O   7 YY   0.009099   0.031789  -0.000049   0.000021  -0.040582
  106  O   7 ZZ   0.001640  -0.016012  -0.000029  -0.000600   0.023019
  107  O   7 XY  -0.000270  -0.000870  -0.002856   0.000716   0.001104
  108  O   7 XZ   0.000797   0.000043   0.000302   0.006226   0.000267
  109  O   7 YZ  -0.000934  -0.006136   0.000161   0.000017   0.008170
  110  O   7 XX   0.505901   0.135354   0.014938  -0.034570  -0.113038
  111  O   7 YY  -0.146898  -0.242817  -0.009193  -0.000794   0.243439
  112  O   7 ZZ  -0.359003   0.107462  -0.005745   0.035365  -0.130401
  113  O   7 XY   0.005703   0.006850  -0.547565  -0.043806  -0.006657
  114  O   7 XZ  -0.054878  -0.002116   0.060789  -0.369713  -0.000648
  115  O   7 YZ  -0.026638   0.046161   0.030701  -0.001167  -0.047572
  116  O   8  S  -0.017576   0.011679  -0.000008   0.000008  -0.015865
  117  O   8  S  -0.001958   0.133749  -0.000009   0.000042   0.015742
  118  O   8  S   0.544285   1.426596   0.000227   0.000306   1.134813
  119  O   8  S   0.213937   1.220452   0.000102   0.000313   1.073652
  120  O   8  X  -0.001935  -0.005186  -0.169472   0.001060  -0.007273
  121  O   8  Y   0.119998   0.329544  -0.001561   0.000090   0.461982
  122  O   8  Z  -0.014503  -0.036009   0.009338  -0.000101  -0.052279
  123  O   8  X   0.006397   0.017732   0.533009  -0.002578   0.018225
  124  O   8  Y  -0.407586  -1.119597   0.004955  -0.000314  -1.158672
  125  O   8  Z   0.047193   0.125405  -0.029303   0.000226   0.131031
  126  O   8  X   0.000172   0.000368  -0.334648   0.001654   0.001780
  127  O   8  Y  -0.013245  -0.023473  -0.003231   0.000006  -0.106092
  128  O   8  Z   0.000609   0.003715   0.018417  -0.000101   0.011793
  129  O   8 XX   0.010757  -0.015755  -0.000081  -0.000589  -0.017571
  130  O   8 YY  -0.009117   0.031720   0.000053  -0.000002   0.040553
  131  O   8 ZZ  -0.001640  -0.015964   0.000028   0.000590  -0.022982
  132  O   8 XY   0.000273  -0.000877   0.002853  -0.000687  -0.001106
  133  O   8 XZ  -0.000800   0.000050  -0.000333  -0.006230  -0.000263
  134  O   8 YZ   0.000987  -0.006307  -0.000161  -0.000023  -0.008409
  135  O   8 XX  -0.506247   0.134845  -0.014942   0.034785   0.113143
  136  O   8 YY   0.147902  -0.242762   0.009122   0.000584  -0.243274
  137  O   8 ZZ   0.358345   0.107917   0.005820  -0.035369   0.130131
  138  O   8 XY  -0.005590   0.006786   0.547583   0.039481   0.006491
  139  O   8 XZ   0.054756  -0.002277  -0.060194   0.370212   0.000633
  140  O   8 YZ   0.030276   0.045185  -0.030706   0.001445   0.049781
  141  H   9  S  -0.453083  -0.107396   0.282378  -0.002071   0.238002
  142  H   9  S  -0.647323  -0.438929   0.201440  -0.001938  -0.115499
  143  H   9  X   0.034956   0.024568   0.036917  -0.010108  -0.036449
  144  H   9  Y  -0.009138  -0.053793  -0.039265  -0.021178  -0.047179
  145  H   9  Z  -0.000755   0.004129   0.002350  -0.185618   0.007350
  146  H  10  S   0.452892  -0.106864   0.282183   0.002098  -0.238140
  147  H  10  S   0.647485  -0.438460   0.201280   0.001849   0.115198
  148  H  10  X  -0.034665   0.022812   0.035655   0.010103   0.037922
  149  H  10  Y  -0.009907   0.054108   0.039915   0.020573  -0.046461
  150  H  10  Z   0.002825  -0.008005  -0.006372   0.185778   0.003084
  151  H  11  S  -0.452935  -0.107366  -0.282306   0.002207   0.238032
  152  H  11  S  -0.647295  -0.439064  -0.201377   0.001923  -0.115670
  153  H  11  X  -0.034629  -0.022934   0.035646   0.009885   0.037922
  154  H  11  Y  -0.009785  -0.054266   0.039916   0.021155  -0.046485
  155  H  11  Z   0.003205   0.006616  -0.006341   0.185708   0.003257
  156  H  12  S   0.452985  -0.106685  -0.282378  -0.002140  -0.238007
  157  H  12  S   0.647655  -0.438247  -0.201354  -0.002187   0.115401
  158  H  12  X   0.034975  -0.024594   0.036855  -0.009936  -0.036468
  159  H  12  Y  -0.009209   0.053713  -0.039229  -0.020512  -0.047203
  160  H  12  Z  -0.000939  -0.005302   0.002371  -0.185731   0.007132

                     91         92         93         94         95
                    1.3707     1.3817     1.3823     1.4322     1.4454
                     A          A          A          A          A   
    1  C   1  S   0.196726   0.000723   0.000157  -0.121439  -0.325624
    2  C   1  S   0.415526   0.001493   0.000268  -0.248486  -0.679391
    3  C   1  S  -1.435596  -0.005700  -0.002606   1.115887   2.650023
    4  C   1  X  -0.003415   0.004830  -0.000510  -0.023755   0.245358
    5  C   1  Y  -0.015227   0.009438  -0.000789   0.149909  -0.041215
    6  C   1  Z   0.001078   0.090226  -0.010633  -0.014829  -0.008525
    7  C   1  X   0.256163   0.005797  -0.007542  -1.257890  -2.979134
    8  C   1  Y  -2.485033   0.002007  -0.019307  -0.535730  -0.952489
    9  C   1  Z   0.268490   0.002152  -0.157096   0.126664   0.265307
   10  C   1 XX   0.020388  -0.017917   0.015970   0.045864   0.010038
   11  C   1 YY   0.012249   0.045107   0.015213  -0.109817  -0.026302
   12  C   1 ZZ  -0.032637  -0.027190  -0.031184   0.063954   0.016264
   13  C   1 XY   0.152034  -0.008844   0.024075  -0.087412   0.119182
   14  C   1 XZ  -0.022000  -0.191621   0.174737   0.010313  -0.013374
   15  C   1 YZ  -0.014157   0.227663   0.075372   0.029471  -0.000526
   16  C   2  S  -0.196621   0.000860  -0.000146  -0.121587   0.325583
   17  C   2  S  -0.415307   0.001775  -0.000243  -0.248786   0.679318
   18  C   2  S   1.432998  -0.007154   0.002785   1.116165  -2.648755
   19  C   2  X   0.003914   0.004799   0.000294  -0.018863  -0.244112
   20  C   2  Y  -0.014963   0.010871   0.001216  -0.150130  -0.046115
   21  C   2  Z   0.002276   0.090438   0.007114   0.018620   0.018245
   22  C   2  X  -0.176873   0.006704   0.007609  -1.276375   3.006806
   23  C   2  Y  -2.489386  -0.000899   0.015853   0.511877  -0.893972
   24  C   2  Z   0.286016   0.008386   0.157264   0.010291  -0.059490
   25  C   2 XX  -0.028780  -0.017833  -0.015597   0.040874  -0.016404
   26  C   2 YY  -0.006997  -0.044349   0.015981  -0.107449   0.030283
   27  C   2 ZZ   0.035777   0.062182  -0.000384   0.066574  -0.013879
   28  C   2 XY   0.152543  -0.033999  -0.014550   0.093042   0.117811
   29  C   2 XZ  -0.011785  -0.188123  -0.171037  -0.009630  -0.012947
   30  C   2 YZ  -0.002496  -0.226196   0.082802   0.015946  -0.011701
   31  C   3  S  -0.196630   0.000804   0.000048  -0.121664   0.325647
   32  C   3  S  -0.415347   0.001663   0.000035  -0.248941   0.679432
   33  C   3  S   1.433000  -0.006378  -0.002073   1.117463  -2.650758
   34  C   3  X  -0.003837   0.004952  -0.000709   0.018978   0.244091
   35  C   3  Y   0.015095   0.009456  -0.000783   0.150380   0.046057
   36  C   3  Z  -0.000669   0.090272  -0.010599  -0.017161  -0.018422
   37  C   3  X   0.177250  -0.006028  -0.008898   1.275719  -3.006578
   38  C   3  Y   2.489873   0.001876  -0.018793  -0.512716   0.895526
   39  C   3  Z  -0.292345   0.002666  -0.157151  -0.012397   0.063603
   40  C   3 XX  -0.029000   0.017017  -0.017027   0.040957  -0.016385
   41  C   3 YY  -0.007113   0.045812   0.014543  -0.106738   0.029984
   42  C   3 ZZ   0.036113  -0.062829   0.002484   0.065781  -0.013599
   43  C   3 XY   0.152254   0.032927  -0.016179   0.093397   0.117668
   44  C   3 XZ  -0.014470   0.181483  -0.177960  -0.008087  -0.013492
   45  C   3 YZ  -0.002987   0.228998   0.074234   0.019321  -0.012829
   46  C   4  S   0.196689   0.000779  -0.000050  -0.121326  -0.325722
   47  C   4  S   0.415475   0.001605  -0.000047  -0.248224  -0.679578
   48  C   4  S  -1.433806  -0.006501   0.001734   1.114862   2.652327
   49  C   4  X   0.003370   0.004893   0.000455   0.023911  -0.245387
   50  C   4  Y   0.015009   0.010883   0.001213  -0.149753   0.041280
   51  C   4  Z  -0.002670   0.090435   0.007104   0.016244   0.008661
   52  C   4  X  -0.255922  -0.005281   0.008976   1.258129   2.979007
   53  C   4  Y   2.486383  -0.000989   0.016753   0.535089   0.952645
   54  C   4  Z  -0.262509   0.009128   0.157176  -0.128947  -0.269813
   55  C   4 XX   0.020675   0.018305   0.016117   0.045982   0.010043
   56  C   4 YY   0.012122  -0.043623   0.016597  -0.110459  -0.026410
   57  C   4 ZZ  -0.032797   0.025318  -0.032714   0.064476   0.016367
   58  C   4 XY   0.152346   0.010181   0.023434  -0.087429   0.119185
   59  C   4 XZ  -0.019203   0.198039   0.167356   0.012118  -0.012771
   60  C   4 YZ  -0.014575  -0.224884   0.083939   0.026070  -0.001430
   61  C   5  S  -0.000048  -0.001987  -0.000846   0.442244   0.000161
   62  C   5  S  -0.000091  -0.004092  -0.001818   0.894960   0.000326
   63  C   5  S   0.000960   0.022917   0.004637  -3.977618  -0.002201
   64  C   5  X  -0.510379  -0.004918   0.003867   0.000503  -0.006819
   65  C   5  Y  -0.004883  -0.009682   0.008370  -0.034740  -0.000019
   66  C   5  Z   0.028025  -0.091713   0.073176   0.003238   0.000374
   67  C   5  X   3.733981  -0.009864   0.007815  -0.027049  -0.383320
   68  C   5  Y   0.035514  -0.026568   0.012149   1.697275  -0.003085
   69  C   5  Z  -0.205221  -0.180766   0.135652  -0.190733   0.021006
   70  C   5 XX   0.002149  -0.001020  -0.000481   0.191265  -0.007198
   71  C   5 YY  -0.001192  -0.015171   0.026859  -0.262342   0.004285
   72  C   5 ZZ  -0.000957   0.016191  -0.026378   0.071077   0.002913
   73  C   5 XY  -0.071233  -0.004443   0.007099   0.007372   0.265279
   74  C   5 XZ   0.009696   0.001920  -0.002956  -0.008014  -0.029346
   75  C   5 YZ   0.003970  -0.084194   0.135240   0.043158  -0.014835
   76  C   6  S  -0.000027  -0.001987   0.000824   0.442139   0.000164
   77  C   6  S  -0.000037  -0.004091   0.001774   0.894768   0.000345
   78  C   6  S   0.001777   0.023673  -0.004185  -3.977750  -0.002377
   79  C   6  X   0.510416  -0.005105  -0.003665  -0.000538   0.006749
   80  C   6  Y   0.004862  -0.011305  -0.007678   0.034588   0.000170
   81  C   6  Z  -0.028052  -0.094268  -0.069655  -0.004526  -0.000389
   82  C   6  X  -3.732996  -0.009973  -0.007676   0.026856   0.383421
   83  C   6  Y  -0.034823  -0.014768  -0.017671  -1.697407   0.002367
   84  C   6  Z   0.205123  -0.187179  -0.127950   0.187556  -0.020854
   85  C   6 XX   0.001902  -0.001253   0.000070   0.191309  -0.007216
   86  C   6 YY  -0.001291   0.018927   0.025829  -0.262347   0.004325
   87  C   6 ZZ  -0.000611  -0.017675  -0.025898   0.071038   0.002891
   88  C   6 XY  -0.071619   0.004684   0.006946   0.007402   0.265317
   89  C   6 XZ   0.006094  -0.001918  -0.002924  -0.008130  -0.029349
   90  C   6 YZ   0.004001   0.088805   0.131923   0.043589  -0.014824
   91  O   7  S   0.000002   0.000123  -0.000225  -0.042857  -0.000018
   92  O   7  S   0.000019   0.000125  -0.000652  -0.115972  -0.000049
   93  O   7  S   0.000340  -0.002940  -0.000285   0.185528  -0.000020
   94  O   7  S   0.000384  -0.002675  -0.001445   0.211205   0.000026
   95  O   7  X  -0.095289   0.028834   0.031762   0.004993  -0.097066
   96  O   7  Y  -0.001082   0.061445   0.064941  -0.306050  -0.000924
   97  O   7  Z   0.005211   0.535296   0.589401   0.035913   0.005351
   98  O   7  X   0.524655  -0.029693  -0.033962  -0.011283   0.340982
   99  O   7  Y   0.005367  -0.067288  -0.070303   0.698509   0.003484
  100  O   7  Z  -0.028830  -0.551963  -0.631964  -0.079217  -0.018790
  101  O   7  X  -0.158453   0.014506   0.014998  -0.000006   0.048440
  102  O   7  Y  -0.001496   0.029865   0.030435   0.003885   0.000524
  103  O   7  Z   0.008683   0.268921   0.278728   0.000641  -0.002671
  104  O   7 XX   0.000041   0.000058   0.000001  -0.009143   0.000350
  105  O   7 YY  -0.000015  -0.001610  -0.000044   0.022033  -0.000213
  106  O   7 ZZ  -0.000026   0.001552   0.000042  -0.012889  -0.000138
  107  O   7 XY  -0.001892  -0.000411  -0.000015  -0.000594  -0.012999
  108  O   7 XZ   0.000189   0.000171   0.000006  -0.000196   0.001407
  109  O   7 YZ   0.000103  -0.007794  -0.000271  -0.004538   0.000729
  110  O   7 XX   0.012485   0.000199  -0.000848   0.079457  -0.012764
  111  O   7 YY  -0.007684   0.027244   0.030537  -0.160147   0.007874
  112  O   7 ZZ  -0.004801  -0.027444  -0.029688   0.080690   0.004890
  113  O   7 XY  -0.451875   0.007379   0.008262   0.004226   0.469613
  114  O   7 XZ   0.050985  -0.003112  -0.003359  -0.000180  -0.051603
  115  O   7 YZ   0.025363   0.138453   0.158444   0.031771  -0.026314
  116  O   8  S   0.000004   0.000143   0.000220  -0.042853  -0.000011
  117  O   8  S   0.000012   0.000198   0.000629  -0.115956  -0.000034
  118  O   8  S   0.000016  -0.002794   0.000121   0.185318   0.000131
  119  O   8  S   0.000062  -0.002420   0.001250   0.211069   0.000096
  120  O   8  X   0.095252   0.027644  -0.032792  -0.004740   0.097058
  121  O   8  Y   0.000952   0.056241  -0.069734   0.306386   0.001063
  122  O   8  Z  -0.005088   0.512845  -0.609044  -0.032449  -0.005409
  123  O   8  X  -0.524658  -0.028537   0.035099   0.011007  -0.340902
  124  O   8  Y  -0.005057  -0.054302   0.074165  -0.698611  -0.003568
  125  O   8  Z   0.028679  -0.528734   0.652333   0.076562   0.018841
  126  O   8  X   0.158462   0.013891  -0.015514   0.000103  -0.048448
  127  O   8  Y   0.001530   0.029245  -0.033257  -0.003586  -0.000470
  128  O   8  Z  -0.008635   0.258086  -0.288564   0.001435   0.002636
  129  O   8 XX   0.000051   0.000036   0.000001  -0.009142   0.000350
  130  O   8 YY  -0.000029   0.001458  -0.000126   0.022021  -0.000202
  131  O   8 ZZ  -0.000022  -0.001494   0.000125  -0.012880  -0.000149
  132  O   8 XY  -0.001889   0.000412  -0.000028  -0.000594  -0.012998
  133  O   8 XZ   0.000230  -0.000173   0.000013  -0.000193   0.001467
  134  O   8 YZ   0.000106   0.007808  -0.000567  -0.004571   0.000724
  135  O   8 XX   0.012262   0.000575   0.000363   0.079512  -0.012762
  136  O   8 YY  -0.007567  -0.026017   0.032821  -0.160371   0.007751
  137  O   8 ZZ  -0.004696   0.025442  -0.033184   0.080858   0.005011
  138  O   8 XY  -0.451980  -0.006927   0.008515   0.004269   0.469454
  139  O   8 XZ   0.049080   0.002810  -0.003700  -0.000236  -0.052304
  140  O   8 YZ   0.025269  -0.132484   0.163165   0.031136  -0.026317
  141  H   9  S  -0.438176  -0.001529   0.000339   0.379349  -0.492058
  142  H   9  S  -0.484233  -0.001455   0.000450   0.353951  -0.848830
  143  H   9  X   0.015477   0.002866   0.006741  -0.075401   0.084478
  144  H   9  Y   0.000179   0.005155   0.013729   0.005250  -0.092560
  145  H   9  Z   0.000063   0.046745   0.121655   0.004408   0.006035
  146  H  10  S   0.438071  -0.001463  -0.000286   0.379154   0.492367
  147  H  10  S   0.484153  -0.001349  -0.000344   0.353581   0.849251
  148  H  10  X  -0.015452   0.002596  -0.006833  -0.075190  -0.081627
  149  H  10  Y  -0.000302   0.004825  -0.013793  -0.006465  -0.094198
  150  H  10  Z  -0.000050   0.042009  -0.123339   0.005610   0.014781
  151  H  11  S   0.438139  -0.001493   0.000384   0.378925   0.492496
  152  H  11  S   0.484295  -0.001374   0.000455   0.353549   0.849363
  153  H  11  X   0.015350   0.002177   0.006357   0.075286   0.081637
  154  H  11  Y   0.000100   0.005159   0.013715   0.006651   0.094165
  155  H  11  Z  -0.001826   0.046704   0.121607  -0.003899  -0.015178
  156  H  12  S  -0.438160  -0.001503  -0.000412   0.379511  -0.492126
  157  H  12  S  -0.484442  -0.001424  -0.000455   0.354231  -0.848954
  158  H  12  X  -0.015402   0.001933  -0.006464   0.075500  -0.084492
  159  H  12  Y   0.000029   0.004846  -0.013801  -0.005075   0.092602
  160  H  12  Z   0.001744   0.042043  -0.123333  -0.002619  -0.005678

                     96         97         98         99        100
                    1.5700     1.6117     1.6828     1.6882     1.7032
                     A          A          A          A          A   
    1  C   1  S  -0.258874   0.000800  -0.000407  -0.009699  -0.000400
    2  C   1  S  -0.506222   0.001550  -0.000748  -0.012789  -0.000760
    3  C   1  S   1.323809  -0.005089   0.010655   0.331900   0.008540
    4  C   1  X   0.085831   0.000506   0.000869  -0.098208   0.009266
    5  C   1  Y   0.029655   0.001940   0.001734   0.203301   0.020355
    6  C   1  Z  -0.007645   0.018786   0.016064  -0.017827   0.177494
    7  C   1  X  -0.229349   0.020727  -0.052950   0.059842   0.021679
    8  C   1  Y   0.311485   0.037991  -0.101849  -0.327439   0.051708
    9  C   1  Z  -0.021861   0.338149  -0.869600   0.033380   0.474670
   10  C   1 XX   0.239657  -0.030677   0.025858  -0.317536  -0.008420
   11  C   1 YY   0.080408   0.033561   0.003553   0.208228  -0.059146
   12  C   1 ZZ  -0.320065  -0.002883  -0.029411   0.109308   0.067567
   13  C   1 XY   0.096271  -0.027446   0.032553   0.152479  -0.025803
   14  C   1 XZ  -0.047044  -0.321285   0.280169   0.009125  -0.084547
   15  C   1 YZ  -0.057152   0.171592   0.016417  -0.021040  -0.300985
   16  C   2  S  -0.259064   0.000697   0.000518  -0.009690   0.000390
   17  C   2  S  -0.506610   0.001346   0.000966  -0.012729   0.000744
   18  C   2  S   1.327396  -0.003503  -0.011483   0.333156  -0.008233
   19  C   2  X   0.086753   0.000534  -0.000928  -0.091928  -0.009365
   20  C   2  Y  -0.027931   0.002241  -0.001920  -0.205301  -0.019654
   21  C   2  Z  -0.001259   0.018773  -0.016031   0.027855  -0.177584
   22  C   2  X  -0.220679   0.019758   0.053527   0.049214  -0.021571
   23  C   2  Y  -0.314207   0.038462   0.094005   0.329998  -0.054578
   24  C   2  Z   0.047995   0.338117   0.870313  -0.039904  -0.474305
   25  C   2 XX   0.245053  -0.030216  -0.026177  -0.308945   0.009104
   26  C   2 YY   0.076778  -0.034415   0.002650   0.202871  -0.059187
   27  C   2 ZZ  -0.321831   0.064631   0.023528   0.106074   0.050083
   28  C   2 XY  -0.098659  -0.044487  -0.030949  -0.165473  -0.005324
   29  C   2 XZ  -0.025550  -0.313822  -0.280774   0.044376   0.097691
   30  C   2 YZ  -0.048191  -0.173632   0.014388  -0.003421  -0.300236
   31  C   3  S  -0.258902   0.000808  -0.000439   0.009750   0.000374
   32  C   3  S  -0.506310   0.001563  -0.000814   0.012845   0.000713
   33  C   3  S   1.323435  -0.005222   0.010806  -0.333600  -0.007572
   34  C   3  X  -0.086693   0.001515   0.000802  -0.091842  -0.009837
   35  C   3  Y   0.027997   0.001964   0.001634  -0.205161  -0.020378
   36  C   3  Z   0.001815   0.018750   0.015989   0.028269  -0.177500
   37  C   3  X   0.218826   0.015822  -0.040672   0.049092  -0.028943
   38  C   3  Y   0.315909   0.038121  -0.101431   0.329217  -0.052007
   39  C   3  Z  -0.046572   0.338381  -0.870697  -0.039052  -0.473727
   40  C   3 XX   0.245247   0.028758  -0.026458   0.308909  -0.008648
   41  C   3 YY   0.077127   0.034765   0.002442  -0.202947   0.058786
   42  C   3 ZZ  -0.322374  -0.063523   0.024017  -0.105962  -0.050138
   43  C   3 XY  -0.098321   0.045659  -0.030879   0.165309   0.005980
   44  C   3 XZ  -0.023713   0.313880  -0.280852  -0.044552  -0.097534
   45  C   3 YZ  -0.046194   0.173679   0.014687   0.003226   0.300308
   46  C   4  S  -0.259152   0.000679   0.000465   0.009716  -0.000329
   47  C   4  S  -0.506745   0.001308   0.000857   0.012815  -0.000625
   48  C   4  S   1.328769  -0.003320  -0.011189  -0.331651   0.007375
   49  C   4  X  -0.085789   0.001485  -0.000862  -0.098102   0.009814
   50  C   4  Y  -0.029446   0.002255  -0.001817   0.203274   0.019663
   51  C   4  Z   0.008238   0.018678  -0.015984  -0.017375   0.177575
   52  C   4  X   0.231581   0.016576   0.040485   0.060333   0.029066
   53  C   4  Y  -0.310345   0.038619   0.093744  -0.327632   0.054278
   54  C   4  Z   0.023261   0.338320   0.871631   0.033343   0.473517
   55  C   4 XX   0.239991   0.029289   0.026537   0.317551   0.007933
   56  C   4 YY   0.080003  -0.033253   0.003644  -0.208232   0.059514
   57  C   4 ZZ  -0.319994   0.003964  -0.030181  -0.109318  -0.067447
   58  C   4 XY   0.096423   0.026268   0.032562  -0.152563   0.026386
   59  C   4 XZ  -0.045177   0.321559   0.280111  -0.009601   0.084389
   60  C   4 YZ  -0.059083  -0.171439   0.016557   0.021253   0.300932
   61  C   5  S   0.120119  -0.000498  -0.000145   0.000013   0.000037
   62  C   5  S   0.274348  -0.001079  -0.000399   0.000022   0.000070
   63  C   5  S  -1.223117   0.006807  -0.010868   0.000391  -0.000566
   64  C   5  X  -0.004364  -0.015435   0.011638   0.341777  -0.000104
   65  C   5  Y   0.273864  -0.033533   0.023345   0.003322  -0.000046
   66  C   5  Z  -0.031431  -0.286665   0.214577  -0.018843  -0.000163
   67  C   5  X  -0.008706  -0.052796   0.069035  -1.257705  -0.006472
   68  C   5  Y   0.527655  -0.115115   0.151963  -0.012349   0.000122
   69  C   5  Z  -0.062400  -0.982384   1.284025   0.068854  -0.000255
   70  C   5 XX   0.053968   0.000111  -0.000293  -0.002641  -0.043250
   71  C   5 YY   0.236955  -0.024291   0.032431   0.001699  -0.000943
   72  C   5 ZZ  -0.290924   0.024180  -0.032138   0.000941   0.044193
   73  C   5 XY  -0.005790  -0.006159   0.008678   0.100111  -0.052668
   74  C   5 XZ  -0.021326   0.002706  -0.003784  -0.010326  -0.462053
   75  C   5 YZ  -0.069571  -0.117051   0.164339  -0.005660  -0.001788
   76  C   6  S   0.120208  -0.000467  -0.000005   0.000033   0.000000
   77  C   6  S   0.274526  -0.001020   0.000095   0.000093  -0.000003
   78  C   6  S  -1.227687   0.005278   0.011977  -0.000714   0.000304
   79  C   6  X   0.004174  -0.015484  -0.011481   0.341762   0.000391
   80  C   6  Y  -0.273762  -0.030912  -0.024816   0.003366  -0.000007
   81  C   6  Z   0.029587  -0.287035  -0.214484  -0.018744  -0.000064
   82  C   6  X   0.008638  -0.053110  -0.069534  -1.256771   0.005681
   83  C   6  Y  -0.530633  -0.106300  -0.135941  -0.012711   0.000269
   84  C   6  Z   0.055468  -0.983501  -1.285896   0.069444  -0.000204
   85  C   6 XX   0.054092  -0.000252  -0.000210   0.002684   0.043270
   86  C   6 YY   0.236866   0.021923   0.032289  -0.001789   0.000884
   87  C   6 ZZ  -0.290959  -0.021671  -0.032079  -0.000895  -0.044154
   88  C   6 XY  -0.005592   0.006219   0.008668  -0.099878   0.051866
   89  C   6 XZ  -0.021283  -0.002608  -0.003548   0.011525   0.462288
   90  C   6 YZ  -0.068720   0.117770   0.164446   0.005601   0.001805
   91  O   7  S  -0.069636   0.000169  -0.000055   0.000006   0.000001
   92  O   7  S  -0.192313   0.000486  -0.000222   0.000014   0.000002
   93  O   7  S  -0.038796   0.000504   0.000060  -0.000060   0.000029
   94  O   7  S  -0.359644   0.001262   0.000968   0.000166   0.000024
   95  O   7  X   0.004395  -0.022780  -0.020632  -0.404424   0.001117
   96  O   7  Y  -0.283990  -0.045799  -0.042669  -0.003949   0.000027
   97  O   7  Z   0.030020  -0.422425  -0.381216   0.022321  -0.000032
   98  O   7  X   0.000410   0.049375   0.050635   0.822893  -0.002634
   99  O   7  Y  -0.011083   0.101427   0.102806   0.008150  -0.000049
  100  O   7  Z   0.003301   0.915862   0.936137  -0.045472   0.000160
  101  O   7  X   0.002577  -0.000888  -0.001176   0.082474  -0.000241
  102  O   7  Y  -0.161494  -0.001289  -0.002229   0.000866   0.000011
  103  O   7  Z   0.017619  -0.016168  -0.022139  -0.004538   0.000034
  104  O   7 XX  -0.010149   0.000049  -0.000033  -0.000309   0.000799
  105  O   7 YY   0.014254  -0.003371  -0.002350   0.000194   0.000017
  106  O   7 ZZ  -0.004105   0.003323   0.002383   0.000115  -0.000816
  107  O   7 XY  -0.000410  -0.000907  -0.000664   0.011131   0.000961
  108  O   7 XZ   0.000410   0.000374   0.000277  -0.001204   0.008546
  109  O   7 YZ  -0.002417  -0.017169  -0.012579  -0.000622   0.000028
  110  O   7 XX  -0.232607  -0.000053  -0.000138  -0.005908  -0.012266
  111  O   7 YY  -0.071712   0.102090   0.099747   0.003711  -0.000257
  112  O   7 ZZ   0.304319  -0.102037  -0.099609   0.002197   0.012523
  113  O   7 XY   0.001183   0.027719   0.027477   0.220064  -0.015560
  114  O   7 XZ   0.033661  -0.011582  -0.011426  -0.024191  -0.131342
  115  O   7 YZ   0.049461   0.524804   0.519097  -0.012481  -0.000334
  116  O   8  S  -0.069633   0.000167   0.000079   0.000000  -0.000002
  117  O   8  S  -0.192345   0.000482   0.000289  -0.000003  -0.000005
  118  O   8  S  -0.038859   0.000519  -0.000015  -0.000020   0.000019
  119  O   8  S  -0.359801   0.001202  -0.000774  -0.000019   0.000005
  120  O   8  X  -0.004593  -0.022719   0.020461  -0.404421  -0.001339
  121  O   8  Y   0.283612  -0.049075   0.042879  -0.003863  -0.000040
  122  O   8  Z  -0.033206  -0.422031   0.381179   0.022139  -0.000088
  123  O   8  X  -0.000050   0.049288  -0.050247   0.822947   0.003099
  124  O   8  Y   0.012193   0.104357  -0.107345   0.007972   0.000047
  125  O   8  Z   0.000667   0.915328  -0.935454  -0.045018   0.000337
  126  O   8  X  -0.002554  -0.000853   0.001216   0.082452   0.000302
  127  O   8  Y   0.161487  -0.002318   0.002676   0.000816  -0.000005
  128  O   8  Z  -0.018363  -0.016089   0.022128  -0.004538  -0.000004
  129  O   8 XX  -0.010157  -0.000002   0.000073   0.000305  -0.000798
  130  O   8 YY   0.014273   0.003386  -0.002599  -0.000183  -0.000014
  131  O   8 ZZ  -0.004116  -0.003384   0.002526  -0.000122   0.000812
  132  O   8 XY  -0.000405   0.000905  -0.000662  -0.011117  -0.000981
  133  O   8 XZ   0.000407  -0.000381   0.000275   0.001261  -0.008536
  134  O   8 YZ  -0.002362   0.017155  -0.012529   0.000626  -0.000017
  135  O   8 XX  -0.232392   0.001499  -0.001388   0.005988   0.012322
  136  O   8 YY  -0.072057  -0.104531   0.104530  -0.003713   0.000168
  137  O   8 ZZ   0.304449   0.103032  -0.103142  -0.002276  -0.012489
  138  O   8 XY   0.000963  -0.027645   0.027265  -0.220014   0.014063
  139  O   8 XZ   0.033705   0.011496  -0.011427   0.024424   0.131434
  140  O   8 YZ   0.049666  -0.524183   0.517873   0.012216   0.000128
  141  H   9  S  -0.426387   0.001166   0.000726  -0.102907  -0.000305
  142  H   9  S  -0.017428  -0.000922   0.001909   0.027062  -0.000556
  143  H   9  X   0.053245  -0.005576   0.015400  -0.076719   0.017335
  144  H   9  Y   0.030898  -0.011192   0.032253  -0.110378   0.035656
  145  H   9  Z  -0.006249  -0.101038   0.286692   0.016057   0.317919
  146  H  10  S  -0.426204   0.001234  -0.000839  -0.102786   0.000342
  147  H  10  S  -0.016867  -0.000746  -0.002034   0.027264   0.000589
  148  H  10  X   0.054082  -0.005591  -0.015424  -0.080144  -0.017428
  149  H  10  Y  -0.029887  -0.011534  -0.032107   0.108829  -0.035655
  150  H  10  Z   0.000473  -0.100942  -0.286675  -0.008030  -0.317629
  151  H  11  S  -0.426203   0.001170   0.000869   0.102842   0.000371
  152  H  11  S  -0.017304  -0.000958   0.001912  -0.027214   0.000671
  153  H  11  X  -0.054152  -0.005315   0.015460  -0.080112  -0.016887
  154  H  11  Y   0.029861  -0.011176   0.032268   0.108855  -0.035651
  155  H  11  Z  -0.000346  -0.101065   0.286470  -0.007574  -0.317926
  156  H  12  S  -0.426201   0.001241  -0.000692   0.103015  -0.000362
  157  H  12  S  -0.017076  -0.000693  -0.002020  -0.026988  -0.000722
  158  H  12  X  -0.053113  -0.005284  -0.015495  -0.076689   0.016854
  159  H  12  Y  -0.030854  -0.011510  -0.032101  -0.110384   0.035715
  160  H  12  Z   0.006346  -0.101035  -0.286436   0.016795   0.318074

                    101        102        103        104        105
                    1.7774     1.8021     1.8339     1.8361     1.8435
                     A          A          A          A          A   
    1  C   1  S   0.121508  -0.178021  -0.000569   0.081682  -0.101780
    2  C   1  S   0.243332  -0.372752  -0.001329   0.127668  -0.253457
    3  C   1  S  -0.574995   0.698872   0.000594  -3.349216  -1.012231
    4  C   1  X  -0.064255   0.140448  -0.006166   0.011761   0.136294
    5  C   1  Y   0.037396  -0.064969  -0.013780  -0.029694   0.086992
    6  C   1  Z  -0.000681  -0.000004  -0.125587   0.002450  -0.016348
    7  C   1  X   0.343681   0.027229  -0.004262   1.009427   0.491210
    8  C   1  Y  -0.400060   0.246375  -0.014345  -1.444323  -0.813635
    9  C   1  Z   0.027080  -0.029184  -0.076643   0.109150   0.065301
   10  C   1 XX  -0.066178   0.231960  -0.010664  -0.230216  -0.348977
   11  C   1 YY  -0.054770  -0.006098  -0.035430   0.174953   0.330765
   12  C   1 ZZ   0.120948  -0.225862   0.046094   0.055263   0.018212
   13  C   1 XY   0.331463   0.277817  -0.020005   0.038050   0.078063
   14  C   1 XZ  -0.025843  -0.059792  -0.096639   0.013871   0.014329
   15  C   1 YZ   0.005475  -0.043972  -0.187048  -0.018153  -0.044324
   16  C   2  S   0.121681  -0.178243  -0.000153   0.081052  -0.103274
   17  C   2  S   0.243745  -0.373092  -0.000595   0.126547  -0.256270
   18  C   2  S  -0.575680   0.706050  -0.009999  -3.332928  -0.981343
   19  C   2  X  -0.063229   0.138159  -0.006125   0.010815   0.139206
   20  C   2  Y  -0.038563   0.067689  -0.014480   0.030014  -0.084014
   21  C   2  Z   0.007834  -0.014755  -0.125252  -0.004134   0.002593
   22  C   2  X   0.331411   0.032228   0.000777   0.956366   0.451366
   23  C   2  Y   0.407622  -0.243557  -0.005314   1.467333   0.833526
   24  C   2  Z  -0.062897   0.025664  -0.077430  -0.215114  -0.117875
   25  C   2 XX  -0.048310   0.246832  -0.010918  -0.228158  -0.344672
   26  C   2 YY  -0.065982  -0.015321   0.037825   0.173964   0.327813
   27  C   2 ZZ   0.114291  -0.231510  -0.026907   0.054194   0.016859
   28  C   2 XY  -0.328953  -0.275437  -0.002791  -0.048740  -0.097781
   29  C   2 XZ   0.047253   0.001358  -0.104499   0.023592   0.033738
   30  C   2 YZ   0.041324  -0.013694   0.186135  -0.012413  -0.036150
   31  C   3  S   0.121596   0.178108  -0.000530  -0.080740  -0.102233
   32  C   3  S   0.243579   0.372884  -0.001344  -0.125619  -0.254158
   33  C   3  S  -0.572253  -0.704367  -0.004730   3.342600  -0.995011
   34  C   3  X   0.063313   0.138061  -0.007493   0.011561  -0.138861
   35  C   3  Y   0.038703   0.067574  -0.013751   0.029551   0.084447
   36  C   3  Z  -0.007689  -0.015312  -0.125327  -0.003837  -0.001245
   37  C   3  X  -0.329696   0.032175  -0.005908   0.960641  -0.460979
   38  C   3  Y  -0.406937  -0.243971  -0.015771   1.471802  -0.816169
   39  C   3  Z   0.064129   0.025677  -0.076129  -0.218522   0.116878
   40  C   3 XX  -0.048369  -0.247118   0.008323   0.229921  -0.343136
   41  C   3 YY  -0.065767   0.015681  -0.035145  -0.175220   0.327107
   42  C   3 ZZ   0.114136   0.231437   0.026822  -0.054701   0.016029
   43  C   3 XY  -0.328661   0.275564   0.000165   0.049601  -0.097363
   44  C   3 XZ   0.047626  -0.000795   0.105465  -0.022667   0.032689
   45  C   3 YZ   0.042500   0.012873  -0.186383   0.013330  -0.034465
   46  C   4  S   0.121695   0.177786  -0.000109  -0.081217  -0.103920
   47  C   4  S   0.243744   0.372189  -0.000482  -0.126556  -0.257397
   48  C   4  S  -0.574346  -0.701254  -0.010239   3.351501  -0.965397
   49  C   4  X   0.064443   0.140084  -0.007315   0.012294  -0.136589
   50  C   4  Y  -0.037494  -0.065169  -0.014401  -0.029232  -0.086748
   51  C   4  Z   0.000820  -0.000550  -0.125355   0.002728   0.017780
   52  C   4  X  -0.343455   0.026153  -0.008866   1.010139  -0.472290
   53  C   4  Y   0.399162   0.246077  -0.004456  -1.449244   0.817183
   54  C   4  Z  -0.025571  -0.029088  -0.077295   0.107109  -0.066260
   55  C   4 XX  -0.066253  -0.231920   0.007562   0.232216  -0.348110
   56  C   4 YY  -0.055077   0.006436   0.038512  -0.176816   0.329759
   57  C   4 ZZ   0.121330   0.225484  -0.046074  -0.055399   0.018351
   58  C   4 XY   0.331126  -0.277804   0.022522  -0.038544   0.078281
   59  C   4 XZ  -0.025356   0.060466   0.096853  -0.012914   0.013419
   60  C   4 YZ   0.004344   0.044718   0.186460   0.017699  -0.045969
   61  C   5  S   0.249486  -0.000410  -0.001040  -0.000328  -0.069870
   62  C   5  S   0.599973  -0.000796  -0.001367  -0.000874  -0.058050
   63  C   5  S   0.358761   0.003251   0.008759   0.001229   1.759484
   64  C   5  X   0.002088   0.298470  -0.011081   0.224307   0.006453
   65  C   5  Y  -0.120191   0.002769  -0.025788   0.003103  -0.371118
   66  C   5  Z   0.013997  -0.016358  -0.203604  -0.012587   0.043025
   67  C   5  X  -0.001133  -0.367169  -0.016311   4.647101   0.018173
   68  C   5  Y   0.161439  -0.005021  -0.024837   0.043252  -0.409927
   69  C   5  Z  -0.018009   0.020432  -0.236464  -0.255436   0.048637
   70  C   5 XX  -0.244265  -0.000046   0.001959  -0.006033   0.337824
   71  C   5 YY   0.060840   0.000196  -0.117318   0.003547  -0.119770
   72  C   5 ZZ   0.183425  -0.000151   0.115359   0.002485  -0.218055
   73  C   5 XY  -0.002444   0.009202  -0.030987   0.196080   0.005081
   74  C   5 XZ   0.027062  -0.001491   0.013323  -0.020198  -0.035353
   75  C   5 YZ   0.017753  -0.000504  -0.588179  -0.011344  -0.010247
   76  C   6  S   0.249324   0.000162  -0.001465   0.000358  -0.067876
   77  C   6  S   0.599678   0.000287  -0.002185   0.000493  -0.054164
   78  C   6  S   0.360005  -0.001291   0.016451  -0.011065   1.731909
   79  C   6  X  -0.001747   0.298456  -0.011135   0.224282  -0.005396
   80  C   6  Y   0.120560   0.002768  -0.020115   0.001319   0.371401
   81  C   6  Z  -0.012823  -0.016478  -0.203902  -0.012267  -0.040137
   82  C   6  X   0.004623  -0.368977  -0.013165   4.643640   0.005268
   83  C   6  Y  -0.160899  -0.003916  -0.024661   0.040800   0.398833
   84  C   6  Z   0.017833   0.020183  -0.236199  -0.254855  -0.041986
   85  C   6 XX  -0.244300   0.000401   0.000096   0.004847   0.338216
   86  C   6 YY   0.060213  -0.000179   0.114431  -0.003066  -0.121081
   87  C   6 ZZ   0.184088  -0.000222  -0.114527  -0.001781  -0.217135
   88  C   6 XY  -0.002623  -0.009510   0.031198  -0.195978   0.003817
   89  C   6 XZ   0.027140   0.000518  -0.012911   0.023065  -0.035121
   90  C   6 YZ   0.015145   0.000695   0.587640   0.011172  -0.015196
   91  O   7  S   0.059812  -0.000085   0.000441   0.000000  -0.023607
   92  O   7  S   0.115698  -0.000202   0.001098  -0.000042  -0.036321
   93  O   7  S  -0.440131   0.000389  -0.003028  -0.000293   0.132092
   94  O   7  S   0.401473  -0.000136   0.001804  -0.000841   0.265633
   95  O   7  X   0.003551   0.054348  -0.001514   0.505779  -0.000536
   96  O   7  Y  -0.214807   0.000628  -0.003505   0.004585   0.109581
   97  O   7  Z   0.023637  -0.003027  -0.027793  -0.027777  -0.011493
   98  O   7  X  -0.003193  -0.099609   0.024534  -1.632572  -0.005678
   99  O   7  Y   0.162186  -0.001098   0.051461  -0.015662   0.106892
  100  O   7  Z  -0.018630   0.005677   0.452296   0.089830  -0.014325
  101  O   7  X  -0.002377  -0.101113   0.002444   0.062541  -0.001186
  102  O   7  Y   0.151568  -0.001005   0.005535   0.000335   0.087912
  103  O   7  Z  -0.016723   0.005577   0.046612  -0.003403  -0.009718
  104  O   7 XX  -0.010294  -0.000208   0.000165  -0.000244   0.015172
  105  O   7 YY   0.011234   0.000130  -0.004540   0.000194  -0.025212
  106  O   7 ZZ  -0.000940   0.000078   0.004375   0.000050   0.010040
  107  O   7 XY  -0.000313   0.007213  -0.001180   0.008009   0.000721
  108  O   7 XZ   0.000610  -0.000832   0.000493  -0.000826  -0.000372
  109  O   7 YZ  -0.001509  -0.000414  -0.022292  -0.000462   0.004565
  110  O   7 XX   0.207562   0.005249  -0.001175   0.020201  -0.010276
  111  O   7 YY  -0.036637  -0.003417   0.102387  -0.012552   0.060375
  112  O   7 ZZ  -0.170925  -0.001832  -0.101212  -0.007649  -0.050098
  113  O   7 XY   0.001464  -0.190976   0.027486  -0.744806  -0.003443
  114  O   7 XZ  -0.023889   0.020813  -0.011496   0.080759  -0.002188
  115  O   7 YZ  -0.018656   0.010947   0.518183   0.041879  -0.016598
  116  O   8  S   0.059800   0.000010   0.000377   0.000109  -0.023245
  117  O   8  S   0.115651   0.000048   0.000949   0.000228  -0.035423
  118  O   8  S  -0.440174   0.000102  -0.002903  -0.000346   0.131235
  119  O   8  S   0.401270  -0.000011   0.001650  -0.000701   0.266169
  120  O   8  X  -0.003081   0.054712  -0.001944   0.506126   0.003045
  121  O   8  Y   0.214830   0.000430  -0.002749   0.005051  -0.109521
  122  O   8  Z  -0.024252  -0.002977  -0.028011  -0.027859   0.012971
  123  O   8  X   0.001773  -0.100401   0.025703  -1.633376  -0.002637
  124  O   8  Y  -0.162214  -0.000888   0.049798  -0.015175  -0.106595
  125  O   8  Z   0.017571   0.005425   0.453259   0.090027   0.008694
  126  O   8  X   0.002380  -0.101201   0.002551   0.062496   0.001551
  127  O   8  Y  -0.151425  -0.000922   0.004945   0.000899  -0.087874
  128  O   8  Z   0.017060   0.005551   0.046725  -0.003434   0.009783
  129  O   8 XX  -0.010303   0.000208   0.000101   0.000195   0.015181
  130  O   8 YY   0.011229  -0.000143   0.004262  -0.000084  -0.025262
  131  O   8 ZZ  -0.000926  -0.000065  -0.004362  -0.000111   0.010081
  132  O   8 XY  -0.000323  -0.007205   0.001187  -0.007994   0.000680
  133  O   8 XZ   0.000612   0.000763  -0.000491   0.000948  -0.000367
  134  O   8 YZ  -0.001641   0.000404   0.022387   0.000458   0.004573
  135  O   8 XX   0.207555  -0.005449   0.000356  -0.020572  -0.010648
  136  O   8 YY  -0.036534   0.003380  -0.101915   0.012346   0.062148
  137  O   8 ZZ  -0.171020   0.002069   0.101559   0.008226  -0.051500
  138  O   8 XY   0.002129   0.191111  -0.027944   0.744701   0.000444
  139  O   8 XZ  -0.023978  -0.021466   0.011406  -0.083940  -0.002705
  140  O   8 YZ  -0.017193  -0.010663  -0.519110  -0.042085  -0.011776
  141  H   9  S  -0.109054   0.447731   0.000967  -0.311668   0.212441
  142  H   9  S   0.011613  -0.071540   0.000240   0.121390  -0.080572
  143  H   9  X   0.200961  -0.241412   0.024227  -0.053126   0.121522
  144  H   9  Y   0.042984  -0.058953   0.049139  -0.162668   0.281795
  145  H   9  Z  -0.016521   0.020182   0.425422   0.022221  -0.040376
  146  H  10  S  -0.109234   0.447856   0.000760  -0.311358   0.213564
  147  H  10  S   0.011084  -0.070969  -0.000671   0.122555  -0.076824
  148  H  10  X   0.202261  -0.243131   0.024325  -0.058225   0.130110
  149  H  10  Y  -0.039290   0.054339   0.046556   0.161603  -0.280495
  150  H  10  Z  -0.007407   0.007642   0.425525  -0.013995   0.022749
  151  H  11  S  -0.109464  -0.447931   0.000899   0.310201   0.214227
  152  H  11  S   0.011172   0.070612   0.000453  -0.122486  -0.081290
  153  H  11  X  -0.202519  -0.243154   0.021708  -0.057561  -0.130596
  154  H  11  Y   0.039196   0.054291   0.048994   0.160038   0.280099
  155  H  11  Z   0.005651   0.006503   0.425366  -0.015496  -0.026647
  156  H  12  S  -0.109244  -0.447703   0.000454   0.310727   0.215366
  157  H  12  S   0.011254   0.071285  -0.000698  -0.120779  -0.077534
  158  H  12  X  -0.201225  -0.241369   0.021624  -0.052373  -0.121485
  159  H  12  Y  -0.043368  -0.059311   0.046641  -0.161509  -0.283644
  160  H  12  Z   0.014789   0.019130   0.424985   0.020247   0.036702

                    106        107        108        109        110
                    1.8555     1.8564     1.8567     1.8986     1.9116
                     A          A          A          A          A   
    1  C   1  S  -0.465717  -0.048240   0.089128   0.265028   0.001143
    2  C   1  S  -0.891056  -0.003375   0.168360   0.493565   0.002065
    3  C   1  S   8.593643   4.427485  -1.729585  -5.901092  -0.021673
    4  C   1  X   0.097590  -0.114018  -0.019596  -0.139107  -0.002057
    5  C   1  Y  -0.029123  -0.130397  -0.000987   0.217085  -0.004229
    6  C   1  Z  -0.016484   0.018429  -0.077298  -0.017957  -0.036334
    7  C   1  X  -3.831072  -1.786863   0.748609   4.060955   0.008210
    8  C   1  Y  -3.067427  -0.424237   0.568425   1.630528  -0.005129
    9  C   1  Z   0.509981   0.136849  -0.309977  -0.402751  -0.043549
   10  C   1 XX  -0.094625  -0.259704   0.013797   0.022311  -0.037299
   11  C   1 YY   0.041791   0.241058  -0.013555  -0.090159  -0.012445
   12  C   1 ZZ   0.052834   0.018646  -0.000242   0.067848   0.049745
   13  C   1 XY   0.109381   0.019165  -0.034613   0.056083  -0.047825
   14  C   1 XZ  -0.024361   0.012199  -0.109225  -0.003853  -0.397841
   15  C   1 YZ  -0.006840  -0.030421   0.002272   0.020219  -0.059961
   16  C   2  S   0.465118   0.048187  -0.089208  -0.264842  -0.000027
   17  C   2  S   0.889665   0.003208  -0.168540  -0.493216  -0.000145
   18  C   2  S  -8.597993  -4.428106   1.730333   5.899938   0.001230
   19  C   2  X  -0.096163   0.118147   0.019493   0.132296  -0.001574
   20  C   2  Y  -0.028125  -0.127675   0.016645   0.220082  -0.003346
   21  C   2  Z   0.022936   0.010433   0.075716  -0.030714  -0.036699
   22  C   2  X   3.927882   1.800172  -0.767094  -4.109430  -0.006107
   23  C   2  Y  -2.979521  -0.387351   0.598946   1.550724   0.001854
   24  C   2  Z   0.164035  -0.046444   0.179973   0.048273  -0.044018
   25  C   2 XX   0.087347   0.258121  -0.012652  -0.025319  -0.037668
   26  C   2 YY  -0.037352  -0.240064   0.013231   0.092863   0.010829
   27  C   2 ZZ  -0.049995  -0.018057  -0.000578  -0.067544   0.026840
   28  C   2 XY   0.116321   0.033746  -0.010734   0.051492  -0.042568
   29  C   2 XZ  -0.000949  -0.018001   0.114175  -0.007080  -0.400512
   30  C   2 YZ  -0.009616   0.026996   0.001973  -0.021551   0.056752
   31  C   3  S  -0.467884   0.020298   0.087955   0.265094  -0.000040
   32  C   3  S  -0.889192  -0.049914   0.169233   0.493674   0.000013
   33  C   3  S   8.875376  -3.901789  -1.584572  -5.902391  -0.000556
   34  C   3  X  -0.090048  -0.123630   0.015296   0.132147   0.002336
   35  C   3  Y  -0.039544   0.125674  -0.005132   0.219662   0.004840
   36  C   3  Z  -0.005187  -0.008741  -0.078762  -0.032991   0.036244
   37  C   3  X   4.034594  -1.560101  -0.729959  -4.110401  -0.000972
   38  C   3  Y  -3.011975   0.207674   0.542503   1.552794   0.011672
   39  C   3  Z   0.079907   0.057854  -0.227549   0.046087   0.042744
   40  C   3 XX  -0.101743   0.252265   0.023946   0.025379  -0.037276
   41  C   3 YY   0.053950  -0.237328  -0.003898  -0.092050   0.010566
   42  C   3 ZZ   0.047794  -0.014938  -0.020048   0.066670   0.026710
   43  C   3 XY  -0.114094   0.026956   0.034512  -0.050845  -0.041710
   44  C   3 XZ   0.043046  -0.017077   0.105510   0.009904  -0.400575
   45  C   3 YZ   0.004225   0.027888  -0.000610   0.026054   0.056612
   46  C   4  S   0.467562  -0.020011  -0.087995  -0.264707  -0.001090
   47  C   4  S   0.888435   0.050474  -0.169359  -0.492926  -0.001964
   48  C   4  S  -8.877175   3.902543   1.582611   5.901221   0.021038
   49  C   4  X   0.090833   0.119669  -0.015476  -0.138998   0.001875
   50  C   4  Y  -0.034973   0.128380   0.011795   0.217552   0.003920
   51  C   4  Z   0.013681  -0.019486   0.078159  -0.015914   0.036272
   52  C   4  X  -3.939807   1.552860   0.711387   4.059362   0.012386
   53  C   4  Y  -3.077591   0.237318   0.602946   1.630540   0.004598
   54  C   4  Z   0.599288  -0.107367   0.099913  -0.401103   0.042547
   55  C   4 XX   0.106826  -0.253690  -0.025522  -0.022686  -0.037237
   56  C   4 YY  -0.057498   0.237924   0.005287   0.091055  -0.012101
   57  C   4 ZZ  -0.049329   0.015766   0.020235  -0.068369   0.049338
   58  C   4 XY  -0.115098   0.012372   0.009325  -0.055979  -0.048695
   59  C   4 XZ  -0.017995   0.012694  -0.110642   0.002854  -0.397680
   60  C   4 YZ   0.004849  -0.029794  -0.000166  -0.015278  -0.059750
   61  C   5  S   0.630938   0.019043  -0.122841   0.287044   0.000041
   62  C   5  S   1.236170   0.037329  -0.240694   0.583174   0.000108
   63  C   5  S  -7.780593  -0.234339   1.469232   6.680381   0.011789
   64  C   5  X  -0.003130  -0.015176  -0.015504  -0.010702   0.001025
   65  C   5  Y   0.044538   0.000482  -0.046349   0.671890   0.000749
   66  C   5  Z  -0.062381  -0.006375  -0.294305  -0.077128  -0.000204
   67  C   5  X   0.075720  -3.941128   0.060987   0.060820   0.013896
   68  C   5  Y   3.438238   0.064716  -0.682921  -3.839512  -0.005967
   69  C   5  Z  -0.457057   0.197117  -0.258054   0.432460  -0.000282
   70  C   5 XX   0.089052  -0.003346  -0.014764  -0.276448  -0.034741
   71  C   5 YY  -0.104135  -0.002011  -0.130342   0.239706  -0.000428
   72  C   5 ZZ   0.015083   0.005357   0.145106   0.036742   0.035169
   73  C   5 XY  -0.012316   0.223825  -0.042585  -0.007348  -0.041763
   74  C   5 XZ  -0.002830  -0.023711   0.017454   0.020602  -0.366539
   75  C   5 YZ  -0.129760  -0.029465  -0.723868  -0.029107  -0.001594
   76  C   6  S  -0.631204  -0.018819   0.122766  -0.286781  -0.000030
   77  C   6  S  -1.236460  -0.036850   0.240585  -0.582678  -0.000085
   78  C   6  S   7.786365   0.233491  -1.468325  -6.678556  -0.011839
   79  C   6  X   0.001927   0.015390   0.015864  -0.010492   0.001001
   80  C   6  Y   0.058253   0.002447   0.020438   0.672010   0.000748
   81  C   6  Z   0.051089   0.006201   0.297519  -0.072668  -0.000343
   82  C   6  X  -0.180435   3.939538  -0.042795   0.059024   0.013339
   83  C   6  Y   3.452073   0.142720  -0.610800  -3.837861  -0.005966
   84  C   6  Z  -0.311378  -0.220133   0.402798   0.423541  -0.000268
   85  C   6 XX  -0.087183  -0.008806   0.017366   0.276499  -0.033875
   86  C   6 YY   0.048936   0.002639  -0.154934  -0.240783  -0.000910
   87  C   6 ZZ   0.038247   0.006167   0.137568  -0.035716   0.034785
   88  C   6 XY  -0.017450   0.223214  -0.041693   0.007149  -0.041211
   89  C   6 XZ   0.010134  -0.025247   0.014955  -0.019736  -0.366578
   90  C   6 YZ  -0.147138  -0.030489  -0.722477   0.023672  -0.000678
   91  O   7  S   0.114501   0.003443  -0.022506   0.069418   0.000007
   92  O   7  S   0.286528   0.008603  -0.056427   0.216426   0.000075
   93  O   7  S  -0.234696  -0.007065   0.047513  -0.280759  -0.000067
   94  O   7  S   0.147413   0.004524  -0.027445  -0.211146  -0.000357
   95  O   7  X  -0.019118   0.557525  -0.007839  -0.001425   0.001192
   96  O   7  Y   0.074159   0.007693  -0.010228   0.083838   0.000108
   97  O   7  Z   0.000206  -0.030019   0.037256  -0.009676  -0.000048
   98  O   7  X   0.045715  -1.451126  -0.006353  -0.013892  -0.004329
   99  O   7  Y  -0.287120  -0.024001  -0.015501   0.899594   0.001173
  100  O   7  Z  -0.085403   0.066379  -0.592813  -0.099963   0.000492
  101  O   7  X   0.004215  -0.143062  -0.001099   0.000596   0.000051
  102  O   7  Y  -0.010347  -0.001792  -0.005396  -0.040625  -0.000048
  103  O   7  Z  -0.011910   0.006274  -0.066564   0.003928   0.000073
  104  O   7 XX   0.008062   0.000617  -0.001821   0.048798  -0.000675
  105  O   7 YY  -0.019376  -0.000674   0.011642  -0.064583  -0.000087
  106  O   7 ZZ   0.011313   0.000057  -0.009821   0.015785   0.000762
  107  O   7 XY   0.001417  -0.014099   0.002144   0.001847  -0.000798
  108  O   7 XZ   0.000039   0.001459  -0.000907  -0.002199  -0.007780
  109  O   7 YZ   0.011420   0.001840   0.037211   0.010563  -0.000063
  110  O   7 XX  -0.111695   0.009336   0.024550  -0.514706   0.011694
  111  O   7 YY   0.226324  -0.003479  -0.179344   0.851171   0.001166
  112  O   7 ZZ  -0.114629  -0.005856   0.154794  -0.336464  -0.012860
  113  O   7 XY   0.001316  -0.461754  -0.024902  -0.023726   0.012688
  114  O   7 XZ  -0.000036   0.050585   0.013727   0.012709   0.130744
  115  O   7 YZ  -0.177732   0.008341  -0.646581  -0.154138   0.000907
  116  O   8  S  -0.114602  -0.003434   0.022483  -0.069502  -0.000012
  117  O   8  S  -0.286704  -0.008589   0.056396  -0.216618  -0.000086
  118  O   8  S   0.235134   0.007113  -0.047301   0.281922   0.000105
  119  O   8  S  -0.146768  -0.004181   0.027626   0.211365   0.000359
  120  O   8  X   0.017328  -0.557293   0.008033  -0.001328   0.001229
  121  O   8  Y   0.072404  -0.003286  -0.018057   0.083613   0.000092
  122  O   8  Z  -0.016656   0.029523  -0.034157  -0.008927  -0.000112
  123  O   8  X  -0.038895   1.450405   0.005589  -0.014054  -0.004446
  124  O   8  Y  -0.262555   0.007209   0.115311   0.899967   0.001155
  125  O   8  Z   0.146527  -0.064817   0.581041  -0.100601   0.000383
  126  O   8  X  -0.003956   0.142994   0.000990   0.000684   0.000048
  127  O   8  Y  -0.007782   0.001175   0.009347  -0.040632  -0.000057
  128  O   8  Z   0.013888  -0.006246   0.066032   0.005124   0.000010
  129  O   8 XX  -0.008066   0.000155   0.001706  -0.048820  -0.000779
  130  O   8 YY   0.022097   0.000562   0.003337   0.064667   0.000050
  131  O   8 ZZ  -0.014031  -0.000717  -0.005043  -0.015847   0.000729
  132  O   8 XY   0.000271  -0.014118   0.002372  -0.001821  -0.000960
  133  O   8 XZ  -0.000464   0.001625  -0.000842   0.002206  -0.007758
  134  O   8 YZ   0.002681   0.001560   0.038891  -0.010324  -0.000028
  135  O   8 XX   0.111304   0.016044  -0.023078   0.514930   0.012736
  136  O   8 YY  -0.275360  -0.018317  -0.078589  -0.851670  -0.000636
  137  O   8 ZZ   0.164057   0.002273   0.101667   0.336740  -0.012100
  138  O   8 XY   0.016103  -0.460634  -0.028042   0.023607   0.016867
  139  O   8 XZ   0.002324   0.051906   0.013525  -0.012983   0.130260
  140  O   8 YZ  -0.075562   0.011766  -0.665914   0.155020   0.000221
  141  H   9  S   0.299958  -0.123743  -0.052207  -0.444068  -0.001281
  142  H   9  S   1.065527  -0.235501  -0.194559  -1.031064  -0.001321
  143  H   9  X  -0.055091   0.031680   0.027953   0.227614  -0.026862
  144  H   9  Y   0.211887  -0.133133   0.001745   0.089220  -0.055596
  145  H   9  Z   0.044870   0.020491   0.342457  -0.019706  -0.492280
  146  H  10  S  -0.299163   0.123839   0.052565   0.444164   0.000045
  147  H  10  S  -1.065784   0.235269   0.194482   1.030638   0.002109
  148  H  10  X   0.048832  -0.027617  -0.026800  -0.230437  -0.027491
  149  H  10  Y   0.197515  -0.135220  -0.074918   0.084548  -0.054987
  150  H  10  Z  -0.091416   0.009083  -0.334885   0.001639  -0.492141
  151  H  11  S   0.291071   0.141683  -0.057079  -0.444268  -0.000049
  152  H  11  S   1.048012   0.299157  -0.203976  -1.031426  -0.002204
  153  H  11  X   0.053481   0.030544   0.008687  -0.230236   0.025540
  154  H  11  Y   0.203927   0.147674  -0.003494   0.084718   0.055630
  155  H  11  Z   0.040368  -0.009222   0.344086   0.004213   0.492489
  156  H  12  S  -0.290318  -0.141706   0.057076   0.443992   0.001266
  157  H  12  S  -1.048106  -0.299178   0.203996   1.030787   0.001415
  158  H  12  X  -0.060303  -0.035497  -0.007484   0.227427   0.026259
  159  H  12  Y   0.186935   0.144693  -0.079542   0.088787   0.055066
  160  H  12  Z  -0.083788  -0.023626  -0.335192  -0.024736   0.492830

                    111        112        113        114        115
                    1.9945     1.9953     2.0009     2.0187     2.0195
                     A          A          A          A          A   
    1  C   1  S   0.282034  -0.135321  -0.001832   0.238760  -0.001597
    2  C   1  S   0.572963  -0.272022  -0.003411   0.451763  -0.003654
    3  C   1  S  -2.016161   0.722438   0.012333  -0.719102   0.033305
    4  C   1  X  -0.099177   0.052438  -0.011294   0.004520  -0.006168
    5  C   1  Y   0.067523   0.082992  -0.022454  -0.240735  -0.022273
    6  C   1  Z  -0.004104  -0.011636  -0.212025   0.028312  -0.161864
    7  C   1  X   1.441893  -1.124353  -0.012362   0.578939  -0.051265
    8  C   1  Y   0.126563  -0.779086  -0.009560   0.413714  -0.018890
    9  C   1  Z  -0.092971   0.147879  -0.115251  -0.074065  -0.256819
   10  C   1 XX  -0.140560   0.059804   0.014261  -0.186424  -0.019725
   11  C   1 YY  -0.112196  -0.002099  -0.060789  -0.163543   0.139350
   12  C   1 ZZ   0.252756  -0.057706   0.046528   0.349968  -0.119625
   13  C   1 XY  -0.142463   0.109146  -0.003191   0.305014   0.020472
   14  C   1 XZ   0.038705  -0.020126   0.135568   0.002874  -0.205982
   15  C   1 YZ   0.064234  -0.012658  -0.312162   0.038659   0.718066
   16  C   2  S  -0.281589  -0.135974  -0.002078   0.238698   0.008488
   17  C   2  S  -0.572137  -0.273417  -0.003881   0.451647   0.016708
   18  C   2  S   2.012832   0.722209   0.016056  -0.717397  -0.053652
   19  C   2  X   0.096909   0.055551  -0.011146  -0.003459   0.006174
   20  C   2  Y   0.070074  -0.081699  -0.024830   0.240498   0.021077
   21  C   2  Z  -0.011088   0.006637  -0.211079  -0.030063   0.162641
   22  C   2  X  -1.442088  -1.153506  -0.013126   0.590373   0.067367
   23  C   2  Y   0.098340   0.752925  -0.014290  -0.400870   0.028597
   24  C   2  Z   0.067814  -0.022567  -0.113540   0.009123   0.255150
   25  C   2 XX   0.148109   0.066119   0.013343  -0.170339   0.012529
   26  C   2 YY   0.110400  -0.005891   0.063004  -0.173193   0.138620
   27  C   2 ZZ  -0.258509  -0.060228  -0.076347   0.343532  -0.151148
   28  C   2 XY  -0.146530  -0.108575   0.032354  -0.299008   0.054699
   29  C   2 XZ  -0.007045   0.003845   0.122132   0.064190   0.174379
   30  C   2 YZ  -0.032376  -0.002174   0.314586   0.074871   0.719731
   31  C   3  S   0.281843  -0.135157   0.002050  -0.238690  -0.008515
   32  C   3  S   0.572653  -0.271724   0.003838  -0.451606  -0.016739
   33  C   3  S  -2.013338   0.719905  -0.015566   0.716237   0.053959
   34  C   3  X   0.096801  -0.055000   0.011661  -0.003043  -0.011299
   35  C   3  Y   0.069603   0.081885   0.022637   0.241343  -0.015438
   36  C   3  Z  -0.015055  -0.005815   0.211404  -0.023703  -0.163061
   37  C   3  X  -1.443607   1.148180  -0.000871   0.589824   0.039553
   38  C   3  Y   0.100969  -0.756162   0.010337  -0.401806  -0.030614
   39  C   3  Z   0.065278   0.022838   0.114863   0.017412  -0.260725
   40  C   3 XX  -0.147870   0.065689   0.009982   0.170202   0.020889
   41  C   3 YY  -0.107438  -0.005850   0.061499   0.169469   0.144756
   42  C   3 ZZ   0.255308  -0.059839  -0.071481  -0.339671  -0.165645
   43  C   3 XY   0.148088  -0.108430   0.030109   0.297583   0.063884
   44  C   3 XZ   0.010826   0.004734   0.122789  -0.067987   0.172140
   45  C   3 YZ   0.047743  -0.000524   0.315612  -0.093236   0.716268
   46  C   4  S  -0.281596  -0.135838   0.001742  -0.238909   0.001505
   47  C   4  S  -0.572083  -0.273135   0.003226  -0.451999   0.003495
   48  C   4  S   2.013274   0.722792  -0.012045   0.721283  -0.032376
   49  C   4  X  -0.098671  -0.052864   0.011501   0.004426   0.011396
   50  C   4  Y   0.068211  -0.082607   0.025071  -0.241162   0.014024
   51  C   4  Z  -0.000499   0.012500   0.211734   0.025325   0.162521
   52  C   4  X   1.438156   1.128831   0.001194   0.580963  -0.022012
   53  C   4  Y   0.126634   0.776506   0.015957   0.412470   0.038594
   54  C   4  Z  -0.090696  -0.148302   0.115097  -0.081218   0.258475
   55  C   4 XX   0.140143   0.060069   0.010858   0.187212  -0.017764
   56  C   4 YY   0.115248  -0.002250  -0.061896   0.158976   0.142949
   57  C   4 ZZ  -0.255391  -0.057819   0.051038  -0.346188  -0.125186
   58  C   4 XY   0.142645   0.109384  -0.000631  -0.305525   0.012265
   59  C   4 XZ  -0.043283  -0.019308   0.135761   0.004328  -0.205269
   60  C   4 YZ  -0.048425  -0.014200  -0.311732  -0.061791   0.717245
   61  C   5  S   0.073863  -0.547980  -0.000036  -0.000133   0.001995
   62  C   5  S   0.150694  -0.999825  -0.000070  -0.000263   0.003171
   63  C   5  S   1.199347  -0.799120   0.000391   0.002211  -0.072918
   64  C   5  X   0.007541   0.011127  -0.002545   0.443048   0.001771
   65  C   5  Y  -0.470367  -0.707817  -0.000259   0.004360  -0.004503
   66  C   5  Z   0.051903   0.080331   0.000019  -0.023128  -0.084972
   67  C   5  X   0.016193  -0.049361  -0.015368   0.697228   0.014006
   68  C   5  Y  -0.883797   3.097974  -0.000212   0.006291   0.031663
   69  C   5  Z   0.099751  -0.348148   0.001033  -0.039648   0.087991
   70  C   5 XX  -0.056655   0.109720   0.068201   0.000785   0.002190
   71  C   5 YY  -0.439799   0.026422   0.001286  -0.000794   0.040123
   72  C   5 ZZ   0.496455  -0.136142  -0.069487   0.000008  -0.042312
   73  C   5 XY   0.010994  -0.000144   0.084229  -0.015442   0.009533
   74  C   5 XZ   0.033749  -0.015599   0.729739   0.005520  -0.005992
   75  C   5 YZ   0.125278  -0.019893   0.002648  -0.001837   0.188762
   76  C   6  S  -0.072380  -0.548473  -0.000198  -0.000356  -0.002267
   77  C   6  S  -0.147957  -1.000838  -0.000368  -0.000679  -0.003717
   78  C   6  S  -1.197591  -0.803775  -0.000880  -0.002242   0.072034
   79  C   6  X   0.007560  -0.011275  -0.002504   0.442932   0.010867
   80  C   6  Y  -0.472032   0.707042   0.000047   0.004337   0.014595
   81  C   6  Z   0.053177  -0.077352   0.000240  -0.025590   0.083190
   82  C   6  X   0.012532   0.047755  -0.014596   0.700656   0.005643
   83  C   6  Y  -0.877615  -3.099402  -0.001663   0.004235   0.009456
   84  C   6  Z   0.096715   0.342707   0.000712  -0.036859  -0.093474
   85  C   6 XX   0.056199   0.110205   0.068463  -0.000104  -0.003134
   86  C   6 YY   0.440680   0.026676   0.001530  -0.000232   0.034613
   87  C   6 ZZ  -0.496879  -0.136881  -0.069993   0.000336  -0.031479
   88  C   6 XY  -0.010546  -0.000269   0.081012   0.016087   0.010200
   89  C   6 XZ  -0.034353  -0.015688   0.730074   0.001988  -0.004961
   90  C   6 YZ  -0.120250  -0.023175   0.002732  -0.003583   0.190423
   91  O   7  S  -0.009366   0.184458   0.000051   0.000121   0.001034
   92  O   7  S  -0.058339   0.442253   0.000110   0.000277   0.002556
   93  O   7  S  -0.511506  -1.466105  -0.000657  -0.001021  -0.004081
   94  O   7  S  -0.668153  -0.265860  -0.000287  -0.000368   0.009200
   95  O   7  X   0.004047   0.002840  -0.000752   0.096603  -0.001754
   96  O   7  Y  -0.267944  -0.182991  -0.000174   0.000880  -0.005487
   97  O   7  Z   0.028703   0.020278  -0.000079  -0.004439  -0.058485
   98  O   7  X   0.005024  -0.011613   0.003653  -0.387345   0.003980
   99  O   7  Y  -0.274879   0.750155   0.000233  -0.003610   0.021364
  100  O   7  Z   0.031295  -0.084173   0.000052   0.018644   0.179382
  101  O   7  X   0.005253   0.001675  -0.000201  -0.024782  -0.002806
  102  O   7  Y  -0.331367  -0.107660  -0.000146  -0.000314  -0.001045
  103  O   7  Z   0.035972   0.011658  -0.000047   0.002017  -0.044663
  104  O   7 XX  -0.010854   0.055611   0.002865  -0.000852   0.000103
  105  O   7 YY   0.028321  -0.070678   0.000048   0.000463   0.004001
  106  O   7 ZZ  -0.017467   0.015067  -0.002913   0.000389  -0.004104
  107  O   7 XY  -0.000748   0.002009   0.003157   0.032631   0.001676
  108  O   7 XZ  -0.000378  -0.002696   0.030382  -0.003379  -0.000587
  109  O   7 YZ  -0.005501   0.011060   0.000170  -0.002155   0.022720
  110  O   7 XX  -0.108179  -0.472920  -0.017183   0.005519   0.002131
  111  O   7 YY  -0.145098   1.014209  -0.000031  -0.003416   0.027835
  112  O   7 ZZ   0.253277  -0.541289   0.017214  -0.002103  -0.029966
  113  O   7 XY   0.003712  -0.027590  -0.019124  -0.215200   0.003781
  114  O   7 XZ   0.022524  -0.002352  -0.181432   0.022526  -0.002629
  115  O   7 YZ   0.052130  -0.201515  -0.000629   0.010060   0.129592
  116  O   8  S   0.008956   0.184548   0.000030   0.000057  -0.000947
  117  O   8  S   0.057346   0.442472   0.000084   0.000127  -0.002352
  118  O   8  S   0.514426  -1.466147   0.000014  -0.000401   0.003299
  119  O   8  S   0.668788  -0.263842   0.000152   0.000089  -0.009402
  120  O   8  X   0.004361  -0.002986  -0.000761   0.096274   0.004474
  121  O   8  Y  -0.267982   0.182781  -0.000069   0.000858   0.007708
  122  O   8  Z   0.031017  -0.020536   0.000157  -0.006147   0.058088
  123  O   8  X   0.003927   0.012074   0.003699  -0.386236  -0.015104
  124  O   8  Y  -0.273326  -0.750817  -0.000142  -0.003406  -0.019253
  125  O   8  Z   0.029626   0.083250  -0.000418   0.023840  -0.179287
  126  O   8  X   0.005283  -0.001669  -0.000219  -0.024795   0.001960
  127  O   8  Y  -0.331442   0.106674  -0.000078  -0.000338   0.008959
  128  O   8  Z   0.037889  -0.012221   0.000101   0.000725   0.043804
  129  O   8 XX   0.010701   0.055625   0.002838   0.000918  -0.000164
  130  O   8 YY  -0.027955  -0.070694   0.000055  -0.000618   0.004882
  131  O   8 ZZ   0.017254   0.015069  -0.002893  -0.000300  -0.004718
  132  O   8 XY   0.000773   0.002022   0.003713  -0.032613   0.000704
  133  O   8 XZ   0.000345  -0.002697   0.030314   0.003841  -0.000512
  134  O   8 YZ   0.006350   0.011197   0.000137   0.001503   0.022537
  135  O   8 XX   0.109365  -0.472248  -0.016947  -0.005954  -0.002651
  136  O   8 YY   0.142684   1.013891  -0.000169   0.003289   0.024022
  137  O   8 ZZ  -0.252049  -0.541644   0.017116   0.002666  -0.021371
  138  O   8 XY  -0.003143  -0.027846  -0.021883   0.214418   0.009981
  139  O   8 XZ  -0.022449  -0.002384  -0.181074  -0.024989  -0.002480
  140  O   8 YZ  -0.051760  -0.204131  -0.000470  -0.013948   0.131195
  141  H   9  S   0.120607   0.158199   0.000642   0.138081   0.004141
  142  H   9  S  -0.461509   0.511441  -0.001593   0.167959   0.012766
  143  H   9  X   0.042367  -0.071295  -0.013557   0.078524  -0.000949
  144  H   9  Y   0.231823  -0.142798  -0.028621   0.339803   0.001933
  145  H   9  Z  -0.028701   0.019723  -0.248382  -0.043358   0.007629
  146  H  10  S  -0.121104   0.158194   0.000631   0.138306  -0.000084
  147  H  10  S   0.460494   0.512717  -0.000975   0.168904  -0.007622
  148  H  10  X  -0.049471  -0.076128  -0.013661   0.089050   0.003517
  149  H  10  Y   0.230741   0.142107  -0.027075  -0.338166  -0.009479
  150  H  10  Z  -0.022567  -0.012028  -0.248633   0.032515  -0.006217
  151  H  11  S   0.120741   0.158120  -0.000515  -0.138122   0.000205
  152  H  11  S  -0.461673   0.511711   0.001262  -0.168404   0.007962
  153  H  11  X  -0.049987   0.075666   0.013195   0.089160   0.004329
  154  H  11  Y   0.231151  -0.141137   0.028652  -0.337942  -0.007903
  155  H  11  Z  -0.023876   0.011504   0.248432   0.033885   0.008002
  156  H  12  S  -0.120946   0.158151  -0.000624  -0.138036  -0.004080
  157  H  12  S   0.460429   0.512722   0.001768  -0.167875  -0.012528
  158  H  12  X   0.042180   0.071625   0.013193   0.078552  -0.001810
  159  H  12  Y   0.231478   0.143470   0.027156   0.339903   0.000124
  160  H  12  Z  -0.027829  -0.020226   0.248319  -0.041518  -0.007419

                    116        117        118        119        120
                    2.0590     2.0920     2.0949     2.1101     2.1226
                     A          A          A          A          A   
    1  C   1  S   0.045592   0.063119   0.227137  -0.000405  -0.278811
    2  C   1  S   0.028820   0.067424   0.472602  -0.000892  -0.529431
    3  C   1  S  -5.017052  -0.932853  -1.420171   0.000958   6.022340
    4  C   1  X   0.070099   0.287917  -0.019959   0.001356  -0.369243
    5  C   1  Y   0.289133  -0.259536  -0.318138   0.001629   0.379815
    6  C   1  Z  -0.035242   0.013759   0.036900   0.018296  -0.023227
    7  C   1  X  -0.551846   0.916842   4.547400   0.003816  -3.497503
    8  C   1  Y   3.996541   0.613425  -5.131261   0.007407  -1.479883
    9  C   1  Z  -0.418844  -0.117808   0.337094   0.077809   0.354013
   10  C   1 XX   0.155558  -0.359983  -0.164162   0.031767   0.237282
   11  C   1 YY  -0.317585   0.079053   0.221611   0.017848  -0.273214
   12  C   1 ZZ   0.162027   0.280930  -0.057449  -0.049615   0.035932
   13  C   1 XY  -0.266680   0.303483   0.206657   0.044230   0.049776
   14  C   1 XZ   0.032442   0.004829  -0.017285   0.343817  -0.018084
   15  C   1 YZ   0.073689   0.010079  -0.048161   0.087917   0.038309
   16  C   2  S  -0.045698   0.061414  -0.227646  -0.000475   0.279150
   17  C   2  S  -0.029080   0.063718  -0.473074  -0.001051   0.530058
   18  C   2  S   5.017155  -0.931771   1.426320   0.000918  -6.023132
   19  C   2  X  -0.078899   0.280182   0.027329   0.001300   0.356894
   20  C   2  Y   0.287609   0.261990  -0.320099   0.002279   0.386901
   21  C   2  Z  -0.029037  -0.044352   0.034334   0.018389  -0.062191
   22  C   2  X   0.425667   0.898813  -4.392302   0.002441   3.542750
   23  C   2  Y   4.005712  -0.651671  -5.211981   0.008151  -1.410270
   24  C   2  Z  -0.473212   0.025163   0.816533   0.078079  -0.031881
   25  C   2 XX  -0.140682  -0.341848   0.155763   0.032294  -0.239345
   26  C   2 YY   0.306903   0.066798  -0.215240  -0.016435   0.274328
   27  C   2 ZZ  -0.166221   0.275050   0.059477  -0.015858  -0.034983
   28  C   2 XY  -0.284355  -0.307954   0.222004   0.034139   0.034051
   29  C   2 XZ   0.028547   0.072576  -0.030581   0.348186   0.008912
   30  C   2 YZ  -0.050666   0.044661   0.023759  -0.085168  -0.041964
   31  C   3  S   0.045897   0.060538  -0.227655  -0.000480  -0.279444
   32  C   3  S   0.029451   0.062153  -0.473147  -0.001059  -0.530566
   33  C   3  S  -5.021089  -0.914596   1.419359   0.001114   6.027802
   34  C   3  X  -0.079137  -0.279727  -0.027523   0.000588   0.357324
   35  C   3  Y   0.287395  -0.261564   0.320370   0.001783   0.387010
   36  C   3  Z  -0.027048   0.044588  -0.034644   0.018249  -0.063215
   37  C   3  X   0.421127  -0.891436   4.392906   0.006061   3.545827
   38  C   3  Y   4.001435   0.647122   5.216588   0.009338  -1.410218
   39  C   3  Z  -0.471869  -0.024250  -0.828506   0.077469  -0.033305
   40  C   3 XX   0.140056  -0.341370   0.155953  -0.032871   0.239862
   41  C   3 YY  -0.308214   0.067081  -0.215431   0.016448  -0.274140
   42  C   3 ZZ   0.168158   0.274289   0.059479   0.016423   0.034277
   43  C   3 XY   0.283045  -0.307722   0.222297  -0.035028  -0.033465
   44  C   3 XZ  -0.031423   0.074372  -0.031147  -0.347774  -0.008602
   45  C   3 YZ   0.042746   0.044716   0.023960   0.085745   0.042741
   46  C   4  S  -0.045913   0.063206   0.227127  -0.000427   0.278942
   47  C   4  S  -0.029521   0.067578   0.472654  -0.000933   0.529752
   48  C   4  S   5.020857  -0.944021  -1.413118   0.001069  -6.024709
   49  C   4  X   0.069809  -0.288129   0.020223   0.000731  -0.368863
   50  C   4  Y   0.288742   0.259472   0.318315   0.002421   0.379652
   51  C   4  Z  -0.037217  -0.013433  -0.036703   0.018278  -0.022312
   52  C   4  X  -0.546889  -0.921422  -4.547806   0.004505  -3.498603
   53  C   4  Y   3.992222  -0.620123   5.139449   0.009928  -1.478089
   54  C   4  Z  -0.419369   0.119819  -0.326643   0.077704   0.355233
   55  C   4 XX  -0.155294  -0.359530  -0.164196  -0.032598  -0.236790
   56  C   4 YY   0.315891   0.079389   0.221910  -0.017516   0.273115
   57  C   4 ZZ  -0.160596   0.280141  -0.057714   0.050114  -0.036325
   58  C   4 XY   0.266715   0.303259   0.206949  -0.043134  -0.050008
   59  C   4 XZ  -0.029275   0.006739  -0.016591  -0.343875   0.017644
   60  C   4 YZ  -0.081432   0.010015  -0.047923  -0.087325  -0.037361
   61  C   5  S   0.311189   0.153673  -0.000543  -0.000240   0.201042
   62  C   5  S   0.499697   0.405175  -0.001626  -0.000232   0.355555
   63  C   5  S  -2.301933   1.666077  -0.007625   0.000671  -6.998780
   64  C   5  X  -0.005830   0.002432   0.256841  -0.006946   0.004002
   65  C   5  Y   0.356025  -0.058895   0.003044  -0.015132  -0.238582
   66  C   5  Z  -0.039674   0.006516  -0.014163  -0.129841   0.026943
   67  C   5  X   0.034883   0.076741   8.156386  -0.017247  -0.073738
   68  C   5  Y  -2.493695  -2.214807   0.087376  -0.036146   4.827151
   69  C   5  Z   0.278719   0.246694  -0.449235  -0.344769  -0.543756
   70  C   5 XX   0.048481   0.481293  -0.001748   0.001874  -0.599219
   71  C   5 YY  -0.239008   0.023794  -0.000468  -0.159188   0.106040
   72  C   5 ZZ   0.190527  -0.505087   0.002215   0.157314   0.493179
   73  C   5 XY   0.006179   0.000931  -0.018730  -0.042249  -0.005486
   74  C   5 XZ   0.008405  -0.062027   0.002545   0.017577   0.069081
   75  C   5 YZ   0.055505  -0.070036   0.001550  -0.801118   0.052733
   76  C   6  S  -0.311631   0.153665  -0.000793  -0.000270  -0.200986
   77  C   6  S  -0.500384   0.405091  -0.002006  -0.000292  -0.355651
   78  C   6  S   2.302951   1.676315  -0.003275   0.001198   6.996199
   79  C   6  X  -0.005575  -0.002061  -0.256783  -0.007055   0.003831
   80  C   6  Y   0.356641   0.057897  -0.002518  -0.014192  -0.239106
   81  C   6  Z  -0.039734  -0.006356   0.014153  -0.129951   0.026229
   82  C   6  X   0.043502  -0.073757  -8.156816  -0.019730  -0.076166
   83  C   6  Y  -2.494437   2.224952  -0.089855  -0.041639   4.826977
   84  C   6  Z   0.277337  -0.243859   0.449683  -0.344197  -0.532828
   85  C   6 XX  -0.048056   0.481864  -0.001987  -0.000669   0.598647
   86  C   6 YY   0.238804   0.023775  -0.000350   0.156738  -0.105621
   87  C   6 ZZ  -0.190749  -0.505640   0.002336  -0.156068  -0.493026
   88  C   6 XY  -0.006113   0.001678  -0.018686   0.042381   0.005476
   89  C   6 XZ  -0.008643  -0.062234   0.002395  -0.017645  -0.069067
   90  C   6 YZ  -0.056822  -0.069854   0.001268   0.801704  -0.050354
   91  O   7  S   0.159648  -0.098803   0.000573   0.000257  -0.099300
   92  O   7  S   0.338860  -0.221731   0.001276   0.000504  -0.211575
   93  O   7  S  -1.840260   0.825117  -0.004897  -0.003020   1.123200
   94  O   7  S   0.148858   0.246142  -0.000900  -0.001158   0.467630
   95  O   7  X   0.005186  -0.002427  -0.275804   0.002035  -0.003563
   96  O   7  Y  -0.319802   0.063987  -0.003116   0.003580   0.222346
   97  O   7  Z   0.035738  -0.007252   0.015203   0.038407  -0.024568
   98  O   7  X  -0.006239   0.010494   1.375756   0.026208   0.008970
   99  O   7  Y   0.356825  -0.225626   0.014512   0.053159  -0.549990
  100  O   7  Z  -0.041320   0.024697  -0.075832   0.481963   0.061296
  101  O   7  X  -0.000664  -0.001150  -0.033410   0.002035  -0.001656
  102  O   7  Y   0.045022   0.064251  -0.000494   0.003683   0.106549
  103  O   7  Z  -0.004752  -0.006984   0.001849   0.037876  -0.011452
  104  O   7 XX   0.043234   0.012070   0.000357   0.000124   0.005260
  105  O   7 YY  -0.038981   0.010639  -0.000315  -0.012692   0.009349
  106  O   7 ZZ  -0.004253  -0.022710  -0.000042   0.012568  -0.014609
  107  O   7 XY   0.001152  -0.000279  -0.014493  -0.003455  -0.000213
  108  O   7 XZ  -0.003068  -0.002168   0.001611   0.001426  -0.001236
  109  O   7 YZ   0.004264  -0.004231   0.000849  -0.065355  -0.003111
  110  O   7 XX   0.000691   0.001251  -0.011359  -0.001374   0.140795
  111  O   7 YY   0.469927  -0.298854   0.008651   0.105165  -0.499572
  112  O   7 ZZ  -0.470617   0.297603   0.002708  -0.103791   0.358776
  113  O   7 XY  -0.012043   0.009969   0.418679   0.028540   0.013531
  114  O   7 XZ  -0.028780   0.017848  -0.045751  -0.011841   0.012764
  115  O   7 YZ  -0.122630   0.076615  -0.023974   0.538985   0.111082
  116  O   8  S  -0.159583  -0.098554   0.000382   0.000198   0.099352
  117  O   8  S  -0.338673  -0.221172   0.000860   0.000393   0.211671
  118  O   8  S   1.839587   0.822389  -0.002993  -0.002401  -1.123536
  119  O   8  S  -0.149008   0.245725  -0.001274  -0.000963  -0.467877
  120  O   8  X   0.004842   0.002443   0.275670   0.002094  -0.003487
  121  O   8  Y  -0.319775  -0.063585   0.002814   0.004883   0.222286
  122  O   8  Z   0.035582   0.006857  -0.015172   0.038218  -0.025043
  123  O   8  X  -0.004678  -0.010603  -1.375142   0.025722   0.008549
  124  O   8  Y   0.356607   0.224040  -0.014012   0.054893  -0.549690
  125  O   8  Z  -0.038361  -0.024743   0.075574   0.481636   0.061492
  126  O   8  X  -0.000759   0.001166   0.033511   0.002043  -0.001667
  127  O   8  Y   0.045007  -0.064198   0.000683   0.004722   0.106569
  128  O   8  Z  -0.005298   0.007320  -0.001884   0.037764  -0.012263
  129  O   8 XX  -0.043169   0.012124   0.000309  -0.000061  -0.005288
  130  O   8 YY   0.038840   0.010511  -0.000265   0.013026  -0.009316
  131  O   8 ZZ   0.004329  -0.022635  -0.000044  -0.012964   0.014604
  132  O   8 XY  -0.001159  -0.000304  -0.014488   0.003440   0.000210
  133  O   8 XZ   0.003064  -0.002157   0.001636  -0.001453   0.001235
  134  O   8 YZ  -0.004664  -0.004480   0.000820   0.065281   0.003168
  135  O   8 XX  -0.001146   0.000910  -0.011428   0.000232  -0.140591
  136  O   8 YY  -0.469038  -0.297013   0.008062  -0.107000   0.499034
  137  O   8 ZZ   0.470184   0.296104   0.003366   0.106767  -0.358443
  138  O   8 XY   0.011643   0.009700   0.418371  -0.028323  -0.013565
  139  O   8 XZ   0.028871   0.017780  -0.046957   0.012012  -0.012743
  140  O   8 YZ   0.123383   0.078774  -0.023645  -0.538264  -0.113064
  141  H   9  S   0.141518  -0.145263   0.165809  -0.000012   0.205925
  142  H   9  S  -0.369556  -0.326879   0.296373   0.000677   0.932519
  143  H   9  X  -0.181445  -0.141577  -0.265320  -0.019243   0.006748
  144  H   9  Y  -0.295313  -0.327322  -0.421597  -0.040406  -0.180027
  145  H   9  Z   0.042767   0.044882   0.062400  -0.354272   0.019620
  146  H  10  S  -0.141603  -0.147283  -0.164302  -0.000174  -0.206016
  147  H  10  S   0.369625  -0.331852  -0.293246   0.000597  -0.932123
  148  H  10  X   0.190387  -0.149188   0.279974  -0.019098  -0.001128
  149  H  10  Y  -0.291253   0.320667  -0.419822  -0.039246  -0.180132
  150  H  10  Z   0.022670  -0.027459   0.031494  -0.354077   0.020547
  151  H  11  S   0.141759  -0.146610  -0.164308  -0.000089   0.206052
  152  H  11  S  -0.369081  -0.330152  -0.293872   0.000585   0.932355
  153  H  11  X   0.190794   0.149057  -0.279789  -0.019022  -0.001358
  154  H  11  Y  -0.292082  -0.320265   0.419203  -0.040215  -0.179614
  155  H  11  Z   0.022337   0.028492  -0.032591  -0.354166   0.019861
  156  H  12  S  -0.141793  -0.145447   0.165742  -0.000053  -0.205723
  157  H  12  S   0.369233  -0.329028   0.296825   0.000702  -0.931984
  158  H  12  X  -0.181458   0.141441   0.265119  -0.019028   0.006454
  159  H  12  Y  -0.295336   0.327324   0.421457  -0.039180  -0.180208
  160  H  12  Z   0.043150  -0.043914  -0.060865  -0.354699   0.020044

                    121        122        123        124        125
                    2.1815     2.2203     2.2273     2.2865     2.3188
                     A          A          A          A          A   
    1  C   1  S  -0.218614  -0.367109  -0.003601   0.215718   0.216258
    2  C   1  S  -0.357723  -0.790707  -0.007428   0.327859   0.413028
    3  C   1  S   2.394185   3.024179   0.037065  -3.759172  -1.317189
    4  C   1  X  -0.168973  -0.018637  -0.003490   0.265925   0.208160
    5  C   1  Y   0.212525   0.083887  -0.005700   0.431357  -0.033592
    6  C   1  Z  -0.014523  -0.008401  -0.049828  -0.062886  -0.007348
    7  C   1  X  -0.835195  -0.512590  -0.009216   2.428265   0.628152
    8  C   1  Y   0.938790  -1.238476  -0.009634  -0.666618  -0.413334
    9  C   1  Z  -0.061260   0.166174   0.001777  -0.053496   0.013280
   10  C   1 XX   0.128476   0.120612   0.041469  -0.142671  -0.086182
   11  C   1 YY   0.241993  -0.140460   0.095131  -0.448220  -0.135151
   12  C   1 ZZ  -0.370469   0.019848  -0.136600   0.590891   0.221333
   13  C   1 XY  -0.092745   0.323719   0.078234   0.082485   0.010274
   14  C   1 XZ  -0.021290  -0.047656   0.433617   0.036730   0.018096
   15  C   1 YZ  -0.075254   0.000106   0.480454   0.134353   0.046528
   16  C   2  S  -0.218808   0.366887   0.003493  -0.216183   0.215700
   17  C   2  S  -0.358147   0.790307   0.007227  -0.328775   0.412148
   18  C   2  S   2.390969  -3.022602  -0.036234   3.760113  -1.305780
   19  C   2  X  -0.161571   0.016118   0.003413  -0.279625   0.206440
   20  C   2  Y  -0.214895   0.084119   0.005544   0.426208   0.038634
   21  C   2  Z   0.033113  -0.010353   0.049818  -0.032691  -0.015389
   22  C   2  X  -0.802016   0.551114   0.009355  -2.407206   0.609383
   23  C   2  Y  -0.953932  -1.228907  -0.010061  -0.714104   0.425207
   24  C   2  Z   0.149665   0.108876   0.000468   0.207556  -0.079893
   25  C   2 XX   0.123412  -0.138202  -0.043062   0.138817  -0.085452
   26  C   2 YY   0.245403   0.150326   0.093855   0.451654  -0.134420
   27  C   2 ZZ  -0.368816  -0.012125  -0.050794  -0.590471   0.219872
   28  C   2 XY   0.081027   0.316377  -0.022386   0.060738  -0.003985
   29  C   2 XZ  -0.040347  -0.023086  -0.455020  -0.052629   0.019540
   30  C   2 YZ  -0.085710  -0.041550   0.477456  -0.138432   0.046906
   31  C   3  S   0.218668   0.367258   0.003626  -0.216085   0.215872
   32  C   3  S   0.357767   0.791000   0.007468  -0.328616   0.412487
   33  C   3  S  -2.390650  -3.026914  -0.037844   3.759338  -1.308236
   34  C   3  X  -0.161961  -0.016284   0.001866   0.279838  -0.206560
   35  C   3  Y  -0.215207  -0.084056   0.005621  -0.426582  -0.038502
   36  C   3  Z   0.032626   0.010289   0.050060   0.032947   0.015551
   37  C   3  X  -0.802921  -0.553005  -0.010032   2.407027  -0.610169
   38  C   3  Y  -0.954127   1.229224   0.009881   0.714403  -0.424395
   39  C   3  Z   0.151203  -0.107744  -0.000660  -0.212395   0.081254
   40  C   3 XX  -0.123803  -0.139018   0.041538   0.138722  -0.085426
   41  C   3 YY  -0.245382   0.150960  -0.093397   0.450969  -0.134517
   42  C   3 ZZ   0.369185  -0.011942   0.051859  -0.589691   0.219943
   43  C   3 XY  -0.081625   0.315427   0.027594   0.060567  -0.004102
   44  C   3 XZ   0.040351  -0.032785   0.454594  -0.053713   0.019971
   45  C   3 YZ   0.085296  -0.035972  -0.477794  -0.142463   0.046900
   46  C   4  S   0.218895  -0.367172  -0.003571   0.215568   0.216267
   47  C   4  S   0.358234  -0.790877  -0.007389   0.327580   0.413058
   48  C   4  S  -2.397068   3.025551   0.037160  -3.757663  -1.315966
   49  C   4  X  -0.169324   0.018616  -0.001930  -0.266015  -0.208208
   50  C   4  Y   0.212769  -0.083452  -0.005490  -0.431744   0.033734
   51  C   4  Z  -0.015018   0.008395  -0.050037   0.062735   0.007511
   52  C   4  X  -0.836337   0.513227   0.009452  -2.427702  -0.627945
   53  C   4  Y   0.937299   1.239439   0.010284   0.668098   0.414374
   54  C   4  Z  -0.059456  -0.167438  -0.001498   0.058195  -0.012004
   55  C   4 XX  -0.128863   0.121449  -0.040308  -0.142491  -0.086052
   56  C   4 YY  -0.241802  -0.139356  -0.095507  -0.449128  -0.135281
   57  C   4 ZZ   0.370666   0.017907   0.135815   0.591619   0.221333
   58  C   4 XY   0.092960   0.325168  -0.072967   0.082541   0.010460
   59  C   4 XZ   0.021117  -0.038183  -0.434331   0.037877   0.018561
   60  C   4 YZ   0.076008   0.005672  -0.480992   0.130373   0.046261
   61  C   5  S   0.000184   0.000008   0.000002   0.000184  -0.141639
   62  C   5  S   0.000378   0.000066   0.000008   0.000271  -0.195580
   63  C   5  S  -0.003377   0.001557   0.000347  -0.003616   4.488081
   64  C   5  X  -0.138067   0.048834  -0.000155   0.292891  -0.006102
   65  C   5  Y  -0.001574   0.000498   0.000006   0.002333   0.404012
   66  C   5  Z   0.007604  -0.002687   0.000008  -0.016047  -0.045601
   67  C   5  X  -2.160464  -1.223952  -0.020840   3.286662  -0.002227
   68  C   5  Y  -0.019511  -0.012213  -0.000618   0.030413   0.352401
   69  C   5  Z   0.118600   0.067327   0.001095  -0.180528  -0.039774
   70  C   5 XX  -0.022147   0.014235   0.003872   0.016306  -0.119410
   71  C   5 YY   0.013226  -0.008551  -0.000056  -0.010755   0.755251
   72  C   5 ZZ   0.008920  -0.005684  -0.003816  -0.005551  -0.635842
   73  C   5 XY   0.794288  -0.522945   0.000995  -0.585486  -0.020336
   74  C   5 XZ  -0.090675   0.057374   0.040159   0.064639  -0.031107
   75  C   5 YZ  -0.044516   0.029250   0.000067   0.032992  -0.183664
   76  C   6  S   0.000064   0.000135   0.000028   0.000281  -0.141490
   77  C   6  S   0.000239   0.000290   0.000055   0.000509  -0.195309
   78  C   6  S   0.005860  -0.001421  -0.000540  -0.002504   4.487020
   79  C   6  X  -0.137941  -0.048854   0.000151  -0.292794   0.005908
   80  C   6  Y  -0.001552  -0.000481   0.000020  -0.002403  -0.404236
   81  C   6  Z   0.007617   0.002690  -0.000076   0.016047   0.044513
   82  C   6  X  -2.160710   1.222546   0.020251  -3.286388   0.001462
   83  C   6  Y  -0.016653   0.012043   0.000063  -0.031769  -0.353080
   84  C   6  Z   0.118293  -0.067226  -0.001325   0.180639   0.039178
   85  C   6 XX   0.022079   0.014496  -0.003584   0.016006  -0.119319
   86  C   6 YY  -0.013115  -0.008775  -0.000076  -0.010210   0.755771
   87  C   6 ZZ  -0.008964  -0.005721   0.003660  -0.005797  -0.636452
   88  C   6 XY  -0.794656  -0.523275  -0.008226  -0.585474  -0.020109
   89  C   6 XZ   0.084958   0.058313  -0.039265   0.064969  -0.031046
   90  C   6 YZ   0.044424   0.029334   0.000523   0.032954  -0.180190
   91  O   7  S  -0.000131  -0.000090  -0.000014  -0.000183   0.251499
   92  O   7  S  -0.000303  -0.000197  -0.000028  -0.000361   0.480820
   93  O   7  S   0.000948   0.000556   0.000112   0.001469  -2.339688
   94  O   7  S   0.000262   0.000026  -0.000026   0.000092  -0.341314
   95  O   7  X  -0.019925   0.215072   0.002624  -0.061022   0.005300
   96  O   7  Y  -0.000162   0.002093   0.000040  -0.000429  -0.345684
   97  O   7  Z   0.001089  -0.011825  -0.000126   0.003336   0.037910
   98  O   7  X  -0.138920  -0.932511  -0.010539   0.216963   0.014461
   99  O   7  Y  -0.001980  -0.008998  -0.000032   0.002698  -0.879589
  100  O   7  Z   0.007731   0.051265   0.000853  -0.011977   0.096283
  101  O   7  X  -0.024036  -0.038252  -0.000520  -0.009991   0.002178
  102  O   7  Y  -0.000220  -0.000371  -0.000009  -0.000054  -0.135350
  103  O   7  Z   0.001316   0.002098   0.000068   0.000551   0.014728
  104  O   7 XX  -0.000432   0.000059   0.001668   0.000238   0.015864
  105  O   7 YY   0.000285  -0.000043   0.000023  -0.000188   0.054219
  106  O   7 ZZ   0.000147  -0.000015  -0.001691  -0.000050  -0.070083
  107  O   7 XY   0.015391  -0.003087   0.001899  -0.009278  -0.001334
  108  O   7 XZ  -0.001769   0.000194   0.017813   0.001135  -0.005307
  109  O   7 YZ  -0.000869   0.000171   0.000025   0.000532  -0.015970
  110  O   7 XX   0.012766   0.015908   0.004882   0.006851   0.190676
  111  O   7 YY  -0.008383  -0.009983   0.000068  -0.004117  -0.256808
  112  O   7 ZZ  -0.004383  -0.005925  -0.004950  -0.002734   0.066132
  113  O   7 XY  -0.463613  -0.587263  -0.000077  -0.258364   0.007257
  114  O   7 XZ   0.050937   0.063172   0.051356   0.028136  -0.008346
  115  O   7 YZ   0.026152   0.032944   0.000814   0.014465   0.040813
  116  O   8  S   0.000014   0.000024  -0.000014  -0.000290   0.251520
  117  O   8  S   0.000036   0.000037  -0.000030  -0.000551   0.480850
  118  O   8  S  -0.000041  -0.000321   0.000161   0.002881  -2.339434
  119  O   8  S  -0.000035  -0.000020   0.000025   0.000508  -0.341233
  120  O   8  X  -0.019723  -0.215128  -0.002584   0.060934  -0.005408
  121  O   8  Y  -0.000158  -0.001972  -0.000046   0.000096   0.345528
  122  O   8  Z   0.001085   0.011814   0.000164  -0.003291  -0.039113
  123  O   8  X  -0.139470   0.932432   0.010389  -0.216802  -0.014200
  124  O   8  Y  -0.001599   0.009136   0.000145  -0.002995   0.879271
  125  O   8  Z   0.007693  -0.051266  -0.000439   0.012042  -0.099619
  126  O   8  X  -0.024081   0.038229   0.000507   0.010058  -0.002170
  127  O   8  Y  -0.000266   0.000397   0.000003  -0.000112   0.135270
  128  O   8  Z   0.001332  -0.002106  -0.000023  -0.000524  -0.015415
  129  O   8 XX   0.000415   0.000097  -0.001664   0.000232   0.015860
  130  O   8 YY  -0.000260  -0.000038  -0.000029  -0.000216   0.054095
  131  O   8 ZZ  -0.000155  -0.000060   0.001693  -0.000016  -0.069955
  132  O   8 XY  -0.015421  -0.003047  -0.002127  -0.009291  -0.001339
  133  O   8 XZ   0.001642   0.000480  -0.017781   0.000941  -0.005308
  134  O   8 YZ   0.000868   0.000170  -0.000033   0.000542  -0.016545
  135  O   8 XX  -0.012788   0.016198  -0.004599   0.006909   0.190707
  136  O   8 YY   0.007932  -0.009836  -0.000256  -0.004110  -0.256425
  137  O   8 ZZ   0.004856  -0.006362   0.004855  -0.002800   0.065718
  138  O   8 XY   0.463851  -0.586625  -0.011352  -0.258316   0.007115
  139  O   8 XZ  -0.051668   0.066643  -0.050116   0.029058  -0.008333
  140  O   8 YZ  -0.026044   0.032902  -0.000003   0.014427   0.042913
  141  H   9  S   0.238684   0.112297   0.001264  -0.039097   0.019605
  142  H   9  S  -0.056166  -0.389837  -0.004409   0.514473  -0.127182
  143  H   9  X   0.212837  -0.335314   0.022850   0.135093  -0.133277
  144  H   9  Y   0.304717  -0.025502   0.053685  -0.257669   0.277713
  145  H   9  Z  -0.045866   0.016474   0.475888   0.022330  -0.024102
  146  H  10  S   0.238410  -0.112409  -0.001218   0.039133   0.019761
  147  H  10  S  -0.057136   0.389592   0.004395  -0.514135  -0.127995
  148  H  10  X   0.222240   0.336040  -0.022783  -0.126596  -0.124674
  149  H  10  Y  -0.300793  -0.018184  -0.053274  -0.259714  -0.280666
  150  H  10  Z   0.021812  -0.011627  -0.476220   0.035317   0.038181
  151  H  11  S  -0.238582  -0.112608  -0.001341   0.039261   0.019882
  152  H  11  S   0.056485   0.389277   0.004266  -0.514295  -0.128077
  153  H  11  X   0.222589  -0.335262  -0.028420   0.126300   0.124658
  154  H  11  Y  -0.301152   0.019072  -0.053833   0.259525   0.280554
  155  H  11  Z   0.022013   0.020377  -0.475863  -0.036660  -0.038340
  156  H  12  S  -0.238909   0.112443   0.001183  -0.039231   0.019728
  157  H  12  S   0.056007  -0.389355  -0.004274   0.514471  -0.126868
  158  H  12  X   0.212790   0.334799   0.028509  -0.134745   0.133074
  159  H  12  Y   0.305202   0.024797   0.053403   0.257718  -0.277754
  160  H  12  Z  -0.045806  -0.025269   0.475699  -0.021031   0.023997

                    126        127        128        129        130
                    2.3761     2.4079     2.4477     2.6008     2.6411
                     A          A          A          A          A   
    1  C   1  S  -0.283617   0.000832   0.000054   0.221492  -0.004047
    2  C   1  S  -0.503008   0.001969  -0.000101   0.351558  -0.105992
    3  C   1  S   4.614928  -0.002836  -0.004614  -5.491378  -1.274974
    4  C   1  X  -0.318417  -0.003541  -0.002832  -0.449156  -0.209553
    5  C   1  Y  -0.417519  -0.006558  -0.006308   0.295498  -0.476348
    6  C   1  Z   0.063719  -0.051862  -0.061294  -0.009118   0.064774
    7  C   1  X  -1.881298  -0.003911   0.008168   1.514004   0.243522
    8  C   1  Y  -1.319504  -0.007838   0.009787   0.834759  -0.204147
    9  C   1  Z   0.248289  -0.092184   0.091626  -0.174176   0.009940
   10  C   1 XX   0.064730  -0.040415   0.050300   0.045605   0.011375
   11  C   1 YY   0.330734   0.116402   0.051886  -0.496950  -0.302901
   12  C   1 ZZ  -0.395464  -0.075987  -0.102186   0.451345   0.291526
   13  C   1 XY  -0.081808  -0.018479   0.076225   0.245887  -0.161109
   14  C   1 XZ  -0.018617  -0.440131   0.542772  -0.001892   0.035599
   15  C   1 YZ  -0.090531   0.587133   0.264110   0.111115   0.086981
   16  C   2  S   0.283561  -0.000825  -0.000118  -0.221757  -0.003782
   17  C   2  S   0.502888  -0.001952  -0.000036  -0.352232  -0.105579
   18  C   2  S  -4.614241   0.003107   0.004960   5.490800  -1.279890
   19  C   2  X   0.331443   0.003511   0.002670   0.439615  -0.225058
   20  C   2  Y  -0.411153   0.005184   0.007506   0.304481   0.471719
   21  C   2  Z   0.028634   0.052167   0.061139  -0.057810  -0.040863
   22  C   2  X   1.921981   0.003723  -0.008198  -1.539743   0.238545
   23  C   2  Y  -1.282706   0.012569  -0.011184   0.805063   0.208226
   24  C   2  Z   0.041783   0.091712  -0.091472  -0.008593  -0.036098
   25  C   2 XX  -0.060645   0.038796  -0.051173  -0.058743   0.002317
   26  C   2 YY  -0.333011   0.115550   0.051373   0.504867  -0.297910
   27  C   2 ZZ   0.393656  -0.154347  -0.000199  -0.446124   0.295593
   28  C   2 XY  -0.065802   0.078242  -0.047869   0.219945   0.176405
   29  C   2 XZ   0.034921   0.414242  -0.554234  -0.049633  -0.001630
   30  C   2 YZ   0.099768   0.590696   0.259739  -0.137271   0.068284
   31  C   3  S  -0.283103  -0.000849   0.000102  -0.221548  -0.004181
   32  C   3  S  -0.502099  -0.002007  -0.000007  -0.351755  -0.106496
   33  C   3  S   4.609201   0.002981  -0.005103   5.491790  -1.279203
   34  C   3  X   0.331363   0.002066  -0.003871  -0.439337   0.225259
   35  C   3  Y  -0.411175   0.006486  -0.006269  -0.304714  -0.471929
   36  C   3  Z   0.028013   0.052067  -0.061328   0.058018   0.040856
   37  C   3  X   1.920059   0.006060   0.001535   1.540003  -0.237750
   38  C   3  Y  -1.282757   0.007920   0.009562  -0.806193  -0.207863
   39  C   3  Z   0.039365   0.092153   0.091927   0.006417   0.036293
   40  C   3 XX   0.060110  -0.039518  -0.052284  -0.058243   0.001695
   41  C   3 YY   0.332858  -0.118046   0.049868   0.504492  -0.297384
   42  C   3 ZZ  -0.392968   0.157563   0.002416  -0.446249   0.295689
   43  C   3 XY   0.065727  -0.080665  -0.048511   0.219930   0.176936
   44  C   3 XZ  -0.037713  -0.414225  -0.553571  -0.050003  -0.000640
   45  C   3 YZ  -0.098693  -0.589947   0.260736  -0.137188   0.068263
   46  C   4  S   0.283097   0.000789  -0.000081   0.222010  -0.004550
   47  C   4  S   0.502026   0.001872   0.000048   0.352616  -0.107140
   48  C   4  S  -4.610536  -0.002994   0.004836  -5.495249  -1.273412
   49  C   4  X  -0.318378  -0.002113   0.003803   0.449246   0.210208
   50  C   4  Y  -0.417138  -0.005135   0.007496  -0.295787   0.476603
   51  C   4  Z   0.064349  -0.052180   0.061231   0.008914  -0.064901
   52  C   4  X  -1.879365  -0.005946  -0.001625  -1.515002  -0.241974
   53  C   4  Y  -1.318483  -0.012793  -0.010917  -0.834460   0.204061
   54  C   4  Z   0.250697  -0.091617  -0.091798   0.176524  -0.009753
   55  C   4 XX  -0.064286   0.041316   0.051544   0.046025   0.010741
   56  C   4 YY  -0.330274  -0.114069   0.053502  -0.497514  -0.302417
   57  C   4 ZZ   0.394560   0.072754  -0.105046   0.451489   0.291676
   58  C   4 XY   0.082358   0.016098   0.075536   0.245759  -0.161458
   59  C   4 XZ   0.021311   0.440526   0.542212  -0.001505   0.036766
   60  C   4 YZ   0.091379  -0.587753   0.263900   0.111309   0.087188
   61  C   5  S   0.128405  -0.000004  -0.000209  -0.000045  -0.214685
   62  C   5  S   0.149496  -0.000007  -0.000111  -0.000107  -0.398216
   63  C   5  S  -5.363521  -0.000301   0.015921   0.000553   2.323401
   64  C   5  X   0.001677  -0.000257   0.000249   0.383765  -0.001802
   65  C   5  Y  -0.114994  -0.000073   0.001534   0.003707   0.111720
   66  C   5  Z   0.012861  -0.000018   0.004989  -0.021094  -0.012474
   67  C   5  X  -0.010874   0.001114  -0.016207   3.220670   0.007016
   68  C   5  Y   0.571843  -0.000135  -0.030455   0.030910  -0.467755
   69  C   5  Z  -0.064791  -0.000141  -0.295544  -0.177008   0.053155
   70  C   5 XX   0.061113  -0.066783   0.000929  -0.017612   0.525716
   71  C   5 YY  -0.556498  -0.001435  -0.125907   0.010657  -0.183261
   72  C   5 ZZ   0.495385   0.068218   0.124978   0.006954  -0.342454
   73  C   5 XY   0.014453  -0.078691  -0.033909   0.655550   0.006826
   74  C   5 XZ   0.026314  -0.713816   0.014428  -0.072761  -0.055050
   75  C   5 YZ   0.137611  -0.002725  -0.643057  -0.036711  -0.021299
   76  C   6  S  -0.128395  -0.000013   0.000206   0.000028  -0.214689
   77  C   6  S  -0.149443  -0.000031   0.000095   0.000031  -0.398247
   78  C   6  S   5.364885  -0.000439  -0.016393   0.001875   2.321777
   79  C   6  X   0.001867   0.000235  -0.000276  -0.383710   0.001795
   80  C   6  Y  -0.115280   0.000044   0.000452  -0.003678  -0.111514
   81  C   6  Z   0.012793  -0.000119  -0.005118   0.021089   0.012406
   82  C   6  X  -0.007539  -0.001303   0.015710  -3.222892  -0.004278
   83  C   6  Y   0.572162   0.000090   0.036259  -0.029907   0.468108
   84  C   6  Z  -0.062847   0.000165   0.294992   0.177032  -0.051424
   85  C   6 XX  -0.060998   0.066801   0.001015  -0.017756   0.525775
   86  C   6 YY   0.556719   0.001184  -0.127483   0.010778  -0.183611
   87  C   6 ZZ  -0.495722  -0.067985   0.126468   0.006978  -0.342164
   88  C   6 XY  -0.014491   0.082676  -0.033931   0.656591   0.005835
   89  C   6 XZ  -0.026327   0.713236   0.014014  -0.072366  -0.054982
   90  C   6 YZ  -0.137532   0.001927  -0.642706  -0.036791  -0.021778
   91  O   7  S   0.181055  -0.000031  -0.001009  -0.000013   0.092623
   92  O   7  S   0.344097  -0.000059  -0.001935  -0.000019   0.193513
   93  O   7  S  -1.705789   0.000291   0.009286   0.000458  -0.353687
   94  O   7  S  -0.322930   0.000037   0.002567   0.000303  -0.183498
   95  O   7  X   0.004129  -0.000076  -0.002100  -0.104984  -0.001323
   96  O   7  Y  -0.258236   0.000034  -0.003189  -0.000920   0.086292
   97  O   7  Z   0.028396  -0.000044  -0.038726   0.005759  -0.009552
   98  O   7  X   0.010170   0.002190  -0.019051   1.141082   0.002939
   99  O   7  Y  -0.672840   0.000118  -0.035621   0.011118  -0.256937
  100  O   7  Z   0.072740  -0.000344  -0.353277  -0.062746   0.028030
  101  O   7  X   0.002252   0.000166  -0.001657   0.266533   0.001225
  102  O   7  Y  -0.146849   0.000012  -0.002346   0.002694  -0.088309
  103  O   7  Z   0.015910  -0.000020  -0.030428  -0.014664   0.009564
  104  O   7 XX   0.013722   0.004806  -0.000178   0.003773   0.044474
  105  O   7 YY   0.038903   0.000092   0.015914  -0.002322   0.001581
  106  O   7 ZZ  -0.052625  -0.004898  -0.015737  -0.001451  -0.046056
  107  O   7 XY  -0.000911   0.005452   0.004394  -0.137573   0.000330
  108  O   7 XZ  -0.004112   0.051246  -0.001818   0.015084  -0.005728
  109  O   7 YZ  -0.011672   0.000252   0.083238   0.007716  -0.006066
  110  O   7 XX   0.071449  -0.015839   0.000124  -0.019653  -0.014696
  111  O   7 YY  -0.099351  -0.000280  -0.075302   0.012118  -0.064520
  112  O   7 ZZ   0.027902   0.016119   0.075179   0.007535   0.079216
  113  O   7 XY   0.002628  -0.016739  -0.020709   0.722283   0.000797
  114  O   7 XZ  -0.002909  -0.168345   0.008671  -0.078316   0.005893
  115  O   7 YZ   0.014858  -0.000983  -0.392159  -0.040486   0.018170
  116  O   8  S  -0.180986  -0.000032   0.000946   0.000021   0.092722
  117  O   8  S  -0.343957  -0.000061   0.001811   0.000049   0.193709
  118  O   8  S   1.704888   0.000290  -0.008730   0.000101  -0.354473
  119  O   8  S   0.322609   0.000064  -0.002468   0.000002  -0.183749
  120  O   8  X   0.004020   0.000072   0.002055   0.105003   0.001322
  121  O   8  Y  -0.258059  -0.000035   0.005412   0.000923  -0.086224
  122  O   8  Z   0.029135   0.000010   0.038427  -0.005761   0.009680
  123  O   8  X   0.011054  -0.002207   0.018991  -1.139986  -0.004003
  124  O   8  Y  -0.671874  -0.000129   0.043446  -0.011026   0.257229
  125  O   8  Z   0.077115   0.000232   0.352328   0.062662  -0.029360
  126  O   8  X   0.002377  -0.000164   0.001613  -0.266345  -0.001310
  127  O   8  Y  -0.146618  -0.000023   0.004435  -0.002560   0.088347
  128  O   8  Z   0.016789   0.000019   0.030182   0.014640  -0.010145
  129  O   8 XX  -0.013721  -0.004780  -0.000073   0.003780   0.044451
  130  O   8 YY  -0.038752  -0.000106   0.016809  -0.002300   0.001525
  131  O   8 ZZ   0.052472   0.004886  -0.016737  -0.001480  -0.045976
  132  O   8 XY   0.000956  -0.006138   0.004380  -0.137360   0.000092
  133  O   8 XZ   0.004094  -0.051167  -0.001848   0.015339  -0.005687
  134  O   8 YZ   0.012274  -0.000133   0.082974   0.007700  -0.006520
  135  O   8 XX  -0.071406   0.015637   0.001025  -0.019832  -0.014600
  136  O   8 YY   0.098565   0.000377  -0.078970   0.012045  -0.064442
  137  O   8 ZZ  -0.027159  -0.016014   0.077946   0.007787   0.079042
  138  O   8 XY  -0.002944   0.021348  -0.020641   0.721145   0.001625
  139  O   8 XZ   0.002996   0.167823   0.008606  -0.081275   0.005767
  140  O   8 YZ  -0.017983   0.000339  -0.391263  -0.040435   0.019502
  141  H   9  S   0.152105   0.000208  -0.000251  -0.193466   0.494552
  142  H   9  S   0.610779   0.000760  -0.000290   0.043057   0.254074
  143  H   9  X   0.354565  -0.004662  -0.023024  -0.232537   0.637125
  144  H   9  Y  -0.157624  -0.010119  -0.046901   0.258596  -0.061829
  145  H   9  Z  -0.002395  -0.092859  -0.419735  -0.016328  -0.027719
  146  H  10  S  -0.151823  -0.000173   0.000239   0.193807   0.494576
  147  H  10  S  -0.610632  -0.000734   0.000245  -0.042864   0.254419
  148  H  10  X  -0.349305   0.004708   0.022989   0.224891   0.634961
  149  H  10  Y  -0.164104   0.010827   0.047390   0.262661   0.073936
  150  H  10  Z   0.038244   0.092875   0.419760  -0.041813  -0.042869
  151  H  11  S   0.151704  -0.000210  -0.000228   0.193915   0.493412
  152  H  11  S   0.611238  -0.000745  -0.000234  -0.042661   0.253663
  153  H  11  X  -0.349659   0.005302  -0.022296  -0.225046  -0.634061
  154  H  11  Y  -0.164387   0.010022  -0.046997  -0.263136  -0.073033
  155  H  11  Z   0.036288   0.092663  -0.420037   0.041474   0.042031
  156  H  12  S  -0.151751   0.000190   0.000258  -0.193399   0.493729
  157  H  12  S  -0.611123   0.000772   0.000254   0.042793   0.253605
  158  H  12  X   0.354672  -0.005311   0.022172   0.232670  -0.636574
  159  H  12  Y  -0.157378  -0.010707   0.047471  -0.258260   0.060907
  160  H  12  Z  -0.000457  -0.092560   0.419907   0.016653   0.027143

                    131        132        133        134        135
                    2.6875     2.7439     2.8268     2.8460     2.9224
                     A          A          A          A          A   
    1  C   1  S  -0.227717  -0.327078   0.082101  -0.286971  -0.100981
    2  C   1  S  -0.446876  -0.709666   0.321140  -0.578038  -0.136088
    3  C   1  S   1.490686   0.648045   4.925507   0.660864   0.684809
    4  C   1  X   0.479908  -0.402744   0.084964  -0.303858   0.027823
    5  C   1  Y   0.196139  -0.189546  -0.247397   0.081164   0.510822
    6  C   1  Z  -0.047610   0.042692   0.023150   0.007003  -0.058840
    7  C   1  X  -0.162601  -0.683425  -2.210812  -0.887277   0.827578
    8  C   1  Y   0.384053   0.116450  -0.896891  -0.373863  -1.022652
    9  C   1  Z  -0.034648   0.023110   0.218764   0.089238   0.071213
   10  C   1 XX  -0.310785  -0.412160  -0.254114  -0.360952   0.859633
   11  C   1 YY   0.426481   0.280021   0.761918   0.384027  -0.581741
   12  C   1 ZZ  -0.115695   0.132139  -0.507803  -0.023075  -0.277892
   13  C   1 XY   0.282703  -0.329110   0.179759  -0.276702  -0.251615
   14  C   1 XZ  -0.020409   0.070509  -0.036288   0.051755  -0.041304
   15  C   1 YZ  -0.086530  -0.001299  -0.176858  -0.038322   0.053098
   16  C   2  S  -0.227353  -0.326748  -0.082130  -0.287136   0.101561
   17  C   2  S  -0.446149  -0.709076  -0.321197  -0.578468   0.137200
   18  C   2  S   1.488130   0.642508  -4.923493   0.661966  -0.687060
   19  C   2  X   0.485378  -0.408947  -0.076877  -0.301290  -0.043957
   20  C   2  Y  -0.186908   0.181578  -0.249146  -0.086299   0.510397
   21  C   2  Z  -0.004900   0.001382   0.032246   0.025718  -0.055000
   22  C   2  X  -0.149866  -0.677737   2.238128  -0.900237  -0.793511
   23  C   2  Y  -0.386987  -0.130501  -0.854500   0.356663  -1.038916
   24  C   2  Z   0.051308   0.050659  -0.023535   0.007981   0.158588
   25  C   2 XX  -0.294731  -0.429707   0.243087  -0.376320  -0.844380
   26  C   2 YY   0.416535   0.290568  -0.755045   0.393449   0.571928
   27  C   2 ZZ  -0.121803   0.139139   0.511958  -0.017129   0.272452
   28  C   2 XY  -0.306691   0.311104   0.219847   0.254043  -0.287901
   29  C   2 XZ   0.044820  -0.000058  -0.007891  -0.006784   0.101057
   30  C   2 YZ  -0.053847  -0.036699   0.154315  -0.067573  -0.023343
   31  C   3  S   0.227672   0.327164   0.082159  -0.286433   0.102107
   32  C   3  S   0.446590   0.709709   0.321371  -0.576938   0.138210
   33  C   3  S  -1.494192  -0.648767   4.926020   0.659845  -0.689783
   34  C   3  X   0.485980  -0.408514  -0.076948   0.300362   0.044021
   35  C   3  Y  -0.186843   0.180861  -0.248840   0.086596  -0.511629
   36  C   3  Z  -0.005482   0.001978   0.032007  -0.026148   0.055067
   37  C   3  X  -0.151390  -0.680484   2.237195   0.898829   0.793162
   38  C   3  Y  -0.386461  -0.130004  -0.855618  -0.355514   1.039127
   39  C   3  Z   0.051853   0.051863  -0.025532  -0.009025  -0.160388
   40  C   3 XX   0.294512   0.430280  -0.242153  -0.375885  -0.845893
   41  C   3 YY  -0.417092  -0.291873   0.754475   0.393324   0.573512
   42  C   3 ZZ   0.122580  -0.138407  -0.512321  -0.017439   0.272380
   43  C   3 XY   0.306631  -0.311561  -0.219967   0.253191  -0.287760
   44  C   3 XZ  -0.045192  -0.000553   0.006126  -0.006363   0.103050
   45  C   3 YZ   0.053693   0.037360  -0.154434  -0.068090  -0.022895
   46  C   4  S   0.227630   0.327329  -0.081895  -0.286832  -0.101550
   47  C   4  S   0.446724   0.710052  -0.320794  -0.577667  -0.137116
   48  C   4  S  -1.486505  -0.648213  -4.927888   0.662966   0.687657
   49  C   4  X   0.479632  -0.403072   0.084859   0.303109  -0.028091
   50  C   4  Y   0.196337  -0.188339  -0.247170  -0.081653  -0.512191
   51  C   4  Z  -0.048170   0.043179   0.023269  -0.007398   0.059105
   52  C   4  X  -0.161279  -0.684030  -2.210384   0.886737  -0.827402
   53  C   4  Y   0.384967   0.116544  -0.897798   0.375065   1.023435
   54  C   4  Z  -0.034339   0.024352   0.221075  -0.090435  -0.069484
   55  C   4 XX   0.310569   0.412494   0.253587  -0.360068   0.861092
   56  C   4 YY  -0.425937  -0.280877  -0.761627   0.383582  -0.582953
   57  C   4 ZZ   0.115368  -0.131617   0.508041  -0.023514  -0.278139
   58  C   4 XY  -0.283118   0.329013  -0.179237  -0.276408  -0.251804
   59  C   4 XZ   0.020091  -0.071469   0.038002   0.052166  -0.043391
   60  C   4 YZ   0.086895   0.000962   0.176824  -0.037813   0.053827
   61  C   5  S  -0.000056  -0.000513   0.431103   0.464445   0.000436
   62  C   5  S  -0.000065  -0.000938   0.771768   0.845363   0.000868
   63  C   5  S   0.001865   0.000596  -5.937044   0.276237   0.004711
   64  C   5  X   0.212259  -0.059944   0.001062  -0.007085  -0.441630
   65  C   5  Y   0.002017  -0.000904  -0.050111   0.425547  -0.003813
   66  C   5  Z  -0.011666   0.003327   0.005526  -0.048139   0.024224
   67  C   5  X  -1.739746  -1.433380  -0.027581  -0.034797   1.721925
   68  C   5  Y  -0.017248  -0.015545   1.648987   2.229615   0.016764
   69  C   5  Z   0.095666   0.079007  -0.186073  -0.250883  -0.094673
   70  C   5 XX   0.026454   0.011697  -0.604579  -0.442063  -0.022695
   71  C   5 YY  -0.015939  -0.007235   0.162980   0.440584   0.014057
   72  C   5 ZZ  -0.010516  -0.004462   0.441598   0.001479   0.008638
   73  C   5 XY  -0.958630  -0.394018  -0.007271  -0.012559   0.829065
   74  C   5 XZ   0.106687   0.043746   0.066325   0.028725  -0.092242
   75  C   5 YZ   0.053671   0.022192   0.037235  -0.057037  -0.046535
   76  C   6  S   0.000007  -0.000387  -0.431320   0.464499  -0.001666
   77  C   6  S  -0.000038  -0.000708  -0.772188   0.845375  -0.003144
   78  C   6  S  -0.000690   0.002477   5.935628   0.277240  -0.003828
   79  C   6  X   0.212448  -0.059819   0.000483   0.007018   0.441427
   80  C   6  Y   0.001878  -0.000373  -0.049853  -0.425984   0.005151
   81  C   6  Z  -0.011656   0.003271   0.005611   0.046733  -0.024359
   82  C   6  X  -1.736925  -1.431224  -0.026178   0.033301  -1.722196
   83  C   6  Y  -0.016697  -0.011059   1.651005  -2.231592  -0.011903
   84  C   6  Z   0.095491   0.078332  -0.181855   0.246531   0.094132
   85  C   6 XX  -0.026261  -0.009929   0.604709  -0.441913  -0.021938
   86  C   6 YY   0.015974   0.005982  -0.163295   0.440539   0.013036
   87  C   6 ZZ   0.010287   0.003947  -0.441414   0.001374   0.008902
   88  C   6 XY   0.958406   0.393619   0.006366  -0.012120   0.829234
   89  C   6 XZ  -0.105264  -0.043317  -0.066242   0.028708  -0.091246
   90  C   6 YZ  -0.053706  -0.021943  -0.037445  -0.056636  -0.046330
   91  O   7  S   0.000006  -0.000200   0.074520   0.437901  -0.001430
   92  O   7  S   0.000021  -0.000389   0.149208   0.882622  -0.002895
   93  O   7  S   0.000232   0.001821  -0.412001  -2.674700   0.007913
   94  O   7  S   0.000206   0.000685  -0.193141  -0.958521   0.002585
   95  O   7  X   0.028233  -0.023829  -0.000813  -0.000276   0.037169
   96  O   7  Y   0.000331  -0.000064   0.048690   0.019108   0.000071
   97  O   7  Z  -0.001560   0.001295  -0.005351  -0.002039  -0.002012
   98  O   7  X   0.706490   0.516833   0.004811   0.022399   0.546306
   99  O   7  Y   0.006905   0.005673  -0.303688  -1.380018   0.009752
  100  O   7  Z  -0.038857  -0.028450   0.032972   0.151006  -0.030512
  101  O   7  X   0.147867   0.018652   0.001839   0.004739   0.065872
  102  O   7  Y   0.001522   0.000392  -0.115969  -0.297899   0.001431
  103  O   7  Z  -0.008145  -0.001044   0.012558   0.032622  -0.003708
  104  O   7 XX   0.004322   0.003030   0.103498  -0.125474   0.005552
  105  O   7 YY  -0.002665  -0.001896  -0.013676   0.148929  -0.003665
  106  O   7 ZZ  -0.001657  -0.001133  -0.089822  -0.023455  -0.001887
  107  O   7 XY  -0.159596  -0.107368   0.000800  -0.004497  -0.193376
  108  O   7 XZ   0.017374   0.011659  -0.012217   0.006737   0.020911
  109  O   7 YZ   0.008950   0.006014  -0.009849  -0.021994   0.010903
  110  O   7 XX  -0.016578  -0.009833  -0.053596   0.326388  -0.014296
  111  O   7 YY   0.010191   0.006209   0.024447  -0.598858   0.010139
  112  O   7 ZZ   0.006387   0.003624   0.029150   0.272470   0.004157
  113  O   7 XY   0.609815   0.353529  -0.000894   0.017078   0.486764
  114  O   7 XZ  -0.066305  -0.038450   0.005275  -0.004598  -0.052931
  115  O   7 YZ  -0.034183  -0.019816   0.000090   0.111360  -0.027641
  116  O   8  S   0.000041  -0.000264  -0.074810   0.437710   0.000554
  117  O   8  S   0.000078  -0.000520  -0.149792   0.882233   0.001121
  118  O   8  S  -0.000281   0.001971   0.413864  -2.673188  -0.002858
  119  O   8  S  -0.000155   0.000558   0.193770  -0.957951  -0.000813
  120  O   8  X   0.028102  -0.023884  -0.000725   0.000276  -0.037146
  121  O   8  Y   0.000276  -0.000359   0.048664  -0.019102  -0.000512
  122  O   8  Z  -0.001543   0.001324  -0.005507   0.002215   0.002059
  123  O   8  X   0.707214   0.517490   0.005311  -0.022019  -0.546202
  124  O   8  Y   0.007029   0.004008  -0.304360   1.378966  -0.003420
  125  O   8  Z  -0.038886  -0.028359   0.034809  -0.156352   0.029818
  126  O   8  X   0.148074   0.018797   0.001922  -0.004770  -0.065871
  127  O   8  Y   0.001494   0.000040  -0.116070   0.297593  -0.000364
  128  O   8  Z  -0.008143  -0.001020   0.013306  -0.033722   0.003590
  129  O   8 XX  -0.004364  -0.002806  -0.103417  -0.125486   0.005248
  130  O   8 YY   0.002673   0.001666   0.013683   0.148750  -0.003063
  131  O   8 ZZ   0.001691   0.001140   0.089734  -0.023264  -0.002185
  132  O   8 XY   0.159628   0.107433  -0.000576  -0.004348  -0.193275
  133  O   8 XZ  -0.017942  -0.012108   0.012178   0.006733   0.021844
  134  O   8 YZ  -0.008949  -0.006020   0.010360  -0.022661   0.010805
  135  O   8 XX   0.016733   0.009407   0.053389   0.326282  -0.012936
  136  O   8 YY  -0.010224  -0.005437  -0.024321  -0.597946   0.007281
  137  O   8 ZZ  -0.006509  -0.003969  -0.029068   0.271664   0.005655
  138  O   8 XY  -0.609997  -0.353854   0.000372   0.016797   0.486553
  139  O   8 XZ   0.068592   0.039781  -0.005188  -0.004614  -0.054683
  140  O   8 YZ   0.034201   0.019788  -0.001288   0.115311  -0.027117
  141  H   9  S   0.322082  -0.724742  -0.259127   0.528294   0.439055
  142  H   9  S   0.251670  -0.382450   0.283585   0.450638   0.178610
  143  H   9  X   0.410237  -0.588539  -0.551333   0.233509   0.066052
  144  H   9  Y   0.095158   0.504442  -0.078704  -0.399350  -0.514085
  145  H   9  Z  -0.033188  -0.024593   0.038631   0.032186   0.054260
  146  H  10  S   0.321601  -0.724804   0.258876   0.527948  -0.439711
  147  H  10  S   0.251709  -0.382661  -0.283752   0.450766  -0.179332
  148  H  10  X   0.412494  -0.572768   0.553613   0.221198  -0.050043
  149  H  10  Y  -0.087702  -0.515450  -0.068540   0.402806  -0.515726
  150  H  10  Z  -0.012729   0.089128  -0.022219  -0.057276   0.060585
  151  H  11  S  -0.321545   0.724913  -0.258654   0.529078  -0.438841
  152  H  11  S  -0.251597   0.382417   0.283867   0.451084  -0.178824
  153  H  11  X   0.412596  -0.573374   0.553735  -0.221837   0.049804
  154  H  11  Y  -0.087573  -0.515010  -0.068878  -0.403781   0.514771
  155  H  11  Z  -0.012007   0.088408  -0.022002   0.057206  -0.060549
  156  H  12  S  -0.321448   0.725084   0.258255   0.529952   0.438484
  157  H  12  S  -0.251559   0.382177  -0.284126   0.451694   0.178244
  158  H  12  X   0.409710  -0.589545  -0.551086  -0.234953  -0.066059
  159  H  12  Y   0.095750   0.503989  -0.079517   0.399897   0.513205
  160  H  12  Z  -0.032494  -0.025198   0.038559  -0.032332  -0.054002

                    136        137        138        139        140
                    2.9495     2.9745     3.1490     3.1547     3.5737
                     A          A          A          A          A   
    1  C   1  S  -0.033167   0.436706  -0.048126  -0.062277  -0.000060
    2  C   1  S  -0.085961   0.696099  -0.073066  -0.203710  -0.000105
    3  C   1  S   1.215693 -10.415964   0.773920  -1.180708   0.000908
    4  C   1  X  -0.092099  -0.136544   0.356869  -0.329504  -0.000159
    5  C   1  Y  -0.260245  -0.206020   0.014682  -0.129874  -0.000321
    6  C   1  Z   0.034289   0.030524  -0.020487   0.032061  -0.002651
    7  C   1  X  -0.450984   3.353905  -0.370441   0.619785   0.001185
    8  C   1  Y  -0.922603   3.563848  -0.207217  -0.980174   0.004045
    9  C   1  Z   0.128405  -0.579666   0.043299   0.077610   0.031598
   10  C   1 XX  -0.258195  -0.699500   0.357288  -0.185551  -0.000762
   11  C   1 YY   0.198092   0.077928  -0.187927  -0.152881   0.005584
   12  C   1 ZZ   0.060103   0.621572  -0.169360   0.338432  -0.004823
   13  C   1 XY  -0.265127   0.547254   0.344843  -1.049205   0.000552
   14  C   1 XZ   0.049027   0.019907  -0.071737   0.151179  -0.008533
   15  C   1 YZ  -0.004158   0.041798  -0.016459   0.122292   0.027948
   16  C   2  S   0.032969  -0.436612  -0.047494   0.062793  -0.000010
   17  C   2  S   0.085577  -0.695976  -0.070895   0.204463  -0.000021
   18  C   2  S  -1.214655  10.413548   0.790305   1.171230  -0.000022
   19  C   2  X   0.100261   0.142898   0.360872   0.329430  -0.000183
   20  C   2  Y  -0.258491  -0.203005  -0.008971  -0.123311  -0.000297
   21  C   2  Z   0.023532   0.015035  -0.018066  -0.003694  -0.002711
   22  C   2  X   0.479087  -3.463775  -0.385028  -0.584257   0.001945
   23  C   2  Y  -0.913449   3.497652   0.189747  -0.994018   0.003525
   24  C   2  Z   0.076263  -0.207548  -0.000466   0.142229   0.031817
   25  C   2 XX   0.272210   0.669174   0.378091   0.238568  -0.000695
   26  C   2 YY  -0.206819  -0.059612  -0.197606   0.119979  -0.005507
   27  C   2 ZZ  -0.065391  -0.609561  -0.180485  -0.358547   0.006202
   28  C   2 XY  -0.252587   0.556463  -0.343510  -1.050469  -0.002352
   29  C   2 XZ   0.008275  -0.142090   0.003948   0.081464  -0.007344
   30  C   2 YZ   0.031643  -0.103339   0.020740  -0.005398  -0.028155
   31  C   3  S  -0.033278   0.436754  -0.047391   0.062697   0.000052
   32  C   3  S  -0.086030   0.696244  -0.070759   0.204249   0.000093
   33  C   3  S   1.216683 -10.417135   0.786190   1.170109  -0.000744
   34  C   3  X   0.100131   0.142867  -0.360620  -0.328953   0.000124
   35  C   3  Y  -0.256898  -0.202590   0.008878   0.123119   0.000322
   36  C   3  Z   0.023564   0.015101   0.018814   0.004136   0.002654
   37  C   3  X   0.476968  -3.465930   0.383732   0.584163  -0.002132
   38  C   3  Y  -0.916977   3.497707  -0.188468   0.994193  -0.004109
   39  C   3  Z   0.077795  -0.204812   0.000551  -0.144073  -0.031525
   40  C   3 XX  -0.269641  -0.668208   0.377870   0.238322  -0.000710
   41  C   3 YY   0.204805   0.058835  -0.197545   0.120148  -0.005614
   42  C   3 ZZ   0.064835   0.609373  -0.180325  -0.358470   0.006324
   43  C   3 XY   0.253889  -0.555586  -0.344007  -1.050678  -0.002396
   44  C   3 XZ  -0.007252   0.144054   0.004003   0.080654  -0.007283
   45  C   3 YZ  -0.033061   0.103693   0.021409  -0.004640  -0.027985
   46  C   4  S   0.033307  -0.436573  -0.048342  -0.062203   0.000018
   47  C   4  S   0.086109  -0.695883  -0.073457  -0.203518   0.000034
   48  C   4  S  -1.216691  10.417901   0.777699  -1.179651  -0.000144
   49  C   4  X  -0.092160  -0.136457  -0.356581   0.329278   0.000111
   50  C   4  Y  -0.258863  -0.205387  -0.014512   0.129559   0.000297
   51  C   4  Z   0.033956   0.030399   0.021245  -0.032559   0.002713
   52  C   4  X  -0.447809   3.354610   0.371966  -0.619627  -0.001564
   53  C   4  Y  -0.925636   3.562498   0.208779   0.980867  -0.003581
   54  C   4  Z   0.127619  -0.582344  -0.043392  -0.075917  -0.031818
   55  C   4 XX   0.255579   0.698367   0.357460  -0.185251  -0.000805
   56  C   4 YY  -0.196475  -0.077209  -0.188132  -0.152765   0.005482
   57  C   4 ZZ  -0.059104  -0.621158  -0.169328   0.338016  -0.004677
   58  C   4 XY   0.266088  -0.547155   0.344122  -1.049283   0.000620
   59  C   4 XZ  -0.050304  -0.022042  -0.071766   0.152091  -0.008567
   60  C   4 YZ   0.002409  -0.041611  -0.017047   0.123116   0.028098
   61  C   5  S   0.546992  -0.006420   0.430908  -0.002371   0.000001
   62  C   5  S   1.000370   0.155896   0.776925  -0.004243   0.000002
   63  C   5  S   2.357922   6.726357   0.675895  -0.002375  -0.000061
   64  C   5  X  -0.008060   0.004525  -0.007653  -0.378706  -0.000007
   65  C   5  Y   0.553440  -0.260875   0.343030  -0.005512   0.000000
   66  C   5  Z  -0.062680   0.029538  -0.038619   0.021029  -0.000002
   67  C   5  X  -0.045619   0.076218  -0.019048   1.456118  -0.001176
   68  C   5  Y   2.686834  -4.884257   1.736614   0.004450   0.000030
   69  C   5  Z  -0.302209   0.549136  -0.196587  -0.078940   0.000041
   70  C   5 XX  -0.153946   0.504061   0.487377  -0.004206  -0.000029
   71  C   5 YY   0.237269  -0.035850  -0.552327   0.004067  -0.000002
   72  C   5 ZZ  -0.083323  -0.468211   0.064949   0.000139   0.000031
   73  C   5 XY  -0.007948   0.002470   0.016497   0.055008   0.000005
   74  C   5 XZ   0.005052  -0.061294  -0.027730  -0.006329  -0.000296
   75  C   5 YZ  -0.041528  -0.058184   0.080756  -0.003565  -0.000002
   76  C   6  S  -0.546937   0.006059   0.431141  -0.002686  -0.000001
   77  C   6  S  -1.000200  -0.156554   0.777190  -0.004854  -0.000002
   78  C   6  S  -2.357827  -6.725946   0.673914  -0.003342   0.000060
   79  C   6  X  -0.009464   0.004053   0.007599   0.378702   0.000007
   80  C   6  Y   0.553428  -0.260539  -0.343321   0.005597   0.000001
   81  C   6  Z  -0.060664   0.028615   0.037626  -0.021031   0.000004
   82  C   6  X  -0.039695   0.078153   0.018822  -1.456314   0.000121
   83  C   6  Y   2.685929  -4.884126  -1.739242  -0.003975   0.000051
   84  C   6  Z  -0.296640   0.539999   0.191728   0.078956  -0.000023
   85  C   6 XX   0.153894  -0.503942   0.487039  -0.004258  -0.000033
   86  C   6 YY  -0.237050   0.035376  -0.552573   0.004101   0.000000
   87  C   6 ZZ   0.083156   0.468566   0.065533   0.000157   0.000033
   88  C   6 XY   0.005426  -0.003332   0.016442   0.055380  -0.000094
   89  C   6 XZ  -0.004773   0.061391  -0.027673  -0.005602  -0.000364
   90  C   6 YZ   0.041886   0.056576   0.079349  -0.003580  -0.000001
   91  O   7  S  -0.712940   0.094453   0.582398  -0.003381  -0.000002
   92  O   7  S  -1.446599   0.196128   1.200690  -0.006965  -0.000004
   93  O   7  S   3.934877  -1.056945  -2.343295   0.013599   0.000014
   94  O   7  S   1.315101  -0.497529  -0.810553   0.004685   0.000010
   95  O   7  X   0.002749   0.000833  -0.005946  -0.007026   0.000004
   96  O   7  Y  -0.178174  -0.053447   0.375591  -0.002246  -0.000001
   97  O   7  Z   0.019501   0.005923  -0.041248   0.000627   0.000000
   98  O   7  X  -0.033209  -0.004006   0.021192   0.097450  -0.000047
   99  O   7  Y   2.059450   0.234673  -1.305263   0.008584   0.000001
  100  O   7  Z  -0.225520  -0.026360   0.143569  -0.006216   0.000005
  101  O   7  X  -0.006653   0.002053   0.003807   0.011595  -0.000041
  102  O   7  Y   0.415968  -0.131569  -0.236233   0.001470   0.000003
  103  O   7  Z  -0.045515   0.014482   0.025904  -0.000791   0.000002
  104  O   7 XX   0.084438  -0.000973   0.037474  -0.002695   0.076534
  105  O   7 YY  -0.188877  -0.003202   0.073390   0.001109   0.001518
  106  O   7 ZZ   0.104439   0.004175  -0.110864   0.001587  -0.078051
  107  O   7 XY   0.005425   0.000176  -0.001266   0.091590   0.091155
  108  O   7 XZ   0.000871   0.000309  -0.009259  -0.009845   0.817316
  109  O   7 YZ   0.037663   0.001107  -0.024113  -0.004984   0.002934
  110  O   7 XX  -0.452268   0.010750   0.199711   0.000999  -0.038681
  111  O   7 YY   0.845865   0.188553  -0.513376   0.001685  -0.000769
  112  O   7 ZZ  -0.393596  -0.199303   0.313665  -0.002684   0.039450
  113  O   7 XY  -0.023985  -0.004999   0.013476  -0.081498  -0.046117
  114  O   7 XZ   0.005371  -0.012850   0.006254   0.008738  -0.413094
  115  O   7 YZ  -0.158498  -0.050167   0.106678   0.003916  -0.001480
  116  O   8  S   0.713233  -0.094825   0.582170  -0.003130   0.000001
  117  O   8  S   1.447202  -0.196880   1.200248  -0.006457   0.000002
  118  O   8  S  -3.936257   1.058706  -2.342022   0.012390  -0.000009
  119  O   8  S  -1.315595   0.498210  -0.810089   0.004272  -0.000007
  120  O   8  X   0.002872   0.000852   0.005971   0.007023  -0.000029
  121  O   8  Y  -0.178229  -0.053276  -0.375440   0.002130  -0.000001
  122  O   8  Z   0.020204   0.006009   0.042436  -0.000620   0.000001
  123  O   8  X  -0.031708  -0.003392  -0.021291  -0.097231   0.000189
  124  O   8  Y   2.059411   0.233324   1.304442  -0.007817   0.000001
  125  O   8  Z  -0.233417  -0.025950  -0.147174   0.006124  -0.000004
  126  O   8  X  -0.006470   0.002115  -0.003820  -0.011553  -0.000019
  127  O   8  Y   0.415957  -0.131796   0.236023  -0.001338   0.000002
  128  O   8  Z  -0.047181   0.014839  -0.026710   0.000774   0.000002
  129  O   8 XX  -0.084455   0.000999   0.037555  -0.002714   0.076302
  130  O   8 YY   0.188700   0.003170   0.073230   0.001147   0.001555
  131  O   8 ZZ  -0.104245  -0.004169  -0.110785   0.001568  -0.077856
  132  O   8 XY  -0.004853   0.000017  -0.001294   0.091599   0.093595
  133  O   8 XZ  -0.000920  -0.000328  -0.009258  -0.010295   0.815396
  134  O   8 YZ  -0.038783  -0.000801  -0.024252  -0.005009   0.002755
  135  O   8 XX   0.452441  -0.011027   0.199534   0.001197  -0.038564
  136  O   8 YY  -0.845073  -0.187695  -0.512668   0.001349  -0.000785
  137  O   8 ZZ   0.392632   0.198722   0.313134  -0.002546   0.039349
  138  O   8 XY   0.022661   0.004559   0.013562  -0.081624  -0.047334
  139  O   8 XZ  -0.005314   0.012880   0.006210   0.009224  -0.412114
  140  O   8 YZ   0.164137   0.051192   0.108982   0.003999  -0.001394
  141  H   9  S   0.352935   0.219748  -0.464392  -0.943593   0.000069
  142  H   9  S   0.394546  -0.846039   0.117019  -0.199876  -0.000084
  143  H   9  X   0.204219   0.164833  -0.295623  -0.748511   0.000603
  144  H   9  Y  -0.129878  -0.536589   0.248712   0.057593   0.001310
  145  H   9  Z   0.003656   0.051490  -0.011781   0.034477   0.011242
  146  H  10  S  -0.353125  -0.220052  -0.453872   0.949012   0.000048
  147  H  10  S  -0.394468   0.845785   0.119667   0.198616  -0.000056
  148  H  10  X  -0.200297  -0.147997  -0.279213   0.749872   0.000572
  149  H  10  Y  -0.133833  -0.539773  -0.253838   0.074564   0.001248
  150  H  10  Z   0.025764   0.068526   0.043819  -0.049429   0.011304
  151  H  11  S   0.354125   0.220426  -0.454373   0.949322  -0.000071
  152  H  11  S   0.395191  -0.846002   0.119136   0.198687   0.000110
  153  H  11  X  -0.200074  -0.148020   0.279560  -0.750092  -0.000606
  154  H  11  Y  -0.135329  -0.540332   0.253817  -0.074880  -0.001306
  155  H  11  Z   0.026027   0.068765  -0.043335   0.048148  -0.011249
  156  H  12  S  -0.354015  -0.220098  -0.464592  -0.944021  -0.000045
  157  H  12  S  -0.394871   0.845661   0.117319  -0.200026   0.000025
  158  H  12  X   0.204282   0.164637   0.295768   0.748866  -0.000647
  159  H  12  Y  -0.131340  -0.537237  -0.248880  -0.057482  -0.001242
  160  H  12  Z   0.003639   0.051397   0.012243  -0.033350  -0.011303

                    141        142        143        144        145
                    3.5923     3.6516     3.6599     3.6752     3.6789
                     A          A          A          A          A   
    1  C   1  S   0.000280   0.000195  -0.062991   0.079077  -0.000070
    2  C   1  S   0.000500   0.000276  -0.077944   0.138375   0.000182
    3  C   1  S  -0.004398  -0.002503   1.217793  -0.605510   0.002775
    4  C   1  X  -0.001659  -0.000382   0.129115   0.082758  -0.001319
    5  C   1  Y  -0.003228  -0.000158   0.087737  -0.042367  -0.003761
    6  C   1  Z  -0.028346   0.001355  -0.016295   0.000376  -0.036313
    7  C   1  X   0.005908   0.004911  -1.072345   0.228827  -0.011278
    8  C   1  Y   0.013095   0.005002   0.584161  -0.306537  -0.002053
    9  C   1  Z   0.097576   0.050676  -0.007644   0.022334  -0.089852
   10  C   1 XX  -0.001926  -0.007182   0.302651   0.041690   0.010104
   11  C   1 YY   0.011306  -0.003220  -0.110175  -0.102070   0.013980
   12  C   1 ZZ  -0.009380   0.010401  -0.192476   0.060380  -0.024084
   13  C   1 XY   0.000888  -0.010166   0.617501   0.085757   0.018097
   14  C   1 XZ  -0.019577  -0.068944  -0.101420  -0.008462   0.090676
   15  C   1 YZ   0.057710  -0.016750  -0.045460   0.016802   0.071159
   16  C   2  S  -0.000296  -0.000025   0.063101   0.079040   0.000000
   17  C   2  S  -0.000528   0.000000   0.078135   0.138358  -0.000305
   18  C   2  S   0.004674   0.001328  -1.218353  -0.604211  -0.002271
   19  C   2  X   0.001652   0.000145  -0.131631   0.081601   0.001223
   20  C   2  Y   0.003140   0.000089   0.085221   0.043807   0.004333
   21  C   2  Z   0.028355   0.001280  -0.002949  -0.009210   0.036246
   22  C   2  X  -0.006040   0.001514   1.053842   0.217870   0.010934
   23  C   2  Y  -0.009010   0.004260   0.605067   0.309819   0.017726
   24  C   2  Z  -0.097957   0.050919  -0.124779  -0.046201   0.088081
   25  C   2 XX   0.001761  -0.006038  -0.335995   0.046697  -0.010611
   26  C   2 YY   0.011438   0.002824   0.130293  -0.105111   0.014327
   27  C   2 ZZ  -0.013199   0.003214   0.205703   0.058414  -0.003716
   28  C   2 XY   0.005037  -0.007973   0.608791  -0.081267  -0.002847
   29  C   2 XZ   0.017033  -0.069824  -0.034449   0.009870  -0.094644
   30  C   2 YZ   0.057721   0.016454  -0.023815   0.025853   0.070766
   31  C   3  S  -0.000280   0.000193  -0.063089   0.079122  -0.000073
   32  C   3  S  -0.000499   0.000275  -0.078144   0.138455   0.000175
   33  C   3  S   0.004405  -0.002445   1.217094  -0.605478   0.002781
   34  C   3  X   0.001393   0.000524  -0.131541  -0.081330  -0.002589
   35  C   3  Y   0.003228  -0.000149   0.085268  -0.043953  -0.003778
   36  C   3  Z   0.028373   0.001301  -0.001995   0.009392  -0.036243
   37  C   3  X  -0.004564   0.000620   1.053261  -0.219153   0.001415
   38  C   3  Y  -0.013071   0.004950   0.604169  -0.310837  -0.001938
   39  C   3  Z  -0.097621   0.050904  -0.124428   0.046957  -0.090564
   40  C   3 XX  -0.001495   0.005762   0.336169   0.046165  -0.007073
   41  C   3 YY  -0.011382  -0.002907  -0.130637  -0.104807   0.013504
   42  C   3 ZZ   0.012876  -0.002855  -0.205532   0.058642  -0.006430
   43  C   3 XY  -0.005217   0.008382  -0.608875  -0.080197  -0.010558
   44  C   3 XZ  -0.017059   0.069802   0.035637   0.010040  -0.094177
   45  C   3 YZ  -0.057823  -0.016413   0.023297   0.026113   0.070921
   46  C   4  S   0.000297  -0.000025   0.063147   0.078998  -0.000001
   47  C   4  S   0.000528  -0.000002   0.078233   0.138281  -0.000309
   48  C   4  S  -0.004678   0.001279  -1.218571  -0.604004  -0.002326
   49  C   4  X  -0.001405   0.000007   0.128769  -0.082919   0.002691
   50  C   4  Y  -0.003136   0.000094   0.087706   0.042226   0.004357
   51  C   4  Z  -0.028370   0.001316  -0.017292  -0.000163   0.036192
   52  C   4  X   0.004548   0.003950  -1.072456  -0.227297  -0.001566
   53  C   4  Y   0.009000   0.004275   0.584366   0.305467   0.017628
   54  C   4  Z   0.098024   0.050827  -0.007880  -0.021725   0.088827
   55  C   4 XX   0.001669   0.006926  -0.302775   0.042250   0.006980
   56  C   4 YY  -0.011374   0.003113   0.110068  -0.102394   0.014540
   57  C   4 ZZ   0.009705  -0.010039   0.192707   0.060144  -0.021520
   58  C   4 XY  -0.001056   0.009743  -0.617547   0.086785   0.010317
   59  C   4 XZ   0.019610   0.069071   0.100327  -0.008390   0.091952
   60  C   4 YZ  -0.057596   0.016807   0.044905   0.016454   0.071819
   61  C   5  S   0.000002  -0.000667   0.303349  -0.082651   0.002249
   62  C   5  S   0.000004  -0.001241   0.566687  -0.137836   0.004160
   63  C   5  S  -0.000004   0.004385  -2.582292   1.362194  -0.018519
   64  C   5  X   0.000208   0.000804  -0.001491   0.000065  -0.001108
   65  C   5  Y   0.000002   0.001428   0.097017  -0.005250  -0.001929
   66  C   5  Z  -0.000014   0.014875  -0.010654   0.000581  -0.020497
   67  C   5  X   0.000562  -0.012563  -0.013463  -0.001105   0.015664
   68  C   5  Y   0.000006  -0.029165   0.812045   0.074805   0.036123
   69  C   5  Z  -0.000059  -0.233994  -0.094821  -0.008089   0.291237
   70  C   5 XX  -0.002876  -0.000990   0.303726   0.154153   0.001706
   71  C   5 YY  -0.000060   0.035545  -0.419959  -0.058626  -0.039074
   72  C   5 ZZ   0.002936  -0.034554   0.116233  -0.095526   0.037368
   73  C   5 XY  -0.003472   0.009103   0.012028   0.002091  -0.009615
   74  C   5 XZ  -0.030763  -0.003823  -0.012640  -0.015843   0.004044
   75  C   5 YZ  -0.000102   0.172992   0.072138  -0.005179  -0.183148
   76  C   6  S  -0.000001   0.000414  -0.303639  -0.082178  -0.002183
   77  C   6  S  -0.000001   0.000801  -0.567156  -0.136947  -0.004049
   78  C   6  S   0.000013  -0.003790   2.584476   1.358683   0.017277
   79  C   6  X  -0.000207   0.000804  -0.001471  -0.000088   0.001102
   80  C   6  Y  -0.000003   0.001527   0.096934   0.005071   0.002655
   81  C   6  Z   0.000001   0.014915  -0.010911  -0.000551   0.020473
   82  C   6  X  -0.000906  -0.012642  -0.012370   0.001396  -0.015793
   83  C   6  Y  -0.000005  -0.026034   0.813036  -0.075763  -0.028949
   84  C   6  Z   0.000061  -0.234315  -0.087207   0.008309  -0.292041
   85  C   6 XX   0.002879   0.000803  -0.303539   0.154705  -0.001337
   86  C   6 YY   0.000061  -0.034353   0.420832  -0.059324  -0.033220
   87  C   6 ZZ  -0.002940   0.033550  -0.117293  -0.095381   0.034557
   88  C   6 XY   0.003486  -0.009138  -0.011792   0.002172  -0.009779
   89  C   6 XZ   0.030771   0.003813   0.012518  -0.015884   0.004119
   90  C   6 YZ   0.000112  -0.173387  -0.068170  -0.005037  -0.184392
   91  O   7  S   0.000000   0.000098  -0.131962   0.085144  -0.000656
   92  O   7  S  -0.000001   0.000213  -0.274899   0.170370  -0.001385
   93  O   7  S  -0.000001   0.000599   0.081751  -0.522910  -0.000894
   94  O   7  S   0.000000  -0.000202   0.391983   0.078342   0.003063
   95  O   7  X  -0.000072  -0.000797   0.002747  -0.000240  -0.001199
   96  O   7  Y  -0.000001  -0.001391  -0.173957   0.015272  -0.003633
   97  O   7  Z   0.000004  -0.014722   0.019260  -0.001679  -0.022449
   98  O   7  X   0.000409   0.000033  -0.003021   0.002203   0.000956
   99  O   7  Y   0.000004   0.000021   0.190549  -0.140427   0.003170
  100  O   7  Z  -0.000023   0.000543  -0.021342   0.015359   0.017908
  101  O   7  X   0.000169   0.004889  -0.002393  -0.000991   0.005500
  102  O   7  Y   0.000001   0.009947   0.151429   0.064362   0.012671
  103  O   7  Z  -0.000011   0.090759  -0.017342  -0.007026   0.102317
  104  O   7 XX  -0.076485   0.002330  -0.651997  -0.717457  -0.004369
  105  O   7 YY  -0.001510  -0.160747   0.109892   0.016722  -0.160315
  106  O   7 ZZ   0.077995   0.158417   0.542105   0.700735   0.164684
  107  O   7 XY  -0.091067  -0.043633  -0.005157  -0.003361  -0.043721
  108  O   7 XZ  -0.816730   0.017967   0.075433   0.089440   0.018781
  109  O   7 YZ  -0.002904  -0.826618   0.062580   0.088798  -0.826759
  110  O   7 XX   0.039279  -0.001297   0.380446   0.411418   0.002703
  111  O   7 YY   0.000779   0.081780   0.051351   0.000831   0.085061
  112  O   7 ZZ  -0.040058  -0.080483  -0.431798  -0.412249  -0.087764
  113  O   7 XY   0.046957   0.022234   0.000111   0.001680   0.022971
  114  O   7 XZ   0.419461  -0.009139  -0.051081  -0.051926  -0.009978
  115  O   7 YZ   0.001482   0.421253  -0.066219  -0.053688   0.434485
  116  O   8  S   0.000002  -0.000432   0.131975   0.084905   0.000539
  117  O   8  S   0.000003  -0.000888   0.274930   0.169876   0.001150
  118  O   8  S  -0.000004   0.001071  -0.082335  -0.522696   0.001602
  119  O   8  S  -0.000003   0.001147  -0.391773   0.078967  -0.003049
  120  O   8  X   0.000063  -0.000797   0.002738   0.000238   0.001232
  121  O   8  Y  -0.000001  -0.001243  -0.173862  -0.014968   0.001463
  122  O   8  Z  -0.000004  -0.014727   0.019441   0.001716   0.022674
  123  O   8  X  -0.000343   0.000041  -0.002968  -0.002224  -0.000991
  124  O   8  Y   0.000000  -0.000704   0.190600   0.139990  -0.001066
  125  O   8  Z   0.000024   0.000685  -0.021132  -0.015919  -0.018190
  126  O   8  X  -0.000167   0.004895  -0.002351   0.001008  -0.005539
  127  O   8  Y   0.000000   0.009915   0.151451  -0.064579  -0.010298
  128  O   8  Z   0.000011   0.090761  -0.016092   0.007235  -0.102561
  129  O   8 XX   0.076551  -0.002303   0.650877  -0.718519   0.007602
  130  O   8 YY   0.001562   0.165070  -0.107545   0.017416  -0.165411
  131  O   8 ZZ  -0.078113  -0.162767  -0.543331   0.701103   0.157808
  132  O   8 XY   0.093935   0.043530   0.005669  -0.003274  -0.043538
  133  O   8 XZ   0.818065  -0.018204  -0.075540   0.089495   0.017593
  134  O   8 YZ   0.002774   0.825536  -0.049905   0.091331  -0.826919
  135  O   8 XX  -0.039321   0.001205  -0.379857   0.412039  -0.004436
  136  O   8 YY  -0.000801  -0.083821  -0.052355   0.000640   0.086207
  137  O   8 ZZ   0.040122   0.082616   0.432212  -0.412679  -0.081771
  138  O   8 XY  -0.048079  -0.022191  -0.000330   0.001606   0.022916
  139  O   8 XZ  -0.420176   0.009257   0.051114  -0.051971  -0.009151
  140  O   8 YZ  -0.001435  -0.420803   0.059987  -0.055158   0.435138
  141  H   9  S  -0.000160   0.001261  -0.531153   0.008321  -0.003489
  142  H   9  S   0.000197  -0.000418   0.128500  -0.039826   0.000390
  143  H   9  X   0.001231   0.001923  -0.367978  -0.014112  -0.004389
  144  H   9  Y   0.002930   0.001954   0.052281   0.094117  -0.004112
  145  H   9  Z   0.024088   0.019481   0.014585  -0.009823  -0.035598
  146  H  10  S   0.000171  -0.000758   0.531335   0.007418   0.003522
  147  H  10  S  -0.000198  -0.000081  -0.128565  -0.039662  -0.000405
  148  H  10  X  -0.001237   0.000560   0.366303  -0.011722   0.004435
  149  H  10  Y  -0.002496   0.002205   0.059040  -0.094497   0.004093
  150  H  10  Z  -0.024115   0.019554  -0.026951   0.011278   0.035614
  151  H  11  S   0.000148   0.001272  -0.531440   0.008284  -0.003501
  152  H  11  S  -0.000196  -0.000440   0.128553  -0.039822   0.000387
  153  H  11  X  -0.001354   0.000180   0.366458   0.011161   0.000546
  154  H  11  Y  -0.002930   0.001937   0.059287   0.094406  -0.004061
  155  H  11  Z  -0.024084   0.019603  -0.025746  -0.011213  -0.035890
  156  H  12  S  -0.000173  -0.000774   0.531369   0.007384   0.003488
  157  H  12  S   0.000198  -0.000051  -0.128588  -0.039722  -0.000402
  158  H  12  X   0.001364   0.001555  -0.368139   0.014730  -0.000559
  159  H  12  Y   0.002498   0.002207   0.051915  -0.094236   0.004033
  160  H  12  Z   0.024109   0.019494   0.013475   0.009817   0.035891

                    146        147        148        149        150
                    3.8443     3.8745     3.9359     3.9974     4.0748
                     A          A          A          A          A   
    1  C   1  S   0.081994   0.131223  -0.004740   0.038230   0.072425
    2  C   1  S   0.145423   0.263777   0.011834   0.072381   0.118763
    3  C   1  S  -1.705733  -0.058646   0.615897  -0.176155  -0.581104
    4  C   1  X  -0.176518  -0.092402  -0.077089   0.043852  -0.136786
    5  C   1  Y  -0.199835   0.014065   0.251937  -0.039985  -0.121233
    6  C   1  Z   0.031830   0.003396  -0.024274   0.002168   0.020835
    7  C   1  X   0.142137  -0.003030   0.079051   0.341672  -0.158746
    8  C   1  Y   0.910321  -0.075572  -0.286400   0.227924   0.082382
    9  C   1  Z  -0.110330   0.008731   0.028139  -0.043975  -0.000667
   10  C   1 XX  -0.412228   0.170222   0.324988   0.056297  -0.338165
   11  C   1 YY   0.341920  -0.190165  -0.293676  -0.055224   0.224800
   12  C   1 ZZ   0.070308   0.019943  -0.031312  -0.001073   0.113365
   13  C   1 XY  -0.842497   0.003368   0.137860   0.054729  -0.669052
   14  C   1 XZ   0.124883  -0.009499  -0.037426  -0.009704   0.103608
   15  C   1 YZ   0.010044   0.027529   0.027199   0.004076   0.021867
   16  C   2  S  -0.081864   0.131192   0.004808   0.038388  -0.072377
   17  C   2  S  -0.145174   0.263728  -0.011715   0.072625  -0.118686
   18  C   2  S   1.705442  -0.059503  -0.615660  -0.178385   0.580910
   19  C   2  X   0.182621  -0.091949   0.069094   0.042374   0.140499
   20  C   2  Y  -0.196422  -0.015719   0.253356   0.041139  -0.118580
   21  C   2  Z   0.012301   0.006715  -0.032056  -0.006866   0.005872
   22  C   2  X  -0.170405  -0.005377  -0.070201   0.349024   0.156408
   23  C   2  Y   0.907151   0.075047  -0.287765  -0.221915   0.085202
   24  C   2  Z  -0.092306  -0.008046   0.035885   0.006111  -0.018067
   25  C   2 XX   0.457605   0.169877  -0.331940   0.058313   0.374101
   26  C   2 YY  -0.370050  -0.189931   0.298073  -0.056389  -0.246988
   27  C   2 ZZ  -0.087555   0.020054   0.033867  -0.001924  -0.127112
   28  C   2 XY  -0.820868   0.008111   0.120150  -0.050186  -0.654168
   29  C   2 XZ   0.059141  -0.010042   0.008897   0.001951   0.042783
   30  C   2 YZ   0.081293   0.026887  -0.040727   0.009902   0.051099
   31  C   3  S   0.082106  -0.131216   0.004823   0.038254   0.072574
   32  C   3  S   0.145616  -0.263757  -0.011683   0.072402   0.119060
   33  C   3  S  -1.706787   0.059454  -0.615332  -0.176415  -0.581004
   34  C   3  X   0.182393  -0.092052  -0.069284  -0.042591   0.140392
   35  C   3  Y  -0.196679  -0.015721  -0.253237  -0.040966  -0.118580
   36  C   3  Z   0.012160   0.006732   0.032313   0.006935   0.005617
   37  C   3  X  -0.170790  -0.005408   0.070163  -0.348691   0.155971
   38  C   3  Y   0.907932   0.074933   0.287429   0.221422   0.085370
   39  C   3  Z  -0.093205  -0.008205  -0.036292  -0.006060  -0.017955
   40  C   3 XX  -0.457752  -0.169762  -0.331619   0.058952  -0.374008
   41  C   3 YY   0.369877   0.189807   0.297663  -0.056819   0.246666
   42  C   3 ZZ   0.087875  -0.020046   0.033956  -0.002133   0.127341
   43  C   3 XY   0.820984  -0.008053   0.119663  -0.051341   0.654205
   44  C   3 XZ  -0.058746   0.010172   0.009253   0.002022  -0.042665
   45  C   3 YZ  -0.083215  -0.027236  -0.041594   0.010009  -0.052271
   46  C   4  S  -0.082071  -0.131231  -0.004747   0.038378  -0.072418
   47  C   4  S  -0.145556  -0.263788   0.011828   0.072633  -0.118752
   48  C   4  S   1.706890   0.058782   0.615271  -0.178166   0.580621
   49  C   4  X  -0.176300  -0.092507   0.077269  -0.043564  -0.136614
   50  C   4  Y  -0.199987   0.014114  -0.251898   0.040203  -0.121110
   51  C   4  Z   0.032079   0.003402   0.024015  -0.002129   0.021113
   52  C   4  X   0.142017  -0.002997  -0.079118  -0.341935  -0.158998
   53  C   4  Y   0.910856  -0.075544   0.286235  -0.228577   0.082149
   54  C   4  Z  -0.109561   0.008553  -0.027658   0.044112  -0.000711
   55  C   4 XX   0.412535  -0.170162   0.324688   0.055784   0.338184
   56  C   4 YY  -0.342682   0.190204  -0.293625  -0.054890  -0.225123
   57  C   4 ZZ  -0.069853  -0.020042  -0.031063  -0.000894  -0.113061
   58  C   4 XY   0.842539  -0.003128   0.137216   0.053536   0.669000
   59  C   4 XZ  -0.125312   0.009618  -0.037658  -0.009548  -0.103745
   60  C   4 YZ  -0.011916  -0.027198   0.026283   0.004112  -0.023056
   61  C   5  S  -0.200437   0.000029   0.000072  -0.121247   0.029810
   62  C   5  S  -0.445204   0.000075   0.000198  -0.347763   0.154742
   63  C   5  S  -0.906229   0.000397   0.000588  -0.728724   0.879598
   64  C   5  X   0.003507  -0.031499  -0.031269   0.008418  -0.007723
   65  C   5  Y  -0.225939  -0.000196  -0.000004  -0.532217   0.485895
   66  C   5  Z   0.025453   0.001720   0.001685   0.060156  -0.055005
   67  C   5  X   0.027802  -0.237618  -0.238312   0.022305  -0.013654
   68  C   5  Y  -1.765927  -0.001625  -0.001312  -1.410177   0.864618
   69  C   5  Z   0.198402   0.012987   0.012984   0.158993  -0.097450
   70  C   5 XX  -0.541092  -0.012102  -0.013638   0.306230  -0.691198
   71  C   5 YY   0.428035   0.007337   0.008358  -0.513887   0.872840
   72  C   5 ZZ   0.113057   0.004764   0.005280   0.207657  -0.181641
   73  C   5 XY  -0.012777   0.446671   0.501114   0.014496  -0.025186
   74  C   5 XZ   0.042009  -0.049926  -0.056041  -0.007217   0.033807
   75  C   5 YZ  -0.040090  -0.025029  -0.028106   0.095131  -0.138404
   76  C   6  S   0.200587  -0.000049  -0.000049  -0.121576  -0.030033
   77  C   6  S   0.445385  -0.000102  -0.000121  -0.348320  -0.155272
   78  C   6  S   0.906254  -0.000153  -0.000460  -0.728238  -0.880479
   79  C   6  X   0.003412  -0.031482   0.031186  -0.008369  -0.007770
   80  C   6  Y  -0.225801  -0.000175   0.000282   0.532363   0.486817
   81  C   6  Z   0.024886   0.001715  -0.001711  -0.058487  -0.053393
   82  C   6  X   0.027838  -0.237429   0.238042  -0.022117  -0.013767
   83  C   6  Y  -1.765603  -0.001827   0.002585   1.411211   0.866249
   84  C   6  Z   0.195317   0.012998  -0.013123  -0.155472  -0.095445
   85  C   6 XX   0.541282   0.012084  -0.013769   0.305260   0.691412
   86  C   6 YY  -0.428286  -0.007374   0.008421  -0.513267  -0.873842
   87  C   6 ZZ  -0.112996  -0.004711   0.005348   0.208006   0.182430
   88  C   6 XY   0.013069  -0.446919   0.501327   0.014440   0.024933
   89  C   6 XZ  -0.042062   0.048910  -0.054836  -0.007122  -0.033735
   90  C   6 YZ   0.040856   0.025029  -0.028084   0.092669   0.135679
   91  O   7  S   0.376413  -0.000105  -0.000062  -0.201617  -0.068928
   92  O   7  S   0.750040  -0.000210  -0.000121  -0.368905  -0.099509
   93  O   7  S  -1.869443   0.000499   0.000401   1.874645   1.466998
   94  O   7  S  -0.470925   0.000086   0.000163   0.405524   0.284272
   95  O   7  X  -0.002505  -0.066920   0.080810  -0.002394  -0.004191
   96  O   7  Y   0.159448  -0.000695   0.000777   0.153386   0.265133
   97  O   7  Z  -0.017378   0.003684  -0.004442  -0.016872  -0.029142
   98  O   7  X   0.011685  -0.028798   0.026029  -0.013354  -0.010920
   99  O   7  Y  -0.743166  -0.000087   0.000439   0.849971   0.696075
  100  O   7  Z   0.081623   0.001561  -0.001447  -0.093273  -0.076213
  101  O   7  X   0.001108   0.156126  -0.175521   0.000085   0.000532
  102  O   7  Y  -0.072293   0.001501  -0.001645  -0.007266  -0.031634
  103  O   7  Z   0.007643  -0.008581   0.009643   0.000869   0.003566
  104  O   7 XX  -0.211271   0.023070  -0.022750  -0.436981  -0.502688
  105  O   7 YY  -0.346951  -0.014084   0.014110   0.883622   0.806156
  106  O   7 ZZ   0.558222  -0.008986   0.008640  -0.446641  -0.303468
  107  O   7 XY   0.008074  -0.847364   0.836389  -0.023999  -0.022565
  108  O   7 XZ   0.047831   0.092354  -0.091133   0.001040   0.014090
  109  O   7 YZ   0.118811   0.047456  -0.046898  -0.170937  -0.142243
  110  O   7 XX   0.206755  -0.011272   0.010918   0.104645   0.150809
  111  O   7 YY   0.033631   0.006895  -0.006749  -0.254090  -0.248188
  112  O   7 ZZ  -0.240386   0.004377  -0.004169   0.149445   0.097379
  113  O   7 XY  -0.000093   0.413326  -0.402404   0.006808   0.006971
  114  O   7 XZ  -0.028110  -0.045077   0.043857   0.002351  -0.003845
  115  O   7 YZ  -0.036480  -0.023153   0.022560   0.052010   0.044574
  116  O   8  S  -0.376346   0.000120   0.000183  -0.201429   0.068798
  117  O   8  S  -0.749902   0.000237   0.000352  -0.368503   0.099278
  118  O   8  S   1.869756  -0.000677  -0.001191   1.874336  -1.465030
  119  O   8  S   0.470970  -0.000152  -0.000268   0.405246  -0.283756
  120  O   8  X  -0.002563  -0.066903  -0.080795   0.002413  -0.004168
  121  O   8  Y   0.159213  -0.000676  -0.000773  -0.153607   0.264810
  122  O   8  Z  -0.018108   0.003681   0.004440   0.017346  -0.029913
  123  O   8  X   0.011766  -0.028674  -0.025911   0.013426  -0.010983
  124  O   8  Y  -0.742985  -0.000042   0.000246  -0.849584   0.694923
  125  O   8  Z   0.083970   0.001549   0.001370   0.096117  -0.078780
  126  O   8  X   0.001265   0.156132   0.175525  -0.000081   0.000463
  127  O   8  Y  -0.072195   0.001516   0.001698   0.007413  -0.031688
  128  O   8  Z   0.008413  -0.008584  -0.009648  -0.000780   0.003495
  129  O   8 XX   0.211077  -0.023288  -0.022814  -0.437425   0.502286
  130  O   8 YY   0.347419   0.013966   0.013481   0.883204  -0.804575
  131  O   8 ZZ  -0.558495   0.009322   0.009333  -0.445779   0.302289
  132  O   8 XY  -0.007518   0.847052   0.836085  -0.024143   0.022370
  133  O   8 XZ  -0.047894  -0.095035  -0.093832   0.001155  -0.014131
  134  O   8 YZ  -0.119015  -0.047440  -0.046766  -0.175652   0.146161
  135  O   8 XX  -0.206660   0.011394   0.011037   0.104867  -0.150721
  136  O   8 YY  -0.034034  -0.006835  -0.006566  -0.254152   0.247836
  137  O   8 ZZ   0.240694  -0.004559  -0.004471   0.149284  -0.097115
  138  O   8 XY  -0.000220  -0.413279  -0.402347   0.006844  -0.006850
  139  O   8 XZ   0.028160   0.046343   0.045149   0.002318   0.003844
  140  O   8 YZ   0.036074   0.023147   0.022516   0.053263  -0.045308
  141  H   9  S   0.620476   0.023935   0.201810  -0.101106   0.534559
  142  H   9  S  -0.122397   0.015976   0.080640  -0.182141   0.111848
  143  H   9  X   0.345986  -0.004775   0.069759  -0.012376   0.262640
  144  H   9  Y  -0.204109  -0.099516  -0.154916   0.056060  -0.160764
  145  H   9  Z   0.004163   0.011485   0.013656  -0.005570   0.003659
  146  H  10  S  -0.620713   0.024188  -0.201867  -0.100382  -0.534752
  147  H  10  S   0.122331   0.015927  -0.080578  -0.182248  -0.112013
  148  H  10  X  -0.339554  -0.007788  -0.064910  -0.010184  -0.257541
  149  H  10  Y  -0.210638   0.099546  -0.156230  -0.056104  -0.165755
  150  H  10  Z   0.042100  -0.010718   0.021043   0.006925   0.032772
  151  H  11  S   0.620632  -0.024333  -0.202331  -0.101281   0.534858
  152  H  11  S  -0.122445  -0.015926  -0.080529  -0.182218   0.111930
  153  H  11  X  -0.339566  -0.007710   0.065147   0.010674  -0.257627
  154  H  11  Y  -0.210500   0.099591   0.156358   0.056377  -0.165805
  155  H  11  Z   0.041785  -0.010819  -0.021075  -0.006842   0.032225
  156  H  12  S  -0.620626  -0.024020   0.202296  -0.100232  -0.534785
  157  H  12  S   0.122277  -0.015972   0.080606  -0.182237  -0.112096
  158  H  12  X   0.346037  -0.004750  -0.070018   0.011907   0.262705
  159  H  12  Y  -0.203926  -0.099622   0.155027  -0.055786  -0.160714
  160  H  12  Z   0.004341   0.011398  -0.013617   0.005687   0.004115

 WARNING! THIS VERSION OF FIREFLY IS PROBABLY OUTDATED!
 PLEASE CHECK FIREFLY HOMEPAGE FOR INFORMATION ON UPDATES!

 ...... END OF RHF CALCULATION ......

                         TIMING STATISTICS ON RANK 0:
 CPU        TIME:   STEP =      8.73 ,  TOTAL =        8.9 SECONDS (    0.1 MIN)
 WALL CLOCK TIME:   STEP =      8.45 ,  TOTAL =        8.6 SECONDS (    0.1 MIN)
 CPU UTILIZATION:   STEP =    103.30%,  TOTAL =     103.70%


                         ------------------------------
                         properties for the RHF density
                         ------------------------------

          -----------------
          ENERGY COMPONENTS
          -----------------

         WAVEFUNCTION NORMALIZATION =       1.0000000000

                ONE ELECTRON ENERGY =   -1156.4752884578
                TWO ELECTRON ENERGY =     453.9381719436
           NUCLEAR REPULSION ENERGY =     323.2628512003
                                      ------------------
                       TOTAL ENERGY =    -379.2742653140

 ELECTRON-ELECTRON POTENTIAL ENERGY =     453.9381719436
  NUCLEUS-ELECTRON POTENTIAL ENERGY =   -1535.3040942051
   NUCLEUS-NUCLEUS POTENTIAL ENERGY =     323.2628512003
                                      ------------------
             TOTAL POTENTIAL ENERGY =    -758.1030710612
               TOTAL KINETIC ENERGY =     378.8288057473
                 VIRIAL RATIO (V/T) =       2.0011758862

          ---------------------------------------
          MULLIKEN AND LOWDIN POPULATION ANALYSES
          ---------------------------------------

     MULLIKEN ATOMIC POPULATION IN EACH MOLECULAR ORBITAL

                      1          2          3          4          5

                  2.000000   2.000000   2.000000   2.000000   2.000000

    1            -0.000002  -0.000006   0.000022   0.000131   0.336863
    2            -0.000007   0.000000   0.000061   0.000091   0.349656
    3            -0.000002  -0.000006   0.000022   0.000131   0.668222
    4            -0.000007   0.000000   0.000061   0.000091   0.644109
    5             0.000016   0.001526   0.241830   1.758872   0.000497
    6             0.001546  -0.000004   1.759083   0.241621   0.000490
    7             1.990767   0.007689  -0.000903  -0.000089   0.000010
    8             0.007673   1.990784  -0.000150  -0.000841   0.000011
    9             0.000000   0.000008  -0.000003  -0.000006   0.000037
   10             0.000008   0.000000  -0.000010   0.000002   0.000039
   11             0.000000   0.000008  -0.000003  -0.000006   0.000033
   12             0.000008   0.000000  -0.000010   0.000002   0.000032

                      6          7          8          9         10

                  2.000000   2.000000   2.000000   2.000000   2.000000

    1             0.643474   0.271139   0.747266   0.012508   0.009166
    2             0.668544   0.260866   0.719676   0.012864   0.008769
    3             0.349570   0.719802   0.261148   0.012509   0.009164
    4             0.336635   0.747185   0.270812   0.012865   0.008769
    5             0.000627   0.000606   0.000604   0.277882   0.270037
    6             0.000634   0.000617   0.000592   0.296704   0.251345
    7             0.000293  -0.000006   0.000127   0.712186   0.697678
    8             0.000291  -0.000008   0.000129   0.664100   0.745819
    9            -0.000021  -0.000082  -0.000056  -0.000394  -0.000196
   10            -0.000020  -0.000084  -0.000057  -0.000416  -0.000178
   11            -0.000014  -0.000018  -0.000123  -0.000394  -0.000196
   12            -0.000015  -0.000018  -0.000120  -0.000415  -0.000177

                     11         12         13         14         15

                  2.000000   2.000000   2.000000   2.000000   2.000000

    1             0.358403   0.402780   0.226357   0.275432   0.258879
    2             0.358363   0.402617   0.226494   0.275467   0.258863
    3             0.358773   0.402270   0.226574   0.275333   0.258949
    4             0.358808   0.402391   0.226515   0.275308   0.258987
    5             0.187891   0.089695   0.358874   0.204707   0.238786
    6             0.187828   0.089643   0.358875   0.204687   0.238844
    7             0.049260   0.006496   0.127678   0.067607   0.123146
    8             0.049323   0.006495   0.127714   0.067580   0.123082
    9             0.022841   0.049351   0.030253   0.088493   0.060007
   10             0.022854   0.049392   0.030216   0.088374   0.060193
   11             0.022830   0.049448   0.030190   0.088426   0.060222
   12             0.022826   0.049421   0.030261   0.088585   0.060042

                     16         17         18         19         20

                  2.000000   2.000000   2.000000   2.000000   2.000000

    1             0.238623   0.157618   0.119174   0.315014   0.132329
    2             0.238668   0.157522   0.119425   0.314276   0.132895
    3             0.239053   0.157309   0.119161   0.314280   0.132902
    4             0.239033   0.157170   0.119346   0.314957   0.132061
    5             0.290859   0.113898   0.100038   0.029644   0.229010
    6             0.290897   0.114059   0.099880   0.029636   0.229302
    7             0.228939   0.429760   0.429650   0.000653   0.312171
    8             0.228746   0.428781   0.430240   0.000655   0.311685
    9             0.001294   0.071059   0.115642   0.169959   0.097209
   10             0.001295   0.070899   0.115829   0.170492   0.096510
   11             0.001297   0.071025   0.115689   0.170511   0.096798
   12             0.001297   0.070900   0.115926   0.169924   0.097127

                     21         22         23         24         25

                  2.000000   2.000000   2.000000   2.000000   2.000000

    1             0.221772   0.166111   0.136374   0.017650   0.106450
    2             0.222041   0.166219   0.136083   0.017470   0.106518
    3             0.221941   0.166212   0.136351   0.017608   0.106419
    4             0.221782   0.166226   0.136540   0.017515   0.106395
    5             0.161257   0.296068   0.112385   0.337409   0.061386
    6             0.161052   0.296526   0.112311   0.336818   0.061401
    7             0.297090   0.349431   0.362657   0.627268   0.722505
    8             0.297639   0.348780   0.362513   0.627893   0.723025
    9             0.049059   0.011189   0.125985   0.000092   0.001473
   10             0.048667   0.011031   0.126609   0.000092   0.001474
   11             0.048564   0.011014   0.126400   0.000093   0.001481
   12             0.049136   0.011194   0.125792   0.000092   0.001473

                     26         27         28

                  2.000000   2.000000   2.000000

    1             0.129476   0.015611   0.772973
    2             0.129629   0.015599   0.772993
    3             0.129526   0.778432   0.010032
    4             0.129544   0.778533   0.010025
    5             0.119732   0.016787   0.017145
    6             0.119794   0.016787   0.017116
    7             0.540035   0.184835   0.195454
    8             0.539932   0.184824   0.195833
    9             0.040578   0.004143   0.000110
   10             0.040608   0.004145   0.000110
   11             0.040580   0.000152   0.004104
   12             0.040567   0.000152   0.004104

               ----- POPULATIONS IN EACH AO -----
                             MULLIKEN      LOWDIN
              1  C   1  S     2.00459     1.86846
              2  C   1  S     0.66691     0.48574
              3  C   1  S     0.49927     0.26355
              4  C   1  X     0.71130     0.62060
              5  C   1  Y     0.77128     0.68263
              6  C   1  Z     0.51409     0.46303
              7  C   1  X     0.23260     0.33874
              8  C   1  Y     0.17239     0.29083
              9  C   1  Z     0.42417     0.43340
             10  C   1 XX     0.01154     0.17616
             11  C   1 YY     0.01135     0.18464
             12  C   1 ZZ     0.00310     0.08983
             13  C   1 XY     0.03024     0.07549
             14  C   1 XZ     0.00368     0.00758
             15  C   1 YZ     0.01508     0.02806
             16  C   2  S     2.00459     1.86843
             17  C   2  S     0.66692     0.48566
             18  C   2  S     0.49937     0.26355
             19  C   2  X     0.71164     0.62087
             20  C   2  Y     0.77105     0.68219
             21  C   2  Z     0.51384     0.46289
             22  C   2  X     0.23229     0.34104
             23  C   2  Y     0.17267     0.28946
             24  C   2  Z     0.42430     0.43264
             25  C   2 XX     0.01135     0.17627
             26  C   2 YY     0.01135     0.18450
             27  C   2 ZZ     0.00301     0.08987
             28  C   2 XY     0.03027     0.07542
             29  C   2 XZ     0.00385     0.00734
             30  C   2 YZ     0.01516     0.02810
             31  C   3  S     2.00459     1.86843
             32  C   3  S     0.66692     0.48565
             33  C   3  S     0.49939     0.26355
             34  C   3  X     0.71159     0.62083
             35  C   3  Y     0.77107     0.68220
             36  C   3  Z     0.51393     0.46296
             37  C   3  X     0.23234     0.34106
             38  C   3  Y     0.17264     0.28948
             39  C   3  Z     0.42423     0.43258
             40  C   3 XX     0.01135     0.17625
             41  C   3 YY     0.01135     0.18451
             42  C   3 ZZ     0.00301     0.08988
             43  C   3 XY     0.03027     0.07543
             44  C   3 XZ     0.00385     0.00735
             45  C   3 YZ     0.01516     0.02811
             46  C   4  S     2.00459     1.86846
             47  C   4  S     0.66691     0.48574
             48  C   4  S     0.49928     0.26355
             49  C   4  X     0.71125     0.62055
             50  C   4  Y     0.77132     0.68266
             51  C   4  Z     0.51413     0.46306
             52  C   4  X     0.23269     0.33877
             53  C   4  Y     0.17237     0.29080
             54  C   4  Z     0.42411     0.43339
             55  C   4 XX     0.01154     0.17612
             56  C   4 YY     0.01135     0.18466
             57  C   4 ZZ     0.00310     0.08984
             58  C   4 XY     0.03025     0.07550
             59  C   4 XZ     0.00368     0.00759
             60  C   4 YZ     0.01509     0.02807
             61  C   5  S     2.00525     1.82313
             62  C   5  S     0.69744     0.48304
             63  C   5  S     0.39067     0.22023
             64  C   5  X     0.73823     0.61440
             65  C   5  Y     0.74502     0.65620
             66  C   5  Z     0.42734     0.36447
             67  C   5  X     0.08178     0.27560
             68  C   5  Y     0.01012     0.22190
             69  C   5  Z     0.23189     0.27382
             70  C   5 XX     0.02086     0.16668
             71  C   5 YY     0.02779     0.20137
             72  C   5 ZZ     0.00612     0.07315
             73  C   5 XY     0.08784     0.19861
             74  C   5 XZ     0.01180     0.02632
             75  C   5 YZ     0.03591     0.07161
             76  C   6  S     2.00525     1.82313
             77  C   6  S     0.69744     0.48304
             78  C   6  S     0.39071     0.22023
             79  C   6  X     0.73818     0.61435
             80  C   6  Y     0.74528     0.65643
             81  C   6  Z     0.42716     0.36429
             82  C   6  X     0.08177     0.27560
             83  C   6  Y     0.00993     0.22188
             84  C   6  Z     0.23202     0.27381
             85  C   6 XX     0.02085     0.16665
             86  C   6 YY     0.02778     0.20146
             87  C   6 ZZ     0.00609     0.07303
             88  C   6 XY     0.08792     0.19879
             89  C   6 XZ     0.01174     0.02619
             90  C   6 YZ     0.03595     0.07167
             91  O   7  S     2.00326     1.87425
             92  O   7  S     0.84931     0.64170
             93  O   7  S     0.96484     0.41772
             94  O   7  S     0.04357     0.11209
             95  O   7  X     1.13210     1.08410
             96  O   7  Y     0.89337     0.83818
             97  O   7  Z     0.73621     0.69008
             98  O   7  X     0.74112     0.65165
             99  O   7  Y     0.41078     0.52500
            100  O   7  Z     0.58216     0.56798
            101  O   7  X     0.04279     0.09232
            102  O   7  Y    -0.01379     0.07971
            103  O   7  Z     0.03229     0.08689
            104  O   7 XX     0.00174     0.17720
            105  O   7 YY     0.00640     0.19763
            106  O   7 ZZ     0.00154     0.17636
            107  O   7 XY     0.00330     0.00368
            108  O   7 XZ     0.00006     0.00005
            109  O   7 YZ     0.00597     0.00538
            110  O   7 XX     0.00070     0.05462
            111  O   7 YY     0.00144     0.12325
            112  O   7 ZZ     0.00036     0.05113
            113  O   7 XY     0.00768     0.06767
            114  O   7 XZ    -0.00020     0.00151
            115  O   7 YZ     0.01538     0.03443
            116  O   8  S     2.00326     1.87425
            117  O   8  S     0.84932     0.64171
            118  O   8  S     0.96489     0.41773
            119  O   8  S     0.04358     0.11209
            120  O   8  X     1.13211     1.08413
            121  O   8  Y     0.89318     0.83799
            122  O   8  Z     0.73631     0.69020
            123  O   8  X     0.74115     0.65169
            124  O   8  Y     0.41097     0.52504
            125  O   8  Z     0.58207     0.56800
            126  O   8  X     0.04280     0.09233
            127  O   8  Y    -0.01375     0.07972
            128  O   8  Z     0.03228     0.08691
            129  O   8 XX     0.00174     0.17721
            130  O   8 YY     0.00639     0.19759
            131  O   8 ZZ     0.00154     0.17638
            132  O   8 XY     0.00330     0.00368
            133  O   8 XZ     0.00006     0.00005
            134  O   8 YZ     0.00597     0.00539
            135  O   8 XX     0.00070     0.05462
            136  O   8 YY     0.00147     0.12317
            137  O   8 ZZ     0.00038     0.05116
            138  O   8 XY     0.00768     0.06762
            139  O   8 XZ    -0.00020     0.00155
            140  O   8 YZ     0.01534     0.03447
            141  H   9  S     0.74692     0.58286
            142  H   9  S     0.15868     0.22369
            143  H   9  X     0.01891     0.03692
            144  H   9  Y     0.00852     0.01984
            145  H   9  Z     0.00499     0.01584
            146  H  10  S     0.74697     0.58248
            147  H  10  S     0.15868     0.22365
            148  H  10  X     0.01836     0.03607
            149  H  10  Y     0.00886     0.02031
            150  H  10  Z     0.00520     0.01615
            151  H  11  S     0.74701     0.58250
            152  H  11  S     0.15868     0.22363
            153  H  11  X     0.01836     0.03608
            154  H  11  Y     0.00886     0.02033
            155  H  11  Z     0.00520     0.01615
            156  H  12  S     0.74700     0.58290
            157  H  12  S     0.15867     0.22367
            158  H  12  X     0.01892     0.03694
            159  H  12  Y     0.00852     0.01985
            160  H  12  Z     0.00499     0.01585

          ----- MULLIKEN ATOMIC OVERLAP POPULATIONS -----
          (OFF-DIAGONAL ELEMENTS NEED TO BE MULTIPLIED BY 2)

             1           2           3           4           5

    1    4.8965568
    2    0.5565678   4.8966867
    3   -0.0998553   0.0104583   4.8966633
    4    0.0104694  -0.0998750   0.5565368   4.8967158
    5    0.4136517  -0.0495642   0.4136750  -0.0495794   4.4176101
    6   -0.0495858   0.4136430  -0.0495569   0.4136320  -0.0195606
    7    0.0061304  -0.0588026   0.0061284  -0.0587767  -0.0008233
    8   -0.0587781   0.0061264  -0.0587758   0.0061287   0.4126498
    9    0.0044952  -0.0009296   0.4242117  -0.0313666  -0.0152102
   10   -0.0009298   0.0044951  -0.0313648   0.4242068   0.0052135
   11    0.4242242  -0.0313639   0.0044953  -0.0009302  -0.0152081
   12   -0.0313562   0.4242213  -0.0009294   0.0044951   0.0052144

             6           7           8           9          10

    6    4.4176007
    7    0.4127349   8.1679888
    8   -0.0008223   0.0002348   8.1682142
    9    0.0052123  -0.0002783  -0.0059337   0.5663218
   10   -0.0152133  -0.0059321  -0.0002785  -0.0084761   0.5663728
   11    0.0052131  -0.0002784  -0.0059396  -0.0000235   0.0000017
   12   -0.0152127  -0.0059363  -0.0002785   0.0000017  -0.0000236

            11          12

   11    0.5663992
   12   -0.0084765   0.5663834

          TOTAL MULLIKEN AND LOWDIN ATOMIC POPULATIONS
       ATOM         MULL.POP.    CHARGE          LOW.POP.     CHARGE
    1 C             6.071590   -0.071590         6.008731   -0.008731
    2 C             6.071663   -0.071663         6.008250   -0.008250
    3 C             6.071687   -0.071687         6.008268   -0.008268
    4 C             6.071657   -0.071657         6.008739   -0.008739
    5 C             5.518069    0.481931         5.670514    0.329486
    6 C             5.518085    0.481915         5.670546    0.329454
    7 O             8.462390   -0.462390         8.554557   -0.554557
    8 O             8.462547   -0.462547         8.554668   -0.554668
    9 H             0.938025    0.061975         0.879159    0.120841
   10 H             0.938072    0.061928         0.878676    0.121324
   11 H             0.938113    0.061887         0.878689    0.121311
   12 H             0.938103    0.061897         0.879202    0.120798

          -------------------------------
          BOND ORDER AND VALENCE ANALYSIS     BOND ORDER THRESHOLD=0.050
          -------------------------------

                   BOND                       BOND                       BOND
  ATOM PAIR DIST  ORDER      ATOM PAIR DIST  ORDER      ATOM PAIR DIST  ORDER
    1   2  1.342  1.842        1   5  1.481  1.065        1  11  1.086  0.979
    2   6  1.482  1.065        2  12  1.086  0.979        3   4  1.342  1.842
    3   5  1.482  1.065        3   9  1.086  0.979        4   6  1.481  1.065
    4  10  1.086  0.979        5   8  1.220  1.673        6   7  1.220  1.673

                       TOTAL       BONDED        FREE
      ATOM            VALENCE     VALENCE     VALENCE
    1 C                 3.904       3.904       0.000
    2 C                 3.904       3.904       0.000
    3 C                 3.904       3.904       0.000
    4 C                 3.904       3.904       0.000
    5 C                 3.830       3.830       0.000
    6 C                 3.830       3.830       0.000
    7 O                 1.758       1.758       0.000
    8 O                 1.758       1.758       0.000
    9 H                 0.995       0.995       0.000
   10 H                 0.995       0.995       0.000
   11 H                 0.995       0.995       0.000
   12 H                 0.995       0.995       0.000

          ---------------------
          ELECTROSTATIC MOMENTS
          ---------------------

 POINT   1           X           Y           Z (BOHR)    CHARGE
                 1.239440    1.623735   -2.706265        0.00 (A.U.)
         DX          DY          DZ         /D/  (DEBYE)
     0.000217    0.000258    0.009962    0.009968
 ...... END OF PROPERTY EVALUATION ......

                         TIMING STATISTICS ON RANK 0:
 CPU        TIME:   STEP =      0.03 ,  TOTAL =        9.0 SECONDS (    0.1 MIN)
 WALL CLOCK TIME:   STEP =      0.04 ,  TOTAL =        8.7 SECONDS (    0.1 MIN)
 CPU UTILIZATION:   STEP =     81.24%,  TOTAL =     103.61%
 ......END OF NBO ANALYSIS......

                         TIMING STATISTICS ON RANK 0:
 CPU        TIME:   STEP =      0.01 ,  TOTAL =        9.0 SECONDS (    0.1 MIN)
 WALL CLOCK TIME:   STEP =      0.00 ,  TOTAL =        8.7 SECONDS (    0.1 MIN)
 CPU UTILIZATION:   STEP =    239.75%,  TOTAL =     103.67%

          ---------------------------------------------
             ATOMIC ORBITAL BASIS CI-SINGLES ENERGY
             PROGRAM WRITTEN BY SIMON P. WEBB
          ---------------------------------------------

 # CORE ORBITALS      =    8
 # OCCUPIED ORBITALS  =   20
 # MOLECULAR ORBITALS =  150
 # BASIS FUNCTIONS    =  160

 NUMBER OF CIS   SPIN-ADAPTED ANTISYMMETRIZED PRODUCTS (SAPS) IS    2440

 APPROXIMATING CIS HAMILTONIAN DIAGONAL ELEMENTS USING ONLY ORBITAL ENERGIES

 -CIS- HAM. DIAGONAL ELEMENTS  TOOK      0.000 SECONDS

 MIN MEMORY REQ. FOR CIS   ENERGY FOCK-LIKE BUILDS =     51205 WORDS
 MEMORY REQ. FOR SINGLE BATCH BUILDS               =    512005 WORDS
 MEMORY AVAILABLE                                  = 199639557 WORDS

 SINGLE BATCH ENERGY CALCULATION WILL BE PERFORMED

 UNIT VECTOR GUESS AT CIS   COEFICIENTS ...

 -------------------------------------------------------------------
 USING DAVIDSON ALGORITHM TO FIND CIS   EIGENVALUES AND EIGENVECTORS
 -------------------------------------------------------------------

 NUMBER OF STATES REQUESTED =     4
 NUMBER OF GUESS VECTORS    =    10
 MAX. NUMB. OF EXPAN. VECS. =    32
 MAX. NUMB. OF ITERATIONS   =    50
 CONVERGENCE CRITERION      =    1.0E-05

 STARTING DAVIDSON ITERATIONS

 STATE      ITERATION      ENERGY         RESIDUE NORM
   1            1     -379.0705212628     0.11849301
   2            1     -379.0602725825     0.13366270
   3            1     -379.0575556555     0.12886831
   4            1     -379.0024393306     0.16347602

   1            2     -379.1168868241     0.04588369
   2            2     -379.1148777597     0.04150936
   3            2     -379.0750559683     0.02541475
   4            2     -379.0279406418     0.04826966

   1            3     -379.1218790385     0.02086417
   2            3     -379.1179773339     0.01380080
   3            3     -379.0770556936     0.01107315
   4            3     -379.0341638908     0.02765498

   1            4     -379.1226369341     0.00524585
   2            4     -379.1183153451     0.00378254
   3            4     -379.0772612351     0.00269941
   4            4     -379.0352673621     0.01222725

   1            5     -379.1226750048     0.00105903
   2            5     -379.1183376935     0.00108533
   3            5     -379.0772710350     0.00044764
   4            5     -379.0354571004     0.00376302

   1            6     -379.1226764426     0.00020616
   2            6     -379.1183397132     0.00028145
   3            6     -379.0772712394     0.00008731
   4            6     -379.0354777889     0.00118458

   1            7     -379.1226765087     0.00004811
   2            7     -379.1183398168     0.00003971
   3            7     -379.0772712471     0.00002123
   4            7     -379.0354799031     0.00054359

   1            8     -379.1226765113     0.00000798
   2            8     -379.1183398187     0.00000782
   3            8     -379.0772712474     0.00000481
   4            8     -379.0354803776     0.00016755

   1            9     -379.1226765113     0.00000798
   2            9     -379.1183398187     0.00000782
   3            9     -379.0772712474     0.00000481
   4            9     -379.0354803998     0.00003567

   1           10     -379.1226765113     0.00000798
   2           10     -379.1183398187     0.00000782
   3           10     -379.0772712474     0.00000481
   4           10     -379.0354804015     0.00001280

   1           11     -379.1226765113     0.00000798
   2           11     -379.1183398187     0.00000782
   3           11     -379.0772712474     0.00000478
   4           11     -379.0354804017     0.00000454

 ALL STATES CONVERGED IN   11 ITERATIONS

 CONVERGED STATE    1 ENERGY=     -379.1226765113
 CONVERGED STATE    2 ENERGY=     -379.1183398187
 CONVERGED STATE    3 ENERGY=     -379.0772712474
 CONVERGED STATE    4 ENERGY=     -379.0354804017


        --------------------------------------------------------
        RESULTS FROM SPIN-ADAPTED ANTISYMMETRIZED PRODUCT (SAPS)
        BASED ATOMIC ORBITAL CI-SINGLES ENERGY CALCULATION
        --------------------------------------------------------

 PRINTING CIS   COEFFICIENTS LARGER THAN  0.050000

 RHF REFERENCE ENERGY  =      -379.2742653140


 EXCITED STATE   1  ENERGY=      -379.1226765113  S = 0.0  SPACE SYM = A   

          ----------------------------------------------
          SINGLE EXCITATION               SAP COEFFICENT
          FROM MO     TO MO
          ----------------------------------------------
            23         29                   0.14205042
            23         45                  -0.08738983
            25         31                  -0.31733703
            25         39                  -0.23393586
            26         29                  -0.88229768
            26         45                   0.13959741
          ----------------------------------------------


 EXCITED STATE   2  ENERGY=      -379.1183398187  S = 0.0  SPACE SYM = A   

          ----------------------------------------------
          SINGLE EXCITATION               SAP COEFFICENT
          FROM MO     TO MO
          ----------------------------------------------
            16         45                  -0.05685374
            21         30                   0.05016173
            23         31                  -0.11799149
            23         39                  -0.10335067
            25         29                   0.87820875
            25         45                  -0.16042019
            26         31                   0.32067722
            26         39                   0.23193166
          ----------------------------------------------


 EXCITED STATE   3  ENERGY=      -379.0772712474  S = 0.0  SPACE SYM = A   

          ----------------------------------------------
          SINGLE EXCITATION               SAP COEFFICENT
          FROM MO     TO MO
          ----------------------------------------------
            27         29                  -0.69858041
            27         30                  -0.11696369
            28         29                   0.67931324
            28         30                  -0.12035989
          ----------------------------------------------


 EXCITED STATE   4  ENERGY=      -379.0354804017  S = 0.0  SPACE SYM = A   

          ----------------------------------------------
          SINGLE EXCITATION               SAP COEFFICENT
          FROM MO     TO MO
          ----------------------------------------------
            24         31                   0.12050571
            25         37                  -0.08103730
            25         49                   0.07114025
            26         47                   0.07276596
            27         29                   0.67242710
            28         29                   0.69151148
          ----------------------------------------------

 ------------------------------------------------------------------------------
                        CI-SINGLES EXCITATION ENERGIES
 STATE       HARTREE        EV      KCAL/MOL       CM-1   NANOMETERS  OSC. STR.
 ------------------------------------------------------------------------------
  1A      0.1515888027    4.1249     95.1234     33269.90     300.57  0.0000000
  1A      0.1559254953    4.2429     97.8447     34221.69     292.21  0.0000000
  1A      0.1969940666    5.3605    123.6157     43235.20     231.29  0.0000001
  1A      0.2387849122    6.4977    149.8398     52407.23     190.81  1.1121538


              Unrelaxed dipole moments and transition dipoles
               States                  <i|mu|j>     (e*bohr)
               i    j         x            y            z

               0    0    0.0000855    0.0001015    0.0039192
               0    1   -0.0001857   -0.0000448   -0.0000088
               0    2    0.0000077   -0.0000026   -0.0000292
               0    3   -0.0001334    0.0007219   -0.0000849
               0    4   -0.0415302    2.6265715   -0.2927965

               1    0   -0.0001857   -0.0000448   -0.0000088
               1    1   -0.0000612    0.0083347    0.0014052
               1    2    0.0319843   -2.0157793    0.2246571
               1    3   -0.0000161   -0.0015202    0.0001191
               1    4   -0.0001072    0.0000006    0.0000151

               2    0    0.0000077   -0.0000026   -0.0000292
               2    1    0.0319843   -2.0157793    0.2246571
               2    2    0.0002380   -0.0081458    0.0028989
               2    3    0.0017278    0.0034362    0.0319642
               2    4   -0.0014500   -0.0000826    0.0000714

               3    0   -0.0001334    0.0007219   -0.0000849
               3    1   -0.0000161   -0.0015202    0.0001191
               3    2    0.0017278    0.0034362    0.0319642
               3    3    0.0012194    0.0001112    0.0054251
               3    4    1.5073254    0.0147988   -0.0828820

               4    0   -0.0415302    2.6265715   -0.2927965
               4    1   -0.0001072    0.0000006    0.0000151
               4    2   -0.0014500   -0.0000826    0.0000714
               4    3    1.5073254    0.0147988   -0.0828820
               4    4   -0.0004903    0.0005903    0.0036814


 -CIS- ENERGY                  TOOK     10.510 SECONDS

 CIS   NATURAL ORBITAL OCCUPATION NUMBERS FOR EXCITED STATE    1 ARE
  2.0000 2.0000 2.0000 2.0000 2.0000 2.0000 2.0000 2.0000 2.0000 2.0000
  2.0000 2.0000 2.0000 2.0000 2.0000 2.0000 2.0000 2.0000 1.9999 1.9999
  1.9999 1.9997 1.9997 1.9994 1.9967 1.9951 1.8345 1.1753 0.8247 0.1655
  0.0049 0.0033 0.0006 0.0003 0.0003 0.0001 0.0001 0.0001 0.0000 0.0000
  0.0000 0.0000 0.0000 0.0000 0.0000 0.0000 0.0000 0.0000 0.0000 0.0000
  0.0000 0.0000 0.0000 0.0000 0.0000 0.0000 0.0000 0.0000 0.0000 0.0000
  0.0000 0.0000 0.0000 0.0000 0.0000 0.0000 0.0000 0.0000 0.0000 0.0000
  0.0000 0.0000 0.0000 0.0000 0.0000 0.0000 0.0000 0.0000 0.0000 0.0000
  0.0000 0.0000 0.0000 0.0000 0.0000 0.0000 0.0000 0.0000 0.0000 0.0000
  0.0000 0.0000 0.0000 0.0000 0.0000 0.0000 0.0000 0.0000 0.0000 0.0000
  0.0000 0.0000 0.0000 0.0000 0.0000 0.0000 0.0000 0.0000 0.0000 0.0000
  0.0000 0.0000 0.0000 0.0000 0.0000 0.0000 0.0000 0.0000 0.0000 0.0000
  0.0000 0.0000 0.0000 0.0000 0.0000 0.0000 0.0000 0.0000 0.0000 0.0000
  0.0000 0.0000 0.0000 0.0000 0.0000 0.0000 0.0000 0.0000 0.0000 0.0000
  0.0000 0.0000 0.0000 0.0000 0.0000 0.0000 0.0000 0.0000 0.0000 0.0000
  0.0000 0.0000 0.0000 0.0000 0.0000 0.0000 0.0000 0.0000 0.0000 0.0000
 THERE ARE    55.0000 ELECTRONS IN PRINCIPAL CIS   NATURAL ORBITALS.
 THERE ARE     1.0000 ELECTRONS IN SECONDARY CIS   NATURAL ORBITALS.
 CIS   NATURAL ORBITALS HAVE BEEN PUNCHED.

 ..... DONE WITH CIS ENERGY .....


                         TIMING STATISTICS ON RANK 0:
 CPU        TIME:   STEP =     10.54 ,  TOTAL =       19.5 SECONDS (    0.3 MIN)
 WALL CLOCK TIME:   STEP =     10.15 ,  TOTAL =       18.8 SECONDS (    0.3 MIN)
 CPU UTILIZATION:   STEP =    103.89%,  TOTAL =     103.79%

     -----------------------------------------------------------
     CIS PROPERTIES...FOR THE WAVEFUNCTION OF EXCITED STATE    1
                (USING THE EXPECTATION VALUE DENSITY)
     -----------------------------------------------------------


                         -----------------------------
                         properties for the CI density
                         -----------------------------

          -----------------
          ENERGY COMPONENTS
          -----------------

         WAVEFUNCTION NORMALIZATION =       1.0000000000

                ONE ELECTRON ENERGY =   -1156.2767419402
                TWO ELECTRON ENERGY =     453.8912142286
           NUCLEAR REPULSION ENERGY =     323.2628512003
                                      ------------------
                       TOTAL ENERGY =    -379.1226765113

 ELECTRON-ELECTRON POTENTIAL ENERGY =     453.8912142286
  NUCLEUS-ELECTRON POTENTIAL ENERGY =   -1534.7192648012
   NUCLEUS-NUCLEUS POTENTIAL ENERGY =     323.2628512003
                                      ------------------
             TOTAL POTENTIAL ENERGY =    -757.5651993723
               TOTAL KINETIC ENERGY =     378.4425228610
                 VIRIAL RATIO (V/T) =       2.0017972443

          ---------------------------------------
          MULLIKEN AND LOWDIN POPULATION ANALYSES
          ---------------------------------------

     MULLIKEN ATOMIC POPULATION IN EACH MOLECULAR ORBITAL

                      1          2          3          4          5

                  2.000000   2.000000   2.000000   2.000000   2.000000

    1            -0.000002  -0.000006   0.000022   0.000131   0.336863
    2            -0.000007   0.000000   0.000061   0.000091   0.349656
    3            -0.000002  -0.000006   0.000022   0.000131   0.668222
    4            -0.000007   0.000000   0.000061   0.000091   0.644109
    5             0.000016   0.001526   0.241830   1.758872   0.000497
    6             0.001546  -0.000004   1.759083   0.241621   0.000490
    7             1.990767   0.007689  -0.000903  -0.000089   0.000010
    8             0.007673   1.990784  -0.000150  -0.000841   0.000011
    9             0.000000   0.000008  -0.000003  -0.000006   0.000037
   10             0.000008   0.000000  -0.000010   0.000002   0.000039
   11             0.000000   0.000008  -0.000003  -0.000006   0.000033
   12             0.000008   0.000000  -0.000010   0.000002   0.000032

                      6          7          8          9         10

                  2.000000   2.000000   2.000000   2.000000   2.000000

    1             0.643474   0.271139   0.747266   0.012508   0.009166
    2             0.668544   0.260866   0.719676   0.012864   0.008769
    3             0.349570   0.719802   0.261148   0.012509   0.009164
    4             0.336635   0.747185   0.270812   0.012865   0.008769
    5             0.000627   0.000606   0.000604   0.277882   0.270037
    6             0.000634   0.000617   0.000592   0.296704   0.251345
    7             0.000293  -0.000006   0.000127   0.712186   0.697678
    8             0.000291  -0.000008   0.000129   0.664100   0.745819
    9            -0.000021  -0.000082  -0.000056  -0.000394  -0.000196
   10            -0.000020  -0.000084  -0.000057  -0.000416  -0.000178
   11            -0.000014  -0.000018  -0.000123  -0.000394  -0.000196
   12            -0.000015  -0.000018  -0.000120  -0.000415  -0.000177

                     11         12         13         14         15

                  2.000000   2.000000   2.000000   2.000000   2.000000

    1             0.358403   0.402780   0.226357   0.275432   0.258879
    2             0.358363   0.402617   0.226494   0.275467   0.258863
    3             0.358773   0.402270   0.226574   0.275333   0.258949
    4             0.358808   0.402391   0.226515   0.275308   0.258987
    5             0.187891   0.089695   0.358874   0.204707   0.238786
    6             0.187828   0.089643   0.358875   0.204687   0.238844
    7             0.049260   0.006496   0.127678   0.067607   0.123146
    8             0.049323   0.006495   0.127714   0.067580   0.123082
    9             0.022841   0.049351   0.030253   0.088493   0.060007
   10             0.022854   0.049392   0.030216   0.088374   0.060193
   11             0.022830   0.049448   0.030190   0.088426   0.060222
   12             0.022826   0.049421   0.030261   0.088585   0.060042

                     16         17         18         19         20

                  2.000000   2.000000   2.000000   2.000000   2.000000

    1             0.238623   0.157618   0.119174   0.315014   0.132329
    2             0.238668   0.157522   0.119425   0.314276   0.132895
    3             0.239053   0.157309   0.119161   0.314280   0.132902
    4             0.239033   0.157170   0.119346   0.314957   0.132061
    5             0.290859   0.113898   0.100038   0.029644   0.229010
    6             0.290897   0.114059   0.099880   0.029636   0.229302
    7             0.228939   0.429760   0.429650   0.000653   0.312171
    8             0.228746   0.428781   0.430240   0.000655   0.311685
    9             0.001294   0.071059   0.115642   0.169959   0.097209
   10             0.001295   0.070899   0.115829   0.170492   0.096510
   11             0.001297   0.071025   0.115689   0.170511   0.096798
   12             0.001297   0.070900   0.115926   0.169924   0.097127

                     21         22         23         24         25

                  2.000000   2.000000   2.000000   2.000000   2.000000

    1             0.221772   0.166111   0.136374   0.017650   0.106450
    2             0.222041   0.166219   0.136083   0.017470   0.106518
    3             0.221941   0.166212   0.136351   0.017608   0.106419
    4             0.221782   0.166226   0.136540   0.017515   0.106395
    5             0.161257   0.296068   0.112385   0.337409   0.061386
    6             0.161052   0.296526   0.112311   0.336818   0.061401
    7             0.297090   0.349431   0.362657   0.627268   0.722505
    8             0.297639   0.348780   0.362513   0.627893   0.723025
    9             0.049059   0.011189   0.125985   0.000092   0.001473
   10             0.048667   0.011031   0.126609   0.000092   0.001474
   11             0.048564   0.011014   0.126400   0.000093   0.001481
   12             0.049136   0.011194   0.125792   0.000092   0.001473

                     26         27         28

                  2.000000   2.000000   2.000000

    1             0.129476   0.015611   0.772973
    2             0.129629   0.015599   0.772993
    3             0.129526   0.778432   0.010032
    4             0.129544   0.778533   0.010025
    5             0.119732   0.016787   0.017145
    6             0.119794   0.016787   0.017116
    7             0.540035   0.184835   0.195454
    8             0.539932   0.184824   0.195833
    9             0.040578   0.004143   0.000110
   10             0.040608   0.004145   0.000110
   11             0.040580   0.000152   0.004104
   12             0.040567   0.000152   0.004104

               ----- POPULATIONS IN EACH AO -----
                             MULLIKEN      LOWDIN
              1  C   1  S     2.00459     1.86845
              2  C   1  S     0.66086     0.48007
              3  C   1  S     0.49731     0.26292
              4  C   1  X     0.68561     0.59760
              5  C   1  Y     0.76736     0.67849
              6  C   1  Z     0.54516     0.49317
              7  C   1  X     0.22761     0.33574
              8  C   1  Y     0.17163     0.29107
              9  C   1  Z     0.44911     0.45584
             10  C   1 XX     0.01157     0.17527
             11  C   1 YY     0.01145     0.18424
             12  C   1 ZZ     0.00314     0.08783
             13  C   1 XY     0.02832     0.07116
             14  C   1 XZ     0.00546     0.01153
             15  C   1 YZ     0.01786     0.03481
             16  C   2  S     2.00459     1.86843
             17  C   2  S     0.66090     0.48003
             18  C   2  S     0.49742     0.26293
             19  C   2  X     0.68661     0.59853
             20  C   2  Y     0.76684     0.67780
             21  C   2  Z     0.54486     0.49300
             22  C   2  X     0.22717     0.33802
             23  C   2  Y     0.17201     0.28971
             24  C   2  Z     0.44946     0.45521
             25  C   2 XX     0.01138     0.17552
             26  C   2 YY     0.01146     0.18403
             27  C   2 ZZ     0.00315     0.08800
             28  C   2 XY     0.02838     0.07115
             29  C   2 XZ     0.00543     0.01087
             30  C   2 YZ     0.01796     0.03492
             31  C   3  S     2.00459     1.86842
             32  C   3  S     0.66088     0.48000
             33  C   3  S     0.49742     0.26292
             34  C   3  X     0.68646     0.59838
             35  C   3  Y     0.76680     0.67776
             36  C   3  Z     0.54479     0.49292
             37  C   3  X     0.22720     0.33803
             38  C   3  Y     0.17198     0.28973
             39  C   3  Z     0.44925     0.45506
             40  C   3 XX     0.01137     0.17548
             41  C   3 YY     0.01146     0.18405
             42  C   3 ZZ     0.00316     0.08800
             43  C   3 XY     0.02839     0.07117
             44  C   3 XZ     0.00545     0.01091
             45  C   3 YZ     0.01798     0.03498
             46  C   4  S     2.00459     1.86845
             47  C   4  S     0.66089     0.48010
             48  C   4  S     0.49733     0.26293
             49  C   4  X     0.68570     0.59768
             50  C   4  Y     0.76745     0.67857
             51  C   4  Z     0.54534     0.49334
             52  C   4  X     0.22774     0.33579
             53  C   4  Y     0.17162     0.29103
             54  C   4  Z     0.44919     0.45591
             55  C   4 XX     0.01156     0.17524
             56  C   4 YY     0.01145     0.18425
             57  C   4 ZZ     0.00314     0.08785
             58  C   4 XY     0.02832     0.07116
             59  C   4 XZ     0.00545     0.01151
             60  C   4 YZ     0.01785     0.03478
             61  C   5  S     2.00525     1.82313
             62  C   5  S     0.69732     0.48297
             63  C   5  S     0.39058     0.22020
             64  C   5  X     0.71616     0.59405
             65  C   5  Y     0.74636     0.65735
             66  C   5  Z     0.54620     0.46921
             67  C   5  X     0.08387     0.27534
             68  C   5  Y     0.01120     0.22264
             69  C   5  Z     0.31882     0.33112
             70  C   5 XX     0.02085     0.16664
             71  C   5 YY     0.02795     0.20178
             72  C   5 ZZ     0.00629     0.07357
             73  C   5 XY     0.06796     0.15340
             74  C   5 XZ     0.01163     0.02588
             75  C   5 YZ     0.04217     0.09100
             76  C   6  S     2.00525     1.82313
             77  C   6  S     0.69732     0.48297
             78  C   6  S     0.39063     0.22020
             79  C   6  X     0.71623     0.59411
             80  C   6  Y     0.74653     0.65750
             81  C   6  Z     0.54520     0.46829
             82  C   6  X     0.08384     0.27534
             83  C   6  Y     0.01096     0.22259
             84  C   6  Z     0.31834     0.33077
             85  C   6 XX     0.02085     0.16661
             86  C   6 YY     0.02794     0.20184
             87  C   6 ZZ     0.00625     0.07343
             88  C   6 XY     0.06817     0.15388
             89  C   6 XZ     0.01159     0.02579
             90  C   6 YZ     0.04222     0.09105
             91  O   7  S     2.00326     1.87425
             92  O   7  S     0.84930     0.64169
             93  O   7  S     0.96484     0.41771
             94  O   7  S     0.04358     0.11209
             95  O   7  X     0.92501     0.88451
             96  O   7  Y     0.89472     0.83952
             97  O   7  Z     0.84947     0.80574
             98  O   7  X     0.61261     0.54685
             99  O   7  Y     0.41129     0.52544
            100  O   7  Z     0.62390     0.60348
            101  O   7  X     0.03081     0.07841
            102  O   7  Y    -0.01381     0.07972
            103  O   7  Z     0.03040     0.08728
            104  O   7 XX     0.00174     0.17720
            105  O   7 YY     0.00641     0.19765
            106  O   7 ZZ     0.00155     0.17638
            107  O   7 XY     0.00333     0.00367
            108  O   7 XZ     0.00006     0.00005
            109  O   7 YZ     0.00631     0.00625
            110  O   7 XX     0.00070     0.05461
            111  O   7 YY     0.00151     0.12375
            112  O   7 ZZ     0.00042     0.05166
            113  O   7 XY     0.00858     0.06249
            114  O   7 XZ    -0.00019     0.00146
            115  O   7 YZ     0.01788     0.05955
            116  O   8  S     2.00326     1.87425
            117  O   8  S     0.84930     0.64170
            118  O   8  S     0.96488     0.41772
            119  O   8  S     0.04359     0.11209
            120  O   8  X     0.92317     0.88275
            121  O   8  Y     0.89463     0.83942
            122  O   8  Z     0.85020     0.80651
            123  O   8  X     0.61149     0.54594
            124  O   8  Y     0.41151     0.52551
            125  O   8  Z     0.62398     0.60364
            126  O   8  X     0.03072     0.07832
            127  O   8  Y    -0.01378     0.07972
            128  O   8  Z     0.03039     0.08730
            129  O   8 XX     0.00174     0.17721
            130  O   8 YY     0.00640     0.19761
            131  O   8 ZZ     0.00155     0.17640
            132  O   8 XY     0.00333     0.00366
            133  O   8 XZ     0.00006     0.00005
            134  O   8 YZ     0.00631     0.00626
            135  O   8 XX     0.00070     0.05462
            136  O   8 YY     0.00153     0.12370
            137  O   8 ZZ     0.00045     0.05173
            138  O   8 XY     0.00858     0.06240
            139  O   8 XZ    -0.00019     0.00150
            140  O   8 YZ     0.01786     0.05970
            141  H   9  S     0.74067     0.57731
            142  H   9  S     0.15681     0.22162
            143  H   9  X     0.01888     0.03676
            144  H   9  Y     0.00851     0.01973
            145  H   9  Z     0.00539     0.01738
            146  H  10  S     0.74070     0.57693
            147  H  10  S     0.15681     0.22159
            148  H  10  X     0.01833     0.03590
            149  H  10  Y     0.00885     0.02021
            150  H  10  Z     0.00561     0.01770
            151  H  11  S     0.74076     0.57697
            152  H  11  S     0.15681     0.22157
            153  H  11  X     0.01834     0.03590
            154  H  11  Y     0.00885     0.02022
            155  H  11  Z     0.00560     0.01769
            156  H  12  S     0.74074     0.57734
            157  H  12  S     0.15680     0.22160
            158  H  12  X     0.01889     0.03678
            159  H  12  Y     0.00851     0.01974
            160  H  12  Z     0.00539     0.01740

          ----- MULLIKEN ATOMIC OVERLAP POPULATIONS -----
          (OFF-DIAGONAL ELEMENTS NEED TO BE MULTIPLIED BY 2)

             1           2           3           4           5

    1    4.8928404
    2    0.5732829   4.8935778
    3   -0.0765737  -0.0030416   4.8929927
    4   -0.0030268  -0.0766140   0.5732492   4.8936032
    5    0.4135478  -0.0556391   0.4135772  -0.0556448   4.6494422
    6   -0.0555878   0.4136082  -0.0555737   0.4136094  -0.0213923
    7    0.0053012  -0.0577033   0.0053004  -0.0576871  -0.0005766
    8   -0.0575999   0.0052905  -0.0575980   0.0052917   0.3640763
    9    0.0040464  -0.0006854   0.4250188  -0.0335437  -0.0122055
   10   -0.0006846   0.0040455  -0.0335397   0.4250160   0.0048259
   11    0.4250306  -0.0335396   0.0040465  -0.0006860  -0.0122034
   12   -0.0335305   0.4250312  -0.0006844   0.0040460   0.0048272

             6           7           8           9          10

    6    4.6475039
    7    0.3645055   8.0317928
    8   -0.0005796   0.0002711   8.0301080
    9    0.0048274  -0.0001128  -0.0086724   0.5595920
   10   -0.0122098  -0.0086655  -0.0001117  -0.0079814   0.5596140
   11    0.0048280  -0.0001128  -0.0086782  -0.0000116  -0.0000010
   12   -0.0122117  -0.0086676  -0.0001118  -0.0000010  -0.0000116

            11          12

   11    0.5596689
   12   -0.0079821   0.5596302

          TOTAL MULLIKEN AND LOWDIN ATOMIC POPULATIONS
       ATOM         MULL.POP.    CHARGE          LOW.POP.     CHARGE
    1 C             6.087046   -0.087046         6.028199   -0.028199
    2 C             6.087613   -0.087613         6.028147   -0.028147
    3 C             6.087174   -0.087174         6.027820   -0.027820
    4 C             6.087613   -0.087613         6.028594   -0.028594
    5 C             5.692635    0.307365         5.788280    0.211720
    6 C             5.691328    0.308672         5.787518    0.212482
    7 O             8.273645   -0.273645         8.411392   -0.411392
    8 O             8.271686   -0.271686         8.409721   -0.409721
    9 H             0.930271    0.069729         0.872805    0.127195
   10 H             0.930296    0.069704         0.872329    0.127671
   11 H             0.930359    0.069641         0.872349    0.127651
   12 H             0.930334    0.069666         0.872846    0.127154

          -------------------------------
          BOND ORDER AND VALENCE ANALYSIS     BOND ORDER THRESHOLD=0.050
          -------------------------------

                   BOND                       BOND                       BOND
  ATOM PAIR DIST  ORDER      ATOM PAIR DIST  ORDER      ATOM PAIR DIST  ORDER
    1   2  1.342  1.772        1   5  1.481  1.066        1  11  1.086  0.972
    2   6  1.482  1.066        2  12  1.086  0.972        3   4  1.342  1.772
    3   5  1.482  1.066        3   9  1.086  0.972        4   6  1.481  1.066
    4  10  1.086  0.972        5   8  1.220  1.442        6   7  1.220  1.443

                       TOTAL       BONDED        FREE
      ATOM            VALENCE     VALENCE     VALENCE
    1 C                 3.919       3.784       0.136
    2 C                 3.919       3.784       0.136
    3 C                 3.919       3.784       0.136
    4 C                 3.919       3.784       0.136
    5 C                 3.915       3.576       0.339
    6 C                 3.915       3.578       0.337
    7 O                 2.165       1.506       0.660
    8 O                 2.168       1.504       0.664
    9 H                 0.994       0.984       0.011
   10 H                 0.994       0.984       0.011
   11 H                 0.994       0.984       0.011
   12 H                 0.994       0.984       0.011

          ---------------------
          ELECTROSTATIC MOMENTS
          ---------------------

 POINT   1           X           Y           Z (BOHR)    CHARGE
                 1.239440    1.623735   -2.706265        0.00 (A.U.)
         DX          DY          DZ         /D/  (DEBYE)
    -0.000155    0.021185    0.003572    0.021484
 ...... END OF PROPERTY EVALUATION ......

                         TIMING STATISTICS ON RANK 0:
 CPU        TIME:   STEP =      0.02 ,  TOTAL =       19.5 SECONDS (    0.3 MIN)
 WALL CLOCK TIME:   STEP =      0.03 ,  TOTAL =       18.8 SECONDS (    0.3 MIN)
 CPU UTILIZATION:   STEP =     68.16%,  TOTAL =     103.73%
 ......END OF NBO ANALYSIS......

                         TIMING STATISTICS ON RANK 0:
 CPU        TIME:   STEP =      0.01 ,  TOTAL =       19.6 SECONDS (    0.3 MIN)
 WALL CLOCK TIME:   STEP =      0.00 ,  TOTAL =       18.8 SECONDS (    0.3 MIN)
 CPU UTILIZATION:   STEP =    219.93%,  TOTAL =     103.76%

                         OVERALL  TIMING  STATISTICS:
 GLOBAL CPU TIME ELAPSED      =       113.0 SECONDS (     1.9 MIN)
 RANK 0 WALL CLOCK TIME       =        18.8 SECONDS (     0.3 MIN)
 JOB CPU UTILIZATION:   TOTAL =    599.96%, PER RANK AVERAGE =     99.99%

     1951958 WORDS OF    DYNAMIC MEMORY USED
     5585795 BYTES OF    HEAP MEMORY    USED,      132990 BYTES REMAIN IN USE

 WARNING! THIS VERSION OF FIREFLY IS PROBABLY OUTDATED!
 PLEASE CHECK FIREFLY HOMEPAGE FOR INFORMATION ON UPDATES!

 EXECUTION OF FIREFLY TERMINATED NORMALLY  2:25:25 18-MAY-2026    
